ITEM: TIMESTEP
87
ITEM: NUMBER OF ATOMS
17136
ITEM: BOX BOUNDS pp ss pp
0.0000000000000000e+00 6.4292383637599997e+01
-6.4608629439699998e-03 6.2596070632943970e+01
0.0000000000000000e+00 4.8958625098699997e+01
ITEM: ATOMS id type x y z c_cna c_cs c_peat
1 1 0.824261 0 2.33136 5 12.2293 -3.54465
2 1 0 0 0 5 12.2293 -3.54465
3 1 2.47278 0 0 5 12.2293 -3.54465
4 1 0.824261 4.03804 2.33136 3 5.776e-17 -4.12138
5 1 0 4.03804 0 3 2.811e-17 -4.12138
6 1 2.47278 4.03804 0 3 4.0507e-16 -4.12138
7 1 0.824261 2.01902 5.82841 3 5.776e-17 -4.10627
8 1 0 2.01902 3.49704 3 2.304e-17 -4.10627
9 1 2.47278 2.01902 3.49704 3 4e-16 -4.10627
10 1 1.64852 2.01902 1.16568 3 5.945e-17 -4.10627
11 1 4.12131 2.01902 1.16568 3 1.0169e-16 -4.10627
12 1 0.824261 0 9.32545 5 12.2293 -3.54465
13 1 0 0 6.99409 5 12.2293 -3.54465
14 1 2.47278 0 6.99409 5 12.2293 -3.54465
15 1 1.64852 0 4.66273 5 12.2293 -3.54465
16 1 4.12131 0 4.66273 5 12.2293 -3.54465
17 1 3.29705 0 2.33136 5 12.2293 -3.54465
18 1 5.76983 0 2.33136 5 12.2293 -3.54465
19 1 4.94557 0 0 5 12.2293 -3.54465
20 1 7.41835 0 0 5 12.2293 -3.54465
21 1 0.823984 8.09664 2.33099 3 1.50246e-06 -4.12227
22 1 4.54085e-11 8.09664 4.9836e-10 3 1.46163e-06 -4.12227
23 1 2.47195 8.09656 48.9575 3 1.82513e-06 -4.12227
24 1 0.824261 6.05706 5.82841 3 0.000845304 -4.12208
25 1 0 6.05706 3.49704 3 0.000845584 -4.12208
26 1 2.47278 6.05706 3.49704 3 0.000842843 -4.12208
27 1 1.64852 6.05706 1.16568 3 0.000844394 -4.12208
28 1 4.12131 6.05706 1.16568 3 0.000837583 -4.12209
29 1 0.824261 4.03804 9.32545 3 5.776e-17 -4.12138
30 1 0 4.03804 6.99409 3 2.304e-17 -4.12138
31 1 2.47278 4.03804 6.99409 3 4e-16 -4.12138
32 1 1.64852 4.03804 4.66273 3 5.776e-17 -4.12138
33 1 4.12131 4.03804 4.66273 3 1e-16 -4.12139
34 1 3.29705 4.03804 2.33136 3 4e-16 -4.12139
35 1 5.76983 4.03804 2.33136 3 0 -4.1214
36 1 4.94557 4.03804 0 3 1.0507e-16 -4.1214
37 1 7.41835 4.03804 0 3 1.0507e-16 -4.12142
38 1 0.824261 2.01902 12.8225 3 5.776e-17 -4.10627
39 1 0 2.01902 10.4911 3 2.304e-17 -4.10627
40 1 2.47278 2.01902 10.4911 3 4e-16 -4.10627
41 1 1.64852 2.01902 8.15977 3 5.776e-17 -4.10627
42 1 4.12131 2.01902 8.15977 3 1e-16 -4.10627
43 1 3.29705 2.01902 5.82841 3 4e-16 -4.10627
44 1 5.76983 2.01902 5.82841 3 3.15544e-30 -4.10627
45 1 4.94557 2.01902 3.49704 3 1e-16 -4.10627
46 1 7.41835 2.01902 3.49704 3 1e-16 -4.10627
47 1 6.59409 2.01902 1.16568 3 1.69e-18 -4.10627
48 1 9.06687 2.01902 1.16568 3 4.0169e-16 -4.10627
49 1 0.824261 0 16.3195 5 12.2293 -3.54465
50 1 0 0 13.9882 5 12.2293 -3.54465
51 1 2.47278 0 13.9882 5 12.2293 -3.54465
52 1 1.64852 0 11.6568 5 12.2293 -3.54465
53 1 4.12131 0 11.6568 5 12.2293 -3.54465
54 1 3.29705 0 9.32545 5 12.2293 -3.54465
55 1 5.76983 0 9.32545 5 12.2293 -3.54465
56 1 4.94557 0 6.99409 5 12.2293 -3.54465
57 1 7.41835 0 6.99409 5 12.2293 -3.54465
58 1 6.59409 0 4.66273 5 12.2293 -3.54465
59 1 9.06687 0 4.66273 5 12.2293 -3.54465
60 1 8.24261 0 2.33136 5 12.2293 -3.54465
61 1 10.7154 0 2.33136 5 12.2293 -3.54465
62 1 9.89114 0 0 5 12.2293 -3.54465
63 1 12.3639 0 0 5 12.2293 -3.54465
64 1 0.823862 12.176 2.33028 3 1.39442e-06 -4.12123
65 1 64.2924 12.1761 6.90917e-10 3 1.34542e-06 -4.12123
66 1 2.47157 12.1759 48.9554 3 1.80395e-06 -4.12124
67 1 0.823848 10.1364 5.82768 3 1.17498e-06 -4.12124
68 1 8.44803e-11 10.1364 3.49704 3 1.13087e-06 -4.12124
69 1 2.47153 10.1362 3.49488 3 1.53109e-06 -4.12125
70 1 1.64769 10.1363 1.16423 3 1.30774e-06 -4.12124
71 1 4.11919 10.136 1.16212 3 2.24957e-06 -4.12126
72 1 0.823984 8.09664 9.32508 3 1.50246e-06 -4.12227
73 1 1.08585e-10 8.09664 6.99409 3 1.46163e-06 -4.12227
74 1 2.47195 8.09656 6.99299 3 1.82512e-06 -4.12227
75 1 1.64797 8.09661 4.66199 3 1.62451e-06 -4.12227
76 1 4.11989 8.09642 4.66092 3 2.50178e-06 -4.12228
77 1 3.29592 8.0965 2.3299 3 2.11593e-06 -4.12228
78 1 5.7678 8.09619 2.3289 3 3.58432e-06 -4.12229
79 1 4.94385 8.09632 48.9565 3 2.9817e-06 -4.12229
80 1 7.41567 8.09587 48.9556 3 5.17389e-06 -4.12231
81 1 0.824261 6.05706 12.8225 3 0.000845304 -4.12208
82 1 0 6.05706 10.4911 3 0.000845584 -4.12208
83 1 2.47278 6.05706 10.4911 3 0.000842843 -4.12208
84 1 1.64852 6.05706 8.15977 3 0.000844394 -4.12208
85 1 4.12131 6.05706 8.15977 3 0.000837583 -4.12209
86 1 3.29705 6.05706 5.82841 3 0.000840622 -4.12209
87 1 5.76983 6.05706 5.82841 3 0.00082881 -4.1221
88 1 4.94557 6.05706 3.49704 3 0.00083369 -4.1221
89 1 7.41835 6.05706 3.49704 3 0.000815526 -4.12212
90 1 6.59409 6.05706 1.16568 3 0.0008228 -4.12211
91 1 9.06687 6.05706 1.16568 3 0.000796409 -4.12214
92 1 0.824261 4.03804 16.3195 3 5.776e-17 -4.12138
93 1 0 4.03804 13.9882 3 2.304e-17 -4.12138
94 1 2.47278 4.03804 13.9882 3 4e-16 -4.12138
95 1 1.64852 4.03804 11.6568 3 5.776e-17 -4.12138
96 1 4.12131 4.03804 11.6568 3 1e-16 -4.12139
97 1 3.29705 4.03804 9.32545 3 4e-16 -4.12139
98 1 5.76983 4.03804 9.32545 3 0 -4.1214
99 1 4.94557 4.03804 6.99409 3 1e-16 -4.1214
100 1 7.41835 4.03804 6.99409 3 1e-16 -4.12142
101 1 6.59409 4.03804 4.66273 3 0 -4.12141
102 1 9.06687 4.03804 4.66273 3 4e-16 -4.12144
103 1 8.24261 4.03804 2.33136 3 9.99999e-17 -4.12143
104 1 10.7154 4.03804 2.33136 3 1e-16 -4.12147
105 1 9.89114 4.03804 0 3 4.0507e-16 -4.12146
106 1 12.3639 4.03804 0 3 5.07001e-18 -4.12151
107 1 0.824261 2.01902 19.8166 3 5.776e-17 -4.10627
108 1 0 2.01902 17.4852 3 2.304e-17 -4.10627
109 1 2.47278 2.01902 17.4852 3 4e-16 -4.10627
110 1 1.64852 2.01902 15.1539 3 5.776e-17 -4.10627
111 1 4.12131 2.01902 15.1539 3 1e-16 -4.10627
112 1 3.29705 2.01902 12.8225 3 4e-16 -4.10627
113 1 5.76983 2.01902 12.8225 3 3.78653e-29 -4.10627
114 1 4.94557 2.01902 10.4911 3 1e-16 -4.10627
115 1 7.41835 2.01902 10.4911 3 1e-16 -4.10627
116 1 6.59409 2.01902 8.15977 3 1.26218e-29 -4.10627
117 1 9.06687 2.01902 8.15977 3 4e-16 -4.10627
118 1 8.24261 2.01902 5.82841 3 9.99999e-17 -4.10627
119 1 10.7154 2.01902 5.82841 3 1e-16 -4.10627
120 1 9.89114 2.01902 3.49704 3 4e-16 -4.10627
121 1 12.3639 2.01902 3.49704 3 7.88861e-31 -4.10627
122 1 11.5397 2.01902 1.16568 3 1.0169e-16 -4.10627
123 1 14.0124 2.01902 1.16568 3 1.0169e-16 -4.10627
124 1 0.824261 0 23.3136 5 12.2293 -3.54465
125 1 0 0 20.9823 5 12.2293 -3.54465
126 1 2.47278 0 20.9823 5 12.2293 -3.54465
127 1 1.64852 0 18.6509 5 12.2293 -3.54465
128 1 4.12131 0 18.6509 5 12.2293 -3.54465
129 1 3.29705 0 16.3195 5 12.2293 -3.54465
130 1 5.76983 0 16.3195 5 12.2293 -3.54465
131 1 4.94557 0 13.9882 5 12.2293 -3.54465
132 1 7.41835 0 13.9882 5 12.2293 -3.54465
133 1 6.59409 0 11.6568 5 12.2293 -3.54465
134 1 9.06687 0 11.6568 5 12.2293 -3.54465
135 1 8.24261 0 9.32545 5 12.2293 -3.54465
136 1 10.7154 0 9.32545 5 12.2293 -3.54465
137 1 9.89114 0 6.99409 5 12.2293 -3.54465
138 1 12.3639 0 6.99409 5 12.2293 -3.54465
139 1 11.5397 0 4.66273 5 12.2293 -3.54465
140 1 14.0124 0 4.66273 5 12.2293 -3.54465
141 1 13.1882 0 2.33136 5 12.2293 -3.54465
142 1 15.661 0 2.33136 5 12.2293 -3.54465
143 1 14.8367 0 0 5 12.2293 -3.54465
144 1 17.3095 0 0 5 12.2293 -3.54465
145 1 0.824394 16.2545 2.32963 3 3.9781e-06 -4.12124
146 1 1.05381e-11 16.2545 6.54609e-10 3 3.88778e-06 -4.12124
147 1 2.47316 16.2543 48.9534 3 4.73587e-06 -4.12125
148 1 0.824037 14.2155 5.82699 3 2.23758e-06 -4.12124
149 1 1.3191e-11 14.2155 3.49704 3 2.16843e-06 -4.12123
150 1 2.47209 14.2153 3.49281 3 2.76884e-06 -4.12124
151 1 1.64807 14.2154 1.16285 3 2.44038e-06 -4.12124
152 1 4.12009 14.2148 1.15871 3 3.83512e-06 -4.12126
153 1 0.823862 12.176 9.32437 3 1.39442e-06 -4.12123
154 1 6.81695e-11 12.1761 6.99409 3 1.34542e-06 -4.12123
155 1 2.47157 12.1759 6.99087 3 1.80395e-06 -4.12124
156 1 1.64772 12.176 4.66057 3 1.54489e-06 -4.12124
157 1 4.11924 12.1755 4.65744 3 2.63711e-06 -4.12126
158 1 3.29541 12.1757 2.3271 3 2.16766e-06 -4.12125
159 1 5.76683 12.1749 2.32412 3 3.88782e-06 -4.12128
160 1 4.94305 12.1752 48.9523 3 3.21513e-06 -4.12127
161 1 7.41434 12.1741 48.9496 3 5.54987e-06 -4.12132
162 1 0.823848 10.1364 12.8218 3 1.17498e-06 -4.12124
163 1 6.67105e-11 10.1364 10.4911 3 1.13087e-06 -4.12124
164 1 2.47153 10.1362 10.489 3 1.53109e-06 -4.12125
165 1 1.64769 10.1363 8.15832 3 1.30774e-06 -4.12124
166 1 4.11919 10.136 8.15621 3 2.24957e-06 -4.12126
167 1 3.29537 10.1361 5.82553 3 1.8446e-06 -4.12125
168 1 5.76679 10.1355 5.82354 3 3.34687e-06 -4.12129
169 1 4.943 10.1358 3.49282 3 2.74921e-06 -4.12127
170 1 7.41433 10.1349 3.49101 3 4.85968e-06 -4.12132
171 1 6.59057 10.1353 1.16021 3 4.052e-06 -4.12131
172 1 9.06179 10.1341 1.15864 3 6.83214e-06 -4.12137
173 1 0.823984 8.09664 16.3192 3 1.50246e-06 -4.12227
174 1 7.23699e-11 8.09664 13.9882 3 1.46163e-06 -4.12227
175 1 2.47195 8.09656 13.9871 3 1.82512e-06 -4.12227
176 1 1.64797 8.09661 11.6561 3 1.62451e-06 -4.12227
177 1 4.11989 8.09642 11.655 3 2.50178e-06 -4.12228
178 1 3.29592 8.0965 9.32399 3 2.11593e-06 -4.12228
179 1 5.7678 8.09619 9.32299 3 3.58432e-06 -4.12229
180 1 4.94385 8.09632 6.99195 3 2.9817e-06 -4.12229
181 1 7.41567 8.09587 6.99104 3 5.17389e-06 -4.12231
182 1 6.59174 8.09604 4.65996 3 4.3128e-06 -4.1223
183 1 9.06349 8.09543 4.65918 3 7.39863e-06 -4.12233
184 1 8.23959 8.09567 2.32805 3 6.20258e-06 -4.12232
185 1 10.7113 8.09487 2.32744 3 1.03948e-05 -4.12236
186 1 9.88739 8.09517 48.9549 3 8.78575e-06 -4.12235
187 1 12.359 8.09415 48.9545 3 1.42821e-05 -4.1224
188 1 0.824261 6.05706 19.8166 3 0.000845304 -4.12208
189 1 0 6.05706 17.4852 3 0.000845584 -4.12208
190 1 2.47278 6.05706 17.4852 3 0.000842843 -4.12208
191 1 1.64852 6.05706 15.1539 3 0.000844394 -4.12208
192 1 4.12131 6.05706 15.1539 3 0.000837583 -4.12209
193 1 3.29705 6.05706 12.8225 3 0.000840622 -4.12209
194 1 5.76983 6.05706 12.8225 3 0.00082881 -4.1221
195 1 4.94557 6.05706 10.4911 3 0.00083369 -4.1221
196 1 7.41835 6.05706 10.4911 3 0.000815526 -4.12212
197 1 6.59409 6.05706 8.15977 3 0.0008228 -4.12211
198 1 9.06687 6.05706 8.15977 3 0.000796409 -4.12214
199 1 8.24261 6.05706 5.82841 3 0.000806795 -4.12213
200 1 10.7154 6.05706 5.82841 3 0.000769854 -4.12216
201 1 9.89114 6.05706 3.49704 3 0.000784159 -4.12215
202 1 12.3639 6.05706 3.49704 3 0.000734204 -4.12218
203 1 11.5397 6.05706 1.16568 3 0.000753276 -4.12217
204 1 14.0124 6.05706 1.16568 3 0.000687853 -4.1222
205 1 0.824261 4.03804 23.3136 3 5.776e-17 -4.12138
206 1 0 4.03804 20.9823 3 2.304e-17 -4.12138
207 1 2.47278 4.03804 20.9823 3 4e-16 -4.12138
208 1 1.64852 4.03804 18.6509 3 5.776e-17 -4.12138
209 1 4.12131 4.03804 18.6509 3 1e-16 -4.12139
210 1 3.29705 4.03804 16.3195 3 4e-16 -4.12139
211 1 5.76983 4.03804 16.3195 3 1.00974e-28 -4.1214
212 1 4.94557 4.03804 13.9882 3 1e-16 -4.1214
213 1 7.41835 4.03804 13.9882 3 1e-16 -4.12142
214 1 6.59409 4.03804 11.6568 3 0 -4.12141
215 1 9.06687 4.03804 11.6568 3 4e-16 -4.12144
216 1 8.24261 4.03804 9.32545 3 9.99999e-17 -4.12143
217 1 10.7154 4.03804 9.32545 3 1e-16 -4.12147
218 1 9.89114 4.03804 6.99409 3 4e-16 -4.12146
219 1 12.3639 4.03804 6.99409 3 0 -4.12151
220 1 11.5397 4.03804 4.66273 3 1e-16 -4.12149
221 1 14.0124 4.03804 4.66273 3 1e-16 -4.12156
222 1 13.1882 4.03804 2.33136 3 0 -4.12153
223 1 15.661 4.03804 2.33136 3 4e-16 -4.12161
224 1 14.8367 4.03804 0 3 1.0507e-16 -4.12158
225 1 17.3095 4.03804 0 3 1.0507e-16 -4.12168
226 1 0.824261 2.01902 26.8107 3 5.776e-17 -4.10627
227 1 0 2.01902 24.4793 3 2.304e-17 -4.10627
228 1 2.47278 2.01902 24.4793 3 4e-16 -4.10627
229 1 1.64852 2.01902 22.1479 3 5.776e-17 -4.10627
230 1 4.12131 2.01902 22.1479 3 1e-16 -4.10627
231 1 3.29705 2.01902 19.8166 3 4e-16 -4.10627
232 1 5.76983 2.01902 19.8166 3 0 -4.10627
233 1 4.94557 2.01902 17.4852 3 1e-16 -4.10627
234 1 7.41835 2.01902 17.4852 3 1e-16 -4.10627
235 1 6.59409 2.01902 15.1539 3 0 -4.10627
236 1 9.06687 2.01902 15.1539 3 4e-16 -4.10627
237 1 8.24261 2.01902 12.8225 3 9.99999e-17 -4.10627
238 1 10.7154 2.01902 12.8225 3 1e-16 -4.10627
239 1 9.89114 2.01902 10.4911 3 4e-16 -4.10627
240 1 12.3639 2.01902 10.4911 3 0 -4.10627
241 1 11.5397 2.01902 8.15977 3 1e-16 -4.10627
242 1 14.0124 2.01902 8.15977 3 1e-16 -4.10627
243 1 13.1882 2.01902 5.82841 3 3.15544e-30 -4.10627
244 1 15.661 2.01902 5.82841 3 4e-16 -4.10627
245 1 14.8367 2.01902 3.49704 3 9.99999e-17 -4.10627
246 1 17.3095 2.01902 3.49704 3 1e-16 -4.10627
247 1 16.4852 2.01902 1.16568 3 4.0169e-16 -4.10627
248 1 18.958 2.01902 1.16568 3 1.69e-18 -4.10627
249 1 0.824261 0 30.3077 5 12.2293 -3.54465
250 1 0 0 27.9764 5 12.2293 -3.54465
251 1 2.47278 0 27.9764 5 12.2293 -3.54465
252 1 1.64852 0 25.645 5 12.2293 -3.54465
253 1 4.12131 0 25.645 5 12.2293 -3.54465
254 1 3.29705 0 23.3136 5 12.2293 -3.54465
255 1 5.76983 0 23.3136 5 12.2293 -3.54465
256 1 4.94557 0 20.9823 5 12.2293 -3.54465
257 1 7.41835 0 20.9823 5 12.2293 -3.54465
258 1 6.59409 0 18.6509 5 12.2293 -3.54465
259 1 9.06687 0 18.6509 5 12.2293 -3.54465
260 1 8.24261 0 16.3195 5 12.2293 -3.54465
261 1 10.7154 0 16.3195 5 12.2293 -3.54465
262 1 9.89114 0 13.9882 5 12.2293 -3.54465
263 1 12.3639 0 13.9882 5 12.2293 -3.54465
264 1 11.5397 0 11.6568 5 12.2293 -3.54465
265 1 14.0124 0 11.6568 5 12.2293 -3.54465
266 1 13.1882 0 9.32545 5 12.2293 -3.54465
267 1 15.661 0 9.32545 5 12.2293 -3.54465
268 1 14.8367 0 6.99409 5 12.2293 -3.54465
269 1 17.3095 0 6.99409 5 12.2293 -3.54465
270 1 16.4852 0 4.66273 5 12.2293 -3.54465
271 1 18.958 0 4.66273 5 12.2293 -3.54465
272 1 18.1337 0 2.33136 5 12.2293 -3.54465
273 1 20.6065 0 2.33136 5 12.2293 -3.54465
274 1 19.7823 0 0 5 12.2293 -3.54465
275 1 22.2551 0 0 5 12.2293 -3.54465
276 1 0.825818 20.3301 2.32914 3 1.31439e-05 -4.12123
277 1 1.15781e-11 20.3301 6.39293e-10 3 1.2915e-05 -4.12123
278 1 2.4774 20.3298 48.952 3 1.49752e-05 -4.12123
279 1 0.82497 18.2928 5.82639 3 7.23823e-06 -4.12124
280 1 1.98683e-11 18.2928 3.49704 3 7.09732e-06 -4.12124
281 1 2.47487 18.2925 3.49101 3 8.38125e-06 -4.12124
282 1 1.64993 18.2927 1.16165 3 7.66159e-06 -4.12124
283 1 4.12466 18.2921 1.15569 3 1.06657e-05 -4.12125
284 1 0.824394 16.2545 9.32372 3 3.9781e-06 -4.12124
285 1 5.15187e-11 16.2545 6.99409 3 3.88778e-06 -4.12124
286 1 2.47316 16.2543 6.9889 3 4.73587e-06 -4.12125
287 1 1.64878 16.2544 4.65926 3 4.25859e-06 -4.12124
288 1 4.12183 16.2538 4.65415 3 6.22844e-06 -4.12126
289 1 3.29751 16.254 2.32447 3 5.3944e-06 -4.12125
290 1 5.77038 16.253 2.31953 3 8.44024e-06 -4.12128
291 1 4.94613 16.2534 48.9484 3 7.24539e-06 -4.12126
292 1 7.41875 16.2519 48.9437 3 1.12736e-05 -4.1213
293 1 0.824037 14.2155 12.8211 3 2.23758e-06 -4.12124
294 1 5.41592e-11 14.2155 10.4911 3 2.16843e-06 -4.12123
295 1 2.47209 14.2153 10.4869 3 2.76884e-06 -4.12124
296 1 1.64807 14.2154 8.15694 3 2.44038e-06 -4.12124
297 1 4.12009 14.2148 8.1528 3 3.83512e-06 -4.12126
298 1 3.2961 14.2151 5.82279 3 3.23214e-06 -4.12125
299 1 5.76799 14.2141 5.81882 3 5.39305e-06 -4.12128
300 1 4.94405 14.2145 3.48875 3 4.55723e-06 -4.12127
301 1 7.41576 14.2131 3.48504 3 7.47029e-06 -4.12131
302 1 6.59189 14.2137 1.15486 3 6.36415e-06 -4.12129
303 1 9.06338 14.2117 1.15151 3 1.00079e-05 -4.12135
304 1 0.823862 12.176 16.3185 3 1.39442e-06 -4.12123
305 1 4.25527e-11 12.1761 13.9882 3 1.34542e-06 -4.12123
306 1 2.47157 12.1759 13.985 3 1.80395e-06 -4.12124
307 1 1.64772 12.176 11.6547 3 1.54489e-06 -4.12124
308 1 4.11924 12.1755 11.6515 3 2.63711e-06 -4.12126
309 1 3.29541 12.1757 9.32119 3 2.16766e-06 -4.12125
310 1 5.76683 12.1749 9.31821 3 3.88782e-06 -4.12128
311 1 4.94305 12.1752 6.98781 3 3.21513e-06 -4.12127
312 1 7.41434 12.1741 6.98507 3 5.54986e-06 -4.12132
313 1 6.5906 12.1745 4.65457 3 4.66645e-06 -4.1213
314 1 9.06174 12.173 4.65215 3 7.64719e-06 -4.12137
315 1 8.23805 12.1736 2.32153 3 6.53893e-06 -4.12134
316 1 10.709 12.1715 2.31953 3 1.0204e-05 -4.12143
317 1 9.8854 12.1723 48.9474 3 8.86561e-06 -4.1214
318 1 12.3562 12.1695 48.9459 3 1.32864e-05 -4.12151
319 1 0.823848 10.1364 19.8159 3 1.17498e-06 -4.12124
320 1 2.99353e-11 10.1364 17.4852 3 1.13087e-06 -4.12124
321 1 2.47153 10.1362 17.4831 3 1.53109e-06 -4.12125
322 1 1.64769 10.1363 15.1524 3 1.30774e-06 -4.12124
323 1 4.11919 10.136 15.1503 3 2.24957e-06 -4.12126
324 1 3.29537 10.1361 12.8196 3 1.8446e-06 -4.12125
325 1 5.76679 10.1355 12.8176 3 3.34687e-06 -4.12129
326 1 4.943 10.1358 10.4869 3 2.74921e-06 -4.12127
327 1 7.41433 10.1349 10.4851 3 4.85968e-06 -4.12132
328 1 6.59057 10.1353 8.1543 3 4.052e-06 -4.12131
329 1 9.06179 10.1341 8.15273 3 6.83214e-06 -4.12137
330 1 8.23807 10.1346 5.82184 3 5.78122e-06 -4.12135
331 1 10.7092 10.1331 5.82059 3 9.3077e-06 -4.12144
332 1 9.8855 10.1336 3.48958 3 8.00335e-06 -4.1214
333 1 12.3565 10.1317 3.48872 3 1.23825e-05 -4.12152
334 1 11.5329 10.1324 1.15757 3 1.07709e-05 -4.12148
335 1 14.0038 10.1299 1.15719 3 1.60209e-05 -4.12162
336 1 0.823984 8.09664 23.3133 3 1.50246e-06 -4.12227
337 1 5.31725e-11 8.09664 20.9823 3 1.46163e-06 -4.12227
338 1 2.47195 8.09656 20.9812 3 1.82512e-06 -4.12227
339 1 1.64797 8.09661 18.6502 3 1.62451e-06 -4.12227
340 1 4.11989 8.09642 18.6491 3 2.50178e-06 -4.12228
341 1 3.29592 8.0965 16.3181 3 2.11593e-06 -4.12228
342 1 5.7678 8.09619 16.3171 3 3.58432e-06 -4.12229
343 1 4.94385 8.09632 13.986 3 2.9817e-06 -4.12229
344 1 7.41567 8.09587 13.9851 3 5.17389e-06 -4.12231
345 1 6.59174 8.09604 11.6541 3 4.3128e-06 -4.1223
346 1 9.06349 8.09543 11.6533 3 7.39863e-06 -4.12233
347 1 8.23959 8.09567 9.32214 3 6.20258e-06 -4.12232
348 1 10.7113 8.09487 9.32153 3 1.03948e-05 -4.12236
349 1 9.88739 8.09517 6.99034 3 8.78575e-06 -4.12235
350 1 12.359 8.09415 6.98994 3 1.42821e-05 -4.1224
351 1 11.5351 8.09453 4.65867 3 1.22123e-05 -4.12238
352 1 14.0067 8.09323 4.65853 3 1.91851e-05 -4.12245
353 1 13.1829 8.09372 2.32717 3 1.66182e-05 -4.12242
354 1 15.6544 8.0921 2.32732 3 2.50478e-05 -4.1225
355 1 14.8306 8.0927 48.9545 3 2.20015e-05 -4.12247
356 1 17.3022 8.09072 48.9549 3 3.15331e-05 -4.12255
357 1 0.824261 6.05706 26.8107 3 0.000845304 -4.12208
358 1 0 6.05706 24.4793 3 0.000845584 -4.12208
359 1 2.47278 6.05706 24.4793 3 0.000842843 -4.12208
360 1 1.64852 6.05706 22.1479 3 0.000844394 -4.12208
361 1 4.12131 6.05706 22.1479 3 0.000837583 -4.12209
362 1 3.29705 6.05706 19.8166 3 0.000840622 -4.12209
363 1 5.76983 6.05706 19.8166 3 0.00082881 -4.1221
364 1 4.94557 6.05706 17.4852 3 0.00083369 -4.1221
365 1 7.41835 6.05706 17.4852 3 0.000815526 -4.12212
366 1 6.59409 6.05706 15.1539 3 0.0008228 -4.12211
367 1 9.06687 6.05706 15.1539 3 0.000796409 -4.12214
368 1 8.24261 6.05706 12.8225 3 0.000806795 -4.12213
369 1 10.7154 6.05706 12.8225 3 0.000769854 -4.12216
370 1 9.89114 6.05706 10.4911 3 0.000784159 -4.12215
371 1 12.3639 6.05706 10.4911 3 0.000734204 -4.12218
372 1 11.5397 6.05706 8.15977 3 0.000753276 -4.12217
373 1 14.0124 6.05706 8.15977 3 0.000687853 -4.1222
374 1 13.1882 6.05706 5.82841 3 0.000712434 -4.12219
375 1 15.661 6.05706 5.82841 3 0.000629865 -4.12221
376 1 14.8367 6.05706 3.49704 3 0.000660325 -4.1222
377 1 17.3095 6.05706 3.49704 3 0.000560309 -4.12222
378 1 16.4852 6.05706 1.16568 3 0.00059647 -4.12222
379 1 18.958 6.05706 1.16568 3 0.000480835 -4.12222
380 1 0.824261 4.03804 30.3077 3 5.776e-17 -4.12138
381 1 0 4.03804 27.9764 3 2.304e-17 -4.12138
382 1 2.47278 4.03804 27.9764 3 4e-16 -4.12138
383 1 1.64852 4.03804 25.645 3 5.776e-17 -4.12138
384 1 4.12131 4.03804 25.645 3 1e-16 -4.12139
385 1 3.29705 4.03804 23.3136 3 4e-16 -4.12139
386 1 5.76983 4.03804 23.3136 3 0 -4.1214
387 1 4.94557 4.03804 20.9823 3 1e-16 -4.1214
388 1 7.41835 4.03804 20.9823 3 1e-16 -4.12142
389 1 6.59409 4.03804 18.6509 3 0 -4.12141
390 1 9.06687 4.03804 18.6509 3 4e-16 -4.12144
391 1 8.24261 4.03804 16.3195 3 9.99999e-17 -4.12143
392 1 10.7154 4.03804 16.3195 3 1e-16 -4.12147
393 1 9.89114 4.03804 13.9882 3 4e-16 -4.12146
394 1 12.3639 4.03804 13.9882 3 2.52435e-29 -4.12151
395 1 11.5397 4.03804 11.6568 3 1e-16 -4.12149
396 1 14.0124 4.03804 11.6568 3 1e-16 -4.12156
397 1 13.1882 4.03804 9.32545 3 0 -4.12153
398 1 15.661 4.03804 9.32545 3 4e-16 -4.12161
399 1 14.8367 4.03804 6.99409 3 9.99999e-17 -4.12158
400 1 17.3095 4.03804 6.99409 3 1e-16 -4.12168
401 1 16.4852 4.03804 4.66273 3 4e-16 -4.12165
402 1 18.958 4.03804 4.66273 3 2.01948e-28 -4.12177
403 1 18.1337 4.03804 2.33136 3 1e-16 -4.12172
404 1 20.6065 4.03804 2.33136 3 1e-16 -4.12186
405 1 19.7823 4.03804 0 3 1.0507e-16 -4.12181
406 1 22.2551 4.03804 0 3 4.0507e-16 -4.12197
407 1 0.824261 2.01902 33.8048 3 5.776e-17 -4.10627
408 1 0 2.01902 31.4734 3 2.304e-17 -4.10627
409 1 2.47278 2.01902 31.4734 3 4e-16 -4.10627
410 1 1.64852 2.01902 29.142 3 5.776e-17 -4.10627
411 1 4.12131 2.01902 29.142 3 1e-16 -4.10627
412 1 3.29705 2.01902 26.8107 3 4e-16 -4.10627
413 1 5.76983 2.01902 26.8107 3 0 -4.10627
414 1 4.94557 2.01902 24.4793 3 1e-16 -4.10627
415 1 7.41835 2.01902 24.4793 3 1e-16 -4.10627
416 1 6.59409 2.01902 22.1479 3 0 -4.10627
417 1 9.06687 2.01902 22.1479 3 4e-16 -4.10627
418 1 8.24261 2.01902 19.8166 3 9.99999e-17 -4.10627
419 1 10.7154 2.01902 19.8166 3 1e-16 -4.10627
420 1 9.89114 2.01902 17.4852 3 4e-16 -4.10627
421 1 12.3639 2.01902 17.4852 3 1.00974e-28 -4.10627
422 1 11.5397 2.01902 15.1539 3 1e-16 -4.10627
423 1 14.0124 2.01902 15.1539 3 1e-16 -4.10627
424 1 13.1882 2.01902 12.8225 3 3.78653e-29 -4.10627
425 1 15.661 2.01902 12.8225 3 4e-16 -4.10627
426 1 14.8367 2.01902 10.4911 3 9.99999e-17 -4.10627
427 1 17.3095 2.01902 10.4911 3 1e-16 -4.10627
428 1 16.4852 2.01902 8.15977 3 4e-16 -4.10627
429 1 18.958 2.01902 8.15977 3 2.1457e-28 -4.10627
430 1 18.1337 2.01902 5.82841 3 1e-16 -4.10627
431 1 20.6065 2.01902 5.82841 3 1e-16 -4.10627
432 1 19.7823 2.01902 3.49704 3 1e-16 -4.10627
433 1 22.2551 2.01902 3.49704 3 4e-16 -4.10627
434 1 21.4308 2.01902 1.16568 3 4.0169e-16 -4.10627
435 1 23.9036 2.01902 1.16568 3 1.0169e-16 -4.10627
436 1 0.824261 0 37.3018 5 12.2293 -3.54465
437 1 0 0 34.9704 5 12.2293 -3.54465
438 1 2.47278 0 34.9704 5 12.2293 -3.54465
439 1 1.64852 0 32.6391 5 12.2293 -3.54465
440 1 4.12131 0 32.6391 5 12.2293 -3.54465
441 1 3.29705 0 30.3077 5 12.2293 -3.54465
442 1 5.76983 0 30.3077 5 12.2293 -3.54465
443 1 4.94557 0 27.9764 5 12.2293 -3.54465
444 1 7.41835 0 27.9764 5 12.2293 -3.54465
445 1 6.59409 0 25.645 5 12.2293 -3.54465
446 1 9.06687 0 25.645 5 12.2293 -3.54465
447 1 8.24261 0 23.3136 5 12.2293 -3.54465
448 1 10.7154 0 23.3136 5 12.2293 -3.54465
449 1 9.89114 0 20.9823 5 12.2293 -3.54465
450 1 12.3639 0 20.9823 5 12.2293 -3.54465
451 1 11.5397 0 18.6509 5 12.2293 -3.54465
452 1 14.0124 0 18.6509 5 12.2293 -3.54465
453 1 13.1882 0 16.3195 5 12.2293 -3.54465
454 1 15.661 0 16.3195 5 12.2293 -3.54465
455 1 14.8367 0 13.9882 5 12.2293 -3.54465
456 1 17.3095 0 13.9882 5 12.2293 -3.54465
457 1 16.4852 0 11.6568 5 12.2293 -3.54465
458 1 18.958 0 11.6568 5 12.2293 -3.54465
459 1 18.1337 0 9.32545 5 12.2293 -3.54465
460 1 20.6065 0 9.32545 5 12.2293 -3.54465
461 1 19.7823 0 6.99409 5 12.2293 -3.54465
462 1 22.2551 0 6.99409 5 12.2293 -3.54465
463 1 21.4308 0 4.66273 5 12.2293 -3.54465
464 1 23.9036 0 4.66273 5 12.2293 -3.54465
465 1 23.0793 0 2.33136 5 12.2293 -3.54465
466 1 25.5521 0 2.33136 5 12.2293 -3.54465
467 1 24.7278 0 0 5 12.2293 -3.54465
468 1 27.2006 0 0 5 12.2293 -3.54465
469 1 0.828615 24.4 2.32909 3 3.97215e-05 -4.12106
470 1 1.02063e-11 24.4 6.37229e-10 3 3.92233e-05 -4.12106
471 1 2.48577 24.3999 48.9518 3 4.36992e-05 -4.12105
472 1 0.827008 22.3659 5.82608 3 2.33734e-05 -4.12118
473 1 8.80118e-12 22.366 3.49704 3 2.30378e-05 -4.12118
474 1 2.48096 22.3658 3.49007 3 2.6215e-05 -4.12118
475 1 1.654 22.3659 1.16103 3 2.44366e-05 -4.12118
476 1 4.13472 22.3654 1.15405 3 3.19742e-05 -4.12117
477 1 0.825818 20.3301 9.32323 3 1.31439e-05 -4.12123
478 1 2.32017e-11 20.3301 6.99409 3 1.2915e-05 -4.12123
479 1 2.4774 20.3298 6.98742 3 1.49752e-05 -4.12123
480 1 1.65162 20.33 4.65828 3 1.38356e-05 -4.12123
481 1 4.12884 20.3294 4.65165 3 1.86231e-05 -4.12123
482 1 3.30315 20.3296 2.32249 3 1.6574e-05 -4.12123
483 1 5.78003 20.3286 2.31593 3 2.40917e-05 -4.12123
484 1 4.95447 20.329 48.9454 3 2.11354e-05 -4.12123
485 1 7.43088 20.3275 48.9389 3 3.13502e-05 -4.12124
486 1 0.82497 18.2928 12.8205 3 7.23823e-06 -4.12124
487 1 5.01097e-11 18.2928 10.4911 3 7.09732e-06 -4.12124
488 1 2.47487 18.2925 10.4851 3 8.38125e-06 -4.12124
489 1 1.64993 18.2927 8.15574 3 7.66159e-06 -4.12124
490 1 4.12466 18.2921 8.14978 3 1.06657e-05 -4.12125
491 1 3.29979 18.2923 5.82039 3 9.39267e-06 -4.12125
492 1 5.77427 18.2913 5.81456 3 1.40407e-05 -4.12126
493 1 4.94949 18.2917 3.48511 3 1.22128e-05 -4.12126
494 1 7.42363 18.2901 3.47947 3 1.84107e-05 -4.12128
495 1 6.59898 18.2907 1.14995 3 1.61087e-05 -4.12127
496 1 9.07267 18.2884 1.1446 3 2.37711e-05 -4.12131
497 1 0.824394 16.2545 16.3178 3 3.9781e-06 -4.12124
498 1 5.65952e-11 16.2545 13.9882 3 3.88778e-06 -4.12124
499 1 2.47316 16.2543 13.983 3 4.73587e-06 -4.12125
500 1 1.64878 16.2544 11.6533 3 4.25859e-06 -4.12124
501 1 4.12183 16.2538 11.6482 3 6.22844e-06 -4.12126
502 1 3.29751 16.254 9.31856 3 5.3944e-06 -4.12125
503 1 5.77038 16.253 9.31362 3 8.44024e-06 -4.12128
504 1 4.94613 16.2534 6.98387 3 7.24539e-06 -4.12126
505 1 7.41875 16.2519 6.97918 3 1.12736e-05 -4.1213
506 1 6.59459 16.2525 4.64933 3 9.78719e-06 -4.12129
507 1 9.06689 16.2503 4.64498 3 1.47552e-05 -4.12134
508 1 8.24285 16.2512 2.315 3 1.29271e-05 -4.12132
509 1 10.7148 16.2482 2.31112 3 1.89217e-05 -4.12139
510 1 9.89088 16.2493 48.9396 3 1.67508e-05 -4.12136
511 1 12.3624 16.2454 48.9363 3 2.38271e-05 -4.12145
512 1 0.824037 14.2155 19.8152 3 2.23758e-06 -4.12124
513 1 2.57726e-11 14.2155 17.4852 3 2.16843e-06 -4.12123
514 1 2.47209 14.2153 17.481 3 2.76884e-06 -4.12124
515 1 1.64807 14.2154 15.151 3 2.44038e-06 -4.12124
516 1 4.12009 14.2148 15.1469 3 3.83512e-06 -4.12126
517 1 3.2961 14.2151 12.8169 3 3.23214e-06 -4.12125
518 1 5.76799 14.2141 12.8129 3 5.39305e-06 -4.12128
519 1 4.94405 14.2145 10.4828 3 4.55723e-06 -4.12127
520 1 7.41576 14.2131 10.4791 3 7.47029e-06 -4.12131
521 1 6.59189 14.2137 8.14895 3 6.36415e-06 -4.12129
522 1 9.06338 14.2117 8.1456 3 1.00079e-05 -4.12135
523 1 8.23959 14.2125 5.81528 3 8.67982e-06 -4.12133
524 1 10.7108 14.2099 5.8124 3 1.30888e-05 -4.12141
525 1 9.88713 14.2109 3.48191 3 1.14808e-05 -4.12138
526 1 12.3581 14.2074 3.47963 3 1.67473e-05 -4.12149
527 1 11.5345 14.2087 1.14891 3 1.48334e-05 -4.12145
528 1 14.0052 14.2042 1.14739 3 2.11522e-05 -4.12158
529 1 0.823862 12.176 23.3126 3 1.39442e-06 -4.12123
530 1 6.2699e-12 12.1761 20.9823 3 1.34542e-06 -4.12123
531 1 2.47157 12.1759 20.9791 3 1.80395e-06 -4.12124
532 1 1.64772 12.176 18.6488 3 1.54489e-06 -4.12124
533 1 4.11924 12.1755 18.6456 3 2.63711e-06 -4.12126
534 1 3.29541 12.1757 16.3153 3 2.16766e-06 -4.12125
535 1 5.76683 12.1749 16.3123 3 3.88782e-06 -4.12128
536 1 4.94305 12.1752 13.9819 3 3.21513e-06 -4.12127
537 1 7.41434 12.1741 13.9792 3 5.54986e-06 -4.12132
538 1 6.5906 12.1745 11.6487 3 4.66645e-06 -4.1213
539 1 9.06174 12.173 11.6462 3 7.64719e-06 -4.12137
540 1 8.23805 12.1736 9.31562 3 6.53893e-06 -4.12134
541 1 10.709 12.1715 9.31362 3 1.0204e-05 -4.12143
542 1 9.8854 12.1723 6.98284 3 8.86561e-06 -4.1214
543 1 12.3562 12.1695 6.98137 3 1.32864e-05 -4.12151
544 1 11.5326 12.1705 4.6504 3 1.16842e-05 -4.12147
545 1 14.0033 12.167 4.64957 3 1.696e-05 -4.1216
546 1 13.1798 12.1683 2.31836 3 1.50383e-05 -4.12155
547 1 15.6504 12.1637 2.31831 3 2.12196e-05 -4.12172
548 1 14.8269 12.1654 48.9454 3 1.90293e-05 -4.12166
549 1 17.2975 12.1597 48.9463 3 2.59688e-05 -4.12185
550 1 0.823848 10.1364 26.8099 3 1.17498e-06 -4.12124
551 1 1.58474e-12 10.1364 24.4793 3 1.13087e-06 -4.12124
552 1 2.47153 10.1362 24.4771 3 1.53109e-06 -4.12125
553 1 1.64769 10.1363 22.1465 3 1.30774e-06 -4.12124
554 1 4.11919 10.136 22.1444 3 2.24957e-06 -4.12126
555 1 3.29537 10.1361 19.8137 3 1.8446e-06 -4.12125
556 1 5.76679 10.1355 19.8117 3 3.34687e-06 -4.12129
557 1 4.943 10.1358 17.481 3 2.74921e-06 -4.12127
558 1 7.41433 10.1349 17.4792 3 4.85968e-06 -4.12132
559 1 6.59057 10.1353 15.1484 3 4.052e-06 -4.12131
560 1 9.06179 10.1341 15.1468 3 6.83214e-06 -4.12137
561 1 8.23807 10.1346 12.8159 3 5.78122e-06 -4.12135
562 1 10.7092 10.1331 12.8147 3 9.3077e-06 -4.12144
563 1 9.8855 10.1336 10.4837 3 8.00335e-06 -4.1214
564 1 12.3565 10.1317 10.4828 3 1.23825e-05 -4.12152
565 1 11.5329 10.1324 8.15166 3 1.07709e-05 -4.12148
566 1 14.0038 10.1299 8.15128 3 1.60209e-05 -4.12162
567 1 13.1802 10.1309 5.81996 3 1.41216e-05 -4.12157
568 1 15.6511 10.1277 5.82013 3 2.02669e-05 -4.12173
569 1 14.8274 10.1289 3.48861 3 1.80735e-05 -4.12167
570 1 17.2985 10.125 3.48939 3 2.48652e-05 -4.12186
571 1 16.4748 10.1264 1.15766 3 2.25344e-05 -4.1218
572 1 18.946 10.1216 1.15905 3 2.94989e-05 -4.122
573 1 0.823984 8.09664 30.3073 3 1.50246e-06 -4.12227
574 1 3.7852e-11 8.09664 27.9764 3 1.46163e-06 -4.12227
575 1 2.47195 8.09656 27.9753 3 1.82512e-06 -4.12227
576 1 1.64797 8.09661 25.6443 3 1.62451e-06 -4.12227
577 1 4.11989 8.09642 25.6432 3 2.50178e-06 -4.12228
578 1 3.29592 8.0965 23.3122 3 2.11593e-06 -4.12228
579 1 5.7678 8.09619 23.3112 3 3.58432e-06 -4.12229
580 1 4.94385 8.09632 20.9801 3 2.9817e-06 -4.12229
581 1 7.41567 8.09587 20.9792 3 5.17389e-06 -4.12231
582 1 6.59174 8.09604 18.6481 3 4.3128e-06 -4.1223
583 1 9.06349 8.09543 18.6474 3 7.39863e-06 -4.12233
584 1 8.23959 8.09567 16.3162 3 6.20258e-06 -4.12232
585 1 10.7113 8.09487 16.3156 3 1.03948e-05 -4.12236
586 1 9.88739 8.09517 13.9844 3 8.78575e-06 -4.12235
587 1 12.359 8.09415 13.984 3 1.42821e-05 -4.1224
588 1 11.5351 8.09453 11.6528 3 1.22123e-05 -4.12238
589 1 14.0067 8.09323 11.6526 3 1.91851e-05 -4.12245
590 1 13.1829 8.09372 9.32126 3 1.66182e-05 -4.12242
591 1 15.6544 8.0921 9.32141 3 2.50478e-05 -4.1225
592 1 14.8306 8.0927 6.98994 3 2.20015e-05 -4.12247
593 1 17.3022 8.09072 6.99041 3 3.15331e-05 -4.12255
594 1 16.4783 8.09145 4.65883 3 2.82377e-05 -4.12253
595 1 18.9501 8.08907 4.65961 3 3.79166e-05 -4.12261
596 1 18.1262 8.08993 2.32794 3 3.48085e-05 -4.12258
597 1 20.5982 8.08717 2.32898 3 4.30693e-05 -4.12264
598 1 19.7741 8.08815 48.9559 3 4.07387e-05 -4.12263
599 1 22.2466 8.08504 48.9571 3 4.55675e-05 -4.12266
600 1 0.824261 6.05706 33.8048 3 0.000845304 -4.12208
601 1 0 6.05706 31.4734 3 0.000845584 -4.12208
602 1 2.47278 6.05706 31.4734 3 0.000842843 -4.12208
603 1 1.64852 6.05706 29.142 3 0.000844394 -4.12208
604 1 4.12131 6.05706 29.142 3 0.000837583 -4.12209
605 1 3.29705 6.05706 26.8107 3 0.000840622 -4.12209
606 1 5.76983 6.05706 26.8107 3 0.00082881 -4.1221
607 1 4.94557 6.05706 24.4793 3 0.00083369 -4.1221
608 1 7.41835 6.05706 24.4793 3 0.000815526 -4.12212
609 1 6.59409 6.05706 22.1479 3 0.0008228 -4.12211
610 1 9.06687 6.05706 22.1479 3 0.000796409 -4.12214
611 1 8.24261 6.05706 19.8166 3 0.000806795 -4.12213
612 1 10.7154 6.05706 19.8166 3 0.000769854 -4.12216
613 1 9.89114 6.05706 17.4852 3 0.000784159 -4.12215
614 1 12.3639 6.05706 17.4852 3 0.000734204 -4.12218
615 1 11.5397 6.05706 15.1539 3 0.000753276 -4.12217
616 1 14.0124 6.05706 15.1539 3 0.000687853 -4.1222
617 1 13.1882 6.05706 12.8225 3 0.000712434 -4.12219
618 1 15.661 6.05706 12.8225 3 0.000629865 -4.12221
619 1 14.8367 6.05706 10.4911 3 0.000660325 -4.1222
620 1 17.3095 6.05706 10.4911 3 0.000560309 -4.12222
621 1 16.4852 6.05706 8.15977 3 0.00059647 -4.12222
622 1 18.958 6.05706 8.15977 3 0.000480835 -4.12222
623 1 18.1337 6.05706 5.82841 3 0.000521624 -4.12222
624 1 20.6065 6.05706 5.82841 3 0.000394982 -4.12221
625 1 19.7823 6.05706 3.49704 3 0.000438416 -4.12221
626 1 22.2551 6.05706 3.49704 3 0.000307777 -4.12218
627 1 21.4308 6.05706 1.16568 3 0.000351215 -4.12219
628 1 23.9036 6.05706 1.16568 3 0.000224709 -4.12215
629 1 0.824261 4.03804 37.3018 3 5.776e-17 -4.12138
630 1 0 4.03804 34.9704 3 2.304e-17 -4.12138
631 1 2.47278 4.03804 34.9704 3 4e-16 -4.12138
632 1 1.64852 4.03804 32.6391 3 5.776e-17 -4.12138
633 1 4.12131 4.03804 32.6391 3 1e-16 -4.12139
634 1 3.29705 4.03804 30.3077 3 4e-16 -4.12139
635 1 5.76983 4.03804 30.3077 3 0 -4.1214
636 1 4.94557 4.03804 27.9764 3 1e-16 -4.1214
637 1 7.41835 4.03804 27.9764 3 1e-16 -4.12142
638 1 6.59409 4.03804 25.645 3 1.51461e-28 -4.12141
639 1 9.06687 4.03804 25.645 3 4e-16 -4.12144
640 1 8.24261 4.03804 23.3136 3 9.99999e-17 -4.12143
641 1 10.7154 4.03804 23.3136 3 1e-16 -4.12147
642 1 9.89114 4.03804 20.9823 3 4e-16 -4.12146
643 1 12.3639 4.03804 20.9823 3 0 -4.12151
644 1 11.5397 4.03804 18.6509 3 1e-16 -4.12149
645 1 14.0124 4.03804 18.6509 3 1e-16 -4.12156
646 1 13.1882 4.03804 16.3195 3 1.00974e-28 -4.12153
647 1 15.661 4.03804 16.3195 3 4e-16 -4.12161
648 1 14.8367 4.03804 13.9882 3 9.99999e-17 -4.12158
649 1 17.3095 4.03804 13.9882 3 1e-16 -4.12168
650 1 16.4852 4.03804 11.6568 3 4e-16 -4.12165
651 1 18.958 4.03804 11.6568 3 2.01948e-28 -4.12177
652 1 18.1337 4.03804 9.32545 3 1e-16 -4.12172
653 1 20.6065 4.03804 9.32545 3 1e-16 -4.12186
654 1 19.7823 4.03804 6.99409 3 1e-16 -4.12181
655 1 22.2551 4.03804 6.99409 3 4e-16 -4.12197
656 1 21.4308 4.03804 4.66273 3 4e-16 -4.12192
657 1 23.9036 4.03804 4.66273 3 1e-16 -4.12208
658 1 23.0793 4.03804 2.33136 3 1e-16 -4.12203
659 1 25.5521 4.03804 2.33136 3 1.51461e-28 -4.12219
660 1 24.7278 4.03804 0 3 5.07001e-18 -4.12214
661 1 27.2006 4.03804 0 3 1.0507e-16 -4.1223
662 1 0.824261 2.01902 40.7989 3 5.776e-17 -4.10627
663 1 0 2.01902 38.4675 3 2.304e-17 -4.10627
664 1 2.47278 2.01902 38.4675 3 4e-16 -4.10627
665 1 1.64852 2.01902 36.1361 3 5.776e-17 -4.10627
666 1 4.12131 2.01902 36.1361 3 1e-16 -4.10627
667 1 3.29705 2.01902 33.8048 3 4e-16 -4.10627
668 1 5.76983 2.01902 33.8048 3 0 -4.10627
669 1 4.94557 2.01902 31.4734 3 1e-16 -4.10627
670 1 7.41835 2.01902 31.4734 3 1e-16 -4.10627
671 1 6.59409 2.01902 29.142 3 1.51461e-28 -4.10627
672 1 9.06687 2.01902 29.142 3 4e-16 -4.10627
673 1 8.24261 2.01902 26.8107 3 9.99999e-17 -4.10627
674 1 10.7154 2.01902 26.8107 3 1e-16 -4.10627
675 1 9.89114 2.01902 24.4793 3 4e-16 -4.10627
676 1 12.3639 2.01902 24.4793 3 1.00974e-28 -4.10627
677 1 11.5397 2.01902 22.1479 3 1e-16 -4.10627
678 1 14.0124 2.01902 22.1479 3 1e-16 -4.10627
679 1 13.1882 2.01902 19.8166 3 0 -4.10627
680 1 15.661 2.01902 19.8166 3 4e-16 -4.10627
681 1 14.8367 2.01902 17.4852 3 9.99999e-17 -4.10627
682 1 17.3095 2.01902 17.4852 3 1e-16 -4.10627
683 1 16.4852 2.01902 15.1539 3 4e-16 -4.10627
684 1 18.958 2.01902 15.1539 3 2.01948e-28 -4.10627
685 1 18.1337 2.01902 12.8225 3 1e-16 -4.10627
686 1 20.6065 2.01902 12.8225 3 1e-16 -4.10627
687 1 19.7823 2.01902 10.4911 3 1e-16 -4.10627
688 1 22.2551 2.01902 10.4911 3 4e-16 -4.10627
689 1 21.4308 2.01902 8.15977 3 4e-16 -4.10627
690 1 23.9036 2.01902 8.15977 3 1e-16 -4.10627
691 1 23.0793 2.01902 5.82841 3 1e-16 -4.10627
692 1 25.5521 2.01902 5.82841 3 1.54617e-28 -4.10627
693 1 24.7278 2.01902 3.49704 3 7.88861e-31 -4.10627
694 1 27.2006 2.01902 3.49704 3 1e-16 -4.10627
695 1 26.3764 2.01902 1.16568 3 1.0169e-16 -4.10627
696 1 28.8491 2.01902 1.16568 3 4.0169e-16 -4.10627
697 1 0.824261 0 44.2959 5 12.2293 -3.54465
698 1 0 0 41.9645 5 12.2293 -3.54465
699 1 2.47278 0 41.9645 5 12.2293 -3.54465
700 1 1.64852 0 39.6332 5 12.2293 -3.54465
701 1 4.12131 0 39.6332 5 12.2293 -3.54465
702 1 3.29705 0 37.3018 5 12.2293 -3.54465
703 1 5.76983 0 37.3018 5 12.2293 -3.54465
704 1 4.94557 0 34.9704 5 12.2293 -3.54465
705 1 7.41835 0 34.9704 5 12.2293 -3.54465
706 1 6.59409 0 32.6391 5 12.2293 -3.54465
707 1 9.06687 0 32.6391 5 12.2293 -3.54465
708 1 8.24261 0 30.3077 5 12.2293 -3.54465
709 1 10.7154 0 30.3077 5 12.2293 -3.54465
710 1 9.89114 0 27.9764 5 12.2293 -3.54465
711 1 12.3639 0 27.9764 5 12.2293 -3.54465
712 1 11.5397 0 25.645 5 12.2293 -3.54465
713 1 14.0124 0 25.645 5 12.2293 -3.54465
714 1 13.1882 0 23.3136 5 12.2293 -3.54465
715 1 15.661 0 23.3136 5 12.2293 -3.54465
716 1 14.8367 0 20.9823 5 12.2293 -3.54465
717 1 17.3095 0 20.9823 5 12.2293 -3.54465
718 1 16.4852 0 18.6509 5 12.2293 -3.54465
719 1 18.958 0 18.6509 5 12.2293 -3.54465
720 1 18.1337 0 16.3195 5 12.2293 -3.54465
721 1 20.6065 0 16.3195 5 12.2293 -3.54465
722 1 19.7823 0 13.9882 5 12.2293 -3.54465
723 1 22.2551 0 13.9882 5 12.2293 -3.54465
724 1 21.4308 0 11.6568 5 12.2293 -3.54465
725 1 23.9036 0 11.6568 5 12.2293 -3.54465
726 1 23.0793 0 9.32545 5 12.2293 -3.54465
727 1 25.5521 0 9.32545 5 12.2293 -3.54465
728 1 24.7278 0 6.99409 5 12.2293 -3.54465
729 1 27.2006 0 6.99409 5 12.2293 -3.54465
730 1 26.3764 0 4.66273 5 12.2293 -3.54465
731 1 28.8491 0 4.66273 5 12.2293 -3.54465
732 1 28.0249 0 2.33136 5 12.2293 -3.54465
733 1 30.4977 0 2.33136 5 12.2293 -3.54465
734 1 29.6734 0 0 5 12.2293 -3.54465
735 1 32.1462 0 0 5 12.2293 -3.54465
736 1 0.833257 28.4603 2.32973 3 8.7341e-05 -4.12034
737 1 1.06068e-11 28.4603 6.40599e-10 3 8.67783e-05 -4.12034
738 1 2.49971 28.4603 48.9537 3 9.16039e-05 -4.12031
739 1 0.830696 26.4316 5.82636 3 6.2287e-05 -4.12081
740 1 3.71638e-12 26.4316 3.49704 3 6.17375e-05 -4.12081
741 1 2.49201 26.4316 3.49089 3 6.69749e-05 -4.12079
742 1 1.66137 26.4316 1.16159 3 6.40226e-05 -4.1208
743 1 4.15311 26.4314 1.15536 3 7.68698e-05 -4.12076
744 1 0.828615 24.4 9.32318 3 3.97215e-05 -4.12106
745 1 6.25688e-12 24.4 6.99409 3 3.92233e-05 -4.12106
746 1 2.48577 24.3999 6.98725 3 4.36992e-05 -4.12105
747 1 1.65721 24.3999 4.65817 3 4.12123e-05 -4.12106
748 1 4.14271 24.3996 4.65129 3 5.19585e-05 -4.12103
749 1 3.31427 24.3997 2.32223 3 4.72763e-05 -4.12104
750 1 5.79927 24.3991 2.31527 3 6.50271e-05 -4.12101
751 1 4.97105 24.3994 48.9449 3 5.7818e-05 -4.12102
752 1 7.45531 24.3983 48.9378 3 8.38841e-05 -4.12097
753 1 0.827008 22.3659 12.8202 3 2.33734e-05 -4.12118
754 1 2.15898e-11 22.366 10.4911 3 2.30378e-05 -4.12118
755 1 2.48096 22.3658 10.4842 3 2.6215e-05 -4.12118
756 1 1.654 22.3659 8.15512 3 2.44366e-05 -4.12118
757 1 4.13472 22.3654 8.14814 3 3.19742e-05 -4.12117
758 1 3.30787 22.3656 5.81911 3 2.87085e-05 -4.12117
759 1 5.78817 22.3647 5.81213 3 4.08571e-05 -4.12116
760 1 4.9615 22.3651 3.48309 3 3.60295e-05 -4.12116
761 1 7.44118 22.3637 3.47611 3 5.29814e-05 -4.12115
762 1 6.61474 22.3643 1.14707 3 4.64865e-05 -4.12116
763 1 9.09362 22.3623 1.14012 3 6.86729e-05 -4.12115
764 1 0.825818 20.3301 16.3173 3 1.31439e-05 -4.12123
765 1 3.70867e-11 20.3301 13.9882 3 1.2915e-05 -4.12123
766 1 2.4774 20.3298 13.9815 3 1.49752e-05 -4.12123
767 1 1.65162 20.33 11.6524 3 1.38356e-05 -4.12123
768 1 4.12884 20.3294 11.6457 3 1.86231e-05 -4.12123
769 1 3.30315 20.3296 9.31658 3 1.6574e-05 -4.12123
770 1 5.78003 20.3286 9.31002 3 2.40917e-05 -4.12123
771 1 4.95447 20.329 6.98083 3 2.11354e-05 -4.12123
772 1 7.43088 20.3275 6.97439 3 3.13502e-05 -4.12124
773 1 6.60551 20.3281 4.64515 3 2.74791e-05 -4.12124
774 1 9.0813 20.3259 4.63888 3 4.03573e-05 -4.12125
775 1 8.25615 20.3268 2.30957 3 3.5656e-05 -4.12125
776 1 10.7312 20.3236 2.30355 3 5.11013e-05 -4.12128
777 1 9.90632 20.3248 48.9328 3 4.55093e-05 -4.12126
778 1 12.3805 20.3205 48.9271 3 6.35758e-05 -4.12131
779 1 0.82497 18.2928 19.8146 3 7.23823e-06 -4.12124
780 1 4.06953e-11 18.2928 17.4852 3 7.09732e-06 -4.12124
781 1 2.47487 18.2925 17.4792 3 8.38125e-06 -4.12124
782 1 1.64993 18.2927 15.1498 3 7.66159e-06 -4.12124
783 1 4.12466 18.2921 15.1439 3 1.06657e-05 -4.12125
784 1 3.29979 18.2923 12.8145 3 9.39266e-06 -4.12125
785 1 5.77427 18.2913 12.8086 3 1.40407e-05 -4.12126
786 1 4.94949 18.2917 10.4792 3 1.22128e-05 -4.12126
787 1 7.42363 18.2901 10.4736 3 1.84107e-05 -4.12128
788 1 6.59898 18.2907 8.14404 3 1.61087e-05 -4.12127
789 1 9.07267 18.2884 8.13869 3 2.37711e-05 -4.12131
790 1 8.24819 18.2893 5.80905 3 2.09722e-05 -4.12129
791 1 10.7213 18.2862 5.80409 3 3.00528e-05 -4.12135
792 1 9.89705 18.2874 3.47431 3 2.67886e-05 -4.12133
793 1 12.3696 18.2831 3.46987 3 3.74029e-05 -4.1214
794 1 11.5455 18.2848 1.13988 3 3.35796e-05 -4.12137
795 1 14.0174 18.2791 1.13615 3 4.59492e-05 -4.12147
796 1 0.824394 16.2545 23.3119 3 3.9781e-06 -4.12124
797 1 2.7514e-11 16.2545 20.9823 3 3.88778e-06 -4.12124
798 1 2.47316 16.2543 20.9771 3 4.73587e-06 -4.12125
799 1 1.64878 16.2544 18.6474 3 4.25859e-06 -4.12124
800 1 4.12183 16.2538 18.6423 3 6.22844e-06 -4.12126
801 1 3.29751 16.254 16.3126 3 5.3944e-06 -4.12125
802 1 5.77038 16.253 16.3077 3 8.44024e-06 -4.12128
803 1 4.94613 16.2534 13.978 3 7.24539e-06 -4.12126
804 1 7.41875 16.2519 13.9733 3 1.12736e-05 -4.1213
805 1 6.59459 16.2525 11.6434 3 9.78719e-06 -4.12129
806 1 9.06689 16.2503 11.6391 3 1.47552e-05 -4.12134
807 1 8.24285 16.2512 9.30909 3 1.29271e-05 -4.12132
808 1 10.7148 16.2482 9.30521 3 1.89217e-05 -4.12139
809 1 9.89088 16.2493 6.97505 3 1.67508e-05 -4.12136
810 1 12.3624 16.2454 6.97177 3 2.38271e-05 -4.12145
811 1 11.5386 16.2469 4.64139 3 2.12736e-05 -4.12142
812 1 14.0098 16.2417 4.63889 3 2.96514e-05 -4.12153
813 1 13.1861 16.2436 2.30821 3 2.66114e-05 -4.12149
814 1 15.6568 16.2369 2.30669 3 3.6764e-05 -4.12164
815 1 14.8333 16.2394 48.9343 3 3.3033e-05 -4.12158
816 1 17.3037 16.2307 48.9339 3 4.51344e-05 -4.12177
817 1 0.824037 14.2155 26.8093 3 2.23758e-06 -4.12124
818 1 64.2924 14.2155 24.4793 3 2.16843e-06 -4.12123
819 1 2.47209 14.2153 24.4751 3 2.76884e-06 -4.12124
820 1 1.64807 14.2154 22.1451 3 2.44038e-06 -4.12124
821 1 4.12009 14.2148 22.141 3 3.83512e-06 -4.12126
822 1 3.2961 14.2151 19.811 3 3.23214e-06 -4.12125
823 1 5.76799 14.2141 19.807 3 5.39305e-06 -4.12128
824 1 4.94405 14.2145 17.4769 3 4.55723e-06 -4.12127
825 1 7.41576 14.2131 17.4732 3 7.47029e-06 -4.12131
826 1 6.59189 14.2137 15.143 3 6.36415e-06 -4.12129
827 1 9.06338 14.2117 15.1397 3 1.00079e-05 -4.12135
828 1 8.23959 14.2125 12.8094 3 8.67982e-06 -4.12133
829 1 10.7108 14.2099 12.8065 3 1.30888e-05 -4.12141
830 1 9.88713 14.2109 10.476 3 1.14808e-05 -4.12138
831 1 12.3581 14.2074 10.4737 3 1.67473e-05 -4.12149
832 1 11.5345 14.2087 8.143 3 1.48334e-05 -4.12145
833 1 14.0052 14.2042 8.14148 3 2.11522e-05 -4.12158
834 1 13.1817 14.2059 5.81048 3 1.88353e-05 -4.12153
835 1 15.6522 14.2001 5.80987 3 2.63636e-05 -4.12169
836 1 14.8288 14.2023 3.47855 3 2.36476e-05 -4.12163
837 1 17.2992 14.1949 3.47901 3 3.23328e-05 -4.12182
838 1 16.4757 14.1977 1.1473 3 2.92764e-05 -4.12175
839 1 18.9462 14.1884 1.14894 3 3.83868e-05 -4.12196
840 1 0.823862 12.176 30.3066 3 1.39442e-06 -4.12123
841 1 64.2924 12.1761 27.9764 3 1.34542e-06 -4.12123
842 1 2.47157 12.1759 27.9731 3 1.80395e-06 -4.12124
843 1 1.64772 12.176 25.6428 3 1.54489e-06 -4.12124
844 1 4.11924 12.1755 25.6397 3 2.63711e-06 -4.12126
845 1 3.29541 12.1757 23.3094 3 2.16766e-06 -4.12125
846 1 5.76683 12.1749 23.3064 3 3.88782e-06 -4.12128
847 1 4.94305 12.1752 20.976 3 3.21513e-06 -4.12127
848 1 7.41434 12.1741 20.9732 3 5.54986e-06 -4.12132
849 1 6.5906 12.1745 18.6427 3 4.66645e-06 -4.1213
850 1 9.06174 12.173 18.6403 3 7.64719e-06 -4.12137
851 1 8.23805 12.1736 16.3097 3 6.53893e-06 -4.12134
852 1 10.709 12.1715 16.3077 3 1.0204e-05 -4.12143
853 1 9.8854 12.1723 13.9769 3 8.86561e-06 -4.1214
854 1 12.3562 12.1695 13.9755 3 1.32864e-05 -4.12151
855 1 11.5326 12.1705 11.6445 3 1.16842e-05 -4.12147
856 1 14.0033 12.167 11.6437 3 1.696e-05 -4.1216
857 1 13.1798 12.1683 9.31245 3 1.50383e-05 -4.12155
858 1 15.6504 12.1637 9.3124 3 2.12196e-05 -4.12172
859 1 14.8269 12.1654 6.98091 3 1.90293e-05 -4.12166
860 1 17.2975 12.1597 6.98172 3 2.59688e-05 -4.12185
861 1 16.4739 12.1618 4.64994 3 2.35533e-05 -4.12178
862 1 18.9448 12.1547 4.65165 3 3.06999e-05 -4.12199
863 1 18.1211 12.1573 2.31956 3 2.83747e-05 -4.12192
864 1 20.5923 12.1488 2.32213 3 3.4873e-05 -4.12212
865 1 19.7685 12.1519 48.9484 3 3.2903e-05 -4.12206
866 1 22.2404 12.1419 48.9516 3 3.79539e-05 -4.12223
867 1 0.823848 10.1364 33.804 3 1.17498e-06 -4.12124
868 1 64.2924 10.1364 31.4734 3 1.13087e-06 -4.12124
869 1 2.47153 10.1362 31.4712 3 1.53109e-06 -4.12125
870 1 1.64769 10.1363 29.1406 3 1.30774e-06 -4.12124
871 1 4.11919 10.136 29.1385 3 2.24957e-06 -4.12126
872 1 3.29537 10.1361 26.8078 3 1.8446e-06 -4.12125
873 1 5.76679 10.1355 26.8058 3 3.34687e-06 -4.12129
874 1 4.943 10.1358 24.4751 3 2.74921e-06 -4.12127
875 1 7.41433 10.1349 24.4733 3 4.85968e-06 -4.12132
876 1 6.59057 10.1353 22.1425 3 4.052e-06 -4.12131
877 1 9.06179 10.1341 22.1409 3 6.83214e-06 -4.12137
878 1 8.23807 10.1346 19.81 3 5.78122e-06 -4.12135
879 1 10.7092 10.1331 19.8088 3 9.3077e-06 -4.12144
880 1 9.8855 10.1336 17.4778 3 8.00335e-06 -4.1214
881 1 12.3565 10.1317 17.4769 3 1.23825e-05 -4.12152
882 1 11.5329 10.1324 15.1458 3 1.07709e-05 -4.12148
883 1 14.0038 10.1299 15.1454 3 1.60209e-05 -4.12162
884 1 13.1802 10.1309 12.814 3 1.41216e-05 -4.12157
885 1 15.6511 10.1277 12.8142 3 2.02669e-05 -4.12173
886 1 14.8274 10.1289 10.4827 3 1.80735e-05 -4.12167
887 1 17.2985 10.125 10.4835 3 2.48652e-05 -4.12186
888 1 16.4748 10.1264 8.15175 3 2.25344e-05 -4.1218
889 1 18.946 10.1216 8.15314 3 2.94988e-05 -4.122
890 1 18.1222 10.1234 5.82121 3 2.72157e-05 -4.12193
891 1 20.5938 10.1177 5.82315 3 3.34479e-05 -4.12212
892 1 19.7699 10.1197 3.49106 3 3.15915e-05 -4.12206
893 1 22.2421 10.1133 3.49337 3 3.59659e-05 -4.12223
894 1 21.4179 10.1155 1.1612 3 3.49545e-05 -4.12218
895 1 23.891 10.1084 1.16361 3 3.64192e-05 -4.12229
896 1 0.823984 8.09664 37.3014 3 1.50246e-06 -4.12227
897 1 1.86337e-11 8.09664 34.9704 3 1.46163e-06 -4.12227
898 1 2.47195 8.09656 34.9693 3 1.82512e-06 -4.12227
899 1 1.64797 8.09661 32.6383 3 1.62451e-06 -4.12227
900 1 4.11989 8.09642 32.6373 3 2.50178e-06 -4.12228
901 1 3.29592 8.0965 30.3063 3 2.11593e-06 -4.12228
902 1 5.7678 8.09619 30.3053 3 3.58432e-06 -4.12229
903 1 4.94385 8.09632 27.9742 3 2.9817e-06 -4.12229
904 1 7.41567 8.09587 27.9733 3 5.17389e-06 -4.12231
905 1 6.59174 8.09604 25.6422 3 4.3128e-06 -4.1223
906 1 9.06349 8.09543 25.6414 3 7.39863e-06 -4.12233
907 1 8.23959 8.09567 23.3103 3 6.20258e-06 -4.12232
908 1 10.7113 8.09487 23.3097 3 1.03948e-05 -4.12236
909 1 9.88739 8.09517 20.9785 3 8.78575e-06 -4.12235
910 1 12.359 8.09415 20.9781 3 1.42821e-05 -4.1224
911 1 11.5351 8.09453 18.6469 3 1.22123e-05 -4.12238
912 1 14.0067 8.09323 18.6467 3 1.91851e-05 -4.12245
913 1 13.1829 8.09372 16.3153 3 1.66182e-05 -4.12242
914 1 15.6544 8.0921 16.3155 3 2.50478e-05 -4.1225
915 1 14.8306 8.0927 13.984 3 2.20015e-05 -4.12247
916 1 17.3022 8.09072 13.9845 3 3.15331e-05 -4.12255
917 1 16.4783 8.09145 11.6529 3 2.82377e-05 -4.12253
918 1 18.9501 8.08907 11.6537 3 3.79166e-05 -4.12261
919 1 18.1262 8.08993 9.32203 3 3.48085e-05 -4.12258
920 1 20.5982 8.08717 9.32307 3 4.30693e-05 -4.12264
921 1 19.7741 8.08815 6.99133 3 4.07387e-05 -4.12263
922 1 22.2466 8.08504 6.99254 3 4.55675e-05 -4.12266
923 1 21.4224 8.08613 4.66076 3 4.4711e-05 -4.12265
924 1 23.8954 8.08279 4.66198 3 4.43184e-05 -4.12265
925 1 23.071 8.08392 2.33022 3 4.54803e-05 -4.12266
926 1 25.5447 8.08055 2.33129 3 3.91003e-05 -4.12261
927 1 24.72 8.08166 48.9582 3 4.21417e-05 -4.12263
928 1 27.1945 8.07852 0.000339158 3 3.09872e-05 -4.12255
929 1 0.824261 6.05706 40.7989 3 0.000845304 -4.12208
930 1 0 6.05706 38.4675 3 0.000845584 -4.12208
931 1 2.47278 6.05706 38.4675 3 0.000842843 -4.12208
932 1 1.64852 6.05706 36.1361 3 0.000844394 -4.12208
933 1 4.12131 6.05706 36.1361 3 0.000837583 -4.12209
934 1 3.29705 6.05706 33.8048 3 0.000840622 -4.12209
935 1 5.76983 6.05706 33.8048 3 0.00082881 -4.1221
936 1 4.94557 6.05706 31.4734 3 0.00083369 -4.1221
937 1 7.41835 6.05706 31.4734 3 0.000815526 -4.12212
938 1 6.59409 6.05706 29.142 3 0.0008228 -4.12211
939 1 9.06687 6.05706 29.142 3 0.000796409 -4.12214
940 1 8.24261 6.05706 26.8107 3 0.000806795 -4.12213
941 1 10.7154 6.05706 26.8107 3 0.000769854 -4.12216
942 1 9.89114 6.05706 24.4793 3 0.000784159 -4.12215
943 1 12.3639 6.05706 24.4793 3 0.000734204 -4.12218
944 1 11.5397 6.05706 22.1479 3 0.000753276 -4.12217
945 1 14.0124 6.05706 22.1479 3 0.000687853 -4.1222
946 1 13.1882 6.05706 19.8166 3 0.000712434 -4.12219
947 1 15.661 6.05706 19.8166 3 0.000629865 -4.12221
948 1 14.8367 6.05706 17.4852 3 0.000660325 -4.1222
949 1 17.3095 6.05706 17.4852 3 0.000560309 -4.12222
950 1 16.4852 6.05706 15.1539 3 0.00059647 -4.12222
951 1 18.958 6.05706 15.1539 3 0.000480835 -4.12222
952 1 18.1337 6.05706 12.8225 3 0.000521624 -4.12222
953 1 20.6065 6.05706 12.8225 3 0.000394982 -4.12221
954 1 19.7823 6.05706 10.4911 3 0.000438416 -4.12221
955 1 22.2551 6.05706 10.4911 3 0.000307777 -4.12218
956 1 21.4308 6.05706 8.15977 3 0.000351215 -4.12219
957 1 23.9036 6.05706 8.15977 3 0.000224709 -4.12215
958 1 23.0793 6.05706 5.82841 3 0.000265393 -4.12217
959 1 25.5521 6.05706 5.82841 3 0.000150566 -4.12211
960 1 24.7278 6.05706 3.49704 3 0.000186264 -4.12213
961 1 27.2006 6.05706 3.49704 3 8.89404e-05 -4.12208
962 1 26.3764 6.05706 1.16568 3 0.000118019 -4.1221
963 1 28.8491 6.05706 1.16568 3 4.24251e-05 -4.12206
964 1 0.824261 4.03804 44.2959 3 5.776e-17 -4.12138
965 1 0 4.03804 41.9645 3 2.304e-17 -4.12138
966 1 2.47278 4.03804 41.9645 3 4e-16 -4.12138
967 1 1.64852 4.03804 39.6332 3 5.776e-17 -4.12138
968 1 4.12131 4.03804 39.6332 3 1e-16 -4.12139
969 1 3.29705 4.03804 37.3018 3 4e-16 -4.12139
970 1 5.76983 4.03804 37.3018 3 0 -4.1214
971 1 4.94557 4.03804 34.9704 3 1e-16 -4.1214
972 1 7.41835 4.03804 34.9704 3 1e-16 -4.12142
973 1 6.59409 4.03804 32.6391 3 2.01948e-28 -4.12141
974 1 9.06687 4.03804 32.6391 3 4e-16 -4.12144
975 1 8.24261 4.03804 30.3077 3 9.99999e-17 -4.12143
976 1 10.7154 4.03804 30.3077 3 1e-16 -4.12147
977 1 9.89114 4.03804 27.9764 3 4e-16 -4.12146
978 1 12.3639 4.03804 27.9764 3 1.51461e-28 -4.12151
979 1 11.5397 4.03804 25.645 3 1e-16 -4.12149
980 1 14.0124 4.03804 25.645 3 1e-16 -4.12156
981 1 13.1882 4.03804 23.3136 3 0 -4.12153
982 1 15.661 4.03804 23.3136 3 4e-16 -4.12161
983 1 14.8367 4.03804 20.9823 3 9.99999e-17 -4.12158
984 1 17.3095 4.03804 20.9823 3 1e-16 -4.12168
985 1 16.4852 4.03804 18.6509 3 4e-16 -4.12165
986 1 18.958 4.03804 18.6509 3 2.01948e-28 -4.12177
987 1 18.1337 4.03804 16.3195 3 1e-16 -4.12172
988 1 20.6065 4.03804 16.3195 3 1e-16 -4.12186
989 1 19.7823 4.03804 13.9882 3 1e-16 -4.12181
990 1 22.2551 4.03804 13.9882 3 4e-16 -4.12197
991 1 21.4308 4.03804 11.6568 3 4e-16 -4.12192
992 1 23.9036 4.03804 11.6568 3 1e-16 -4.12208
993 1 23.0793 4.03804 9.32545 3 1e-16 -4.12203
994 1 25.5521 4.03804 9.32545 3 1.51461e-28 -4.12219
995 1 24.7278 4.03804 6.99409 3 0 -4.12214
996 1 27.2006 4.03804 6.99409 3 1e-16 -4.1223
997 1 26.3764 4.03804 4.66273 3 1e-16 -4.12225
998 1 28.8491 4.03804 4.66273 3 4e-16 -4.12238
999 1 28.0249 4.03804 2.33136 3 3.99999e-16 -4.12234
1000 1 30.4977 4.03804 2.33136 3 9.99999e-17 -4.12243
1001 1 29.6734 4.03804 0 3 1.0507e-16 -4.12241
1002 1 32.1462 4.03804 0 3 1.0507e-16 -4.12245
1003 1 0.824261 2.01902 47.7929 3 6.28299e-17 -4.10627
1004 1 0 2.01902 45.4616 3 2.304e-17 -4.10627
1005 1 2.47278 2.01902 45.4616 3 4e-16 -4.10627
1006 1 1.64852 2.01902 43.1302 3 5.776e-17 -4.10627
1007 1 4.12131 2.01902 43.1302 3 1e-16 -4.10627
1008 1 3.29705 2.01902 40.7989 3 4e-16 -4.10627
1009 1 5.76983 2.01902 40.7989 3 6.05845e-28 -4.10627
1010 1 4.94557 2.01902 38.4675 3 1e-16 -4.10627
1011 1 7.41835 2.01902 38.4675 3 1e-16 -4.10627
1012 1 6.59409 2.01902 36.1361 3 6.05845e-28 -4.10627
1013 1 9.06687 2.01902 36.1361 3 4e-16 -4.10627
1014 1 8.24261 2.01902 33.8048 3 9.99999e-17 -4.10627
1015 1 10.7154 2.01902 33.8048 3 1e-16 -4.10627
1016 1 9.89114 2.01902 31.4734 3 4e-16 -4.10627
1017 1 12.3639 2.01902 31.4734 3 5.04871e-29 -4.10627
1018 1 11.5397 2.01902 29.142 3 1e-16 -4.10627
1019 1 14.0124 2.01902 29.142 3 1e-16 -4.10627
1020 1 13.1882 2.01902 26.8107 3 0 -4.10627
1021 1 15.661 2.01902 26.8107 3 4e-16 -4.10627
1022 1 14.8367 2.01902 24.4793 3 9.99999e-17 -4.10627
1023 1 17.3095 2.01902 24.4793 3 1e-16 -4.10627
1024 1 16.4852 2.01902 22.1479 3 4e-16 -4.10627
1025 1 18.958 2.01902 22.1479 3 2.01948e-28 -4.10627
1026 1 18.1337 2.01902 19.8166 3 1e-16 -4.10627
1027 1 20.6065 2.01902 19.8166 3 1e-16 -4.10627
1028 1 19.7823 2.01902 17.4852 3 1e-16 -4.10627
1029 1 22.2551 2.01902 17.4852 3 4e-16 -4.10627
1030 1 21.4308 2.01902 15.1539 3 4e-16 -4.10627
1031 1 23.9036 2.01902 15.1539 3 1e-16 -4.10627
1032 1 23.0793 2.01902 12.8225 3 1e-16 -4.10627
1033 1 25.5521 2.01902 12.8225 3 1.89327e-28 -4.10627
1034 1 24.7278 2.01902 10.4911 3 0 -4.10627
1035 1 27.2006 2.01902 10.4911 3 1e-16 -4.10627
1036 1 26.3764 2.01902 8.15977 3 1e-16 -4.10627
1037 1 28.8491 2.01902 8.15977 3 4e-16 -4.10627
1038 1 28.0249 2.01902 5.82841 3 3.99999e-16 -4.10627
1039 1 30.4977 2.01902 5.82841 3 9.99999e-17 -4.10627
1040 1 29.6734 2.01902 3.49704 3 1e-16 -4.10627
1041 1 32.1462 2.01902 3.49704 3 9.99999e-17 -4.10627
1042 1 31.3219 2.01902 1.16568 3 1.69e-18 -4.10627
1043 1 33.7947 2.01902 1.16568 3 4.01691e-16 -4.10627
1044 1 1.64852 0 46.6273 5 12.2293 -3.54465
1045 1 4.12131 0 46.6273 5 12.2293 -3.54465
1046 1 3.29705 0 44.2959 5 12.2293 -3.54465
1047 1 5.76983 0 44.2959 5 12.2293 -3.54465
1048 1 4.94557 0 41.9645 5 12.2293 -3.54465
1049 1 7.41835 0 41.9645 5 12.2293 -3.54465
1050 1 6.59409 0 39.6332 5 12.2293 -3.54465
1051 1 9.06687 0 39.6332 5 12.2293 -3.54465
1052 1 8.24261 0 37.3018 5 12.2293 -3.54465
1053 1 10.7154 0 37.3018 5 12.2293 -3.54465
1054 1 9.89114 0 34.9704 5 12.2293 -3.54465
1055 1 12.3639 0 34.9704 5 12.2293 -3.54465
1056 1 11.5397 0 32.6391 5 12.2293 -3.54465
1057 1 14.0124 0 32.6391 5 12.2293 -3.54465
1058 1 13.1882 0 30.3077 5 12.2293 -3.54465
1059 1 15.661 0 30.3077 5 12.2293 -3.54465
1060 1 14.8367 0 27.9764 5 12.2293 -3.54465
1061 1 17.3095 0 27.9764 5 12.2293 -3.54465
1062 1 16.4852 0 25.645 5 12.2293 -3.54465
1063 1 18.958 0 25.645 5 12.2293 -3.54465
1064 1 18.1337 0 23.3136 5 12.2293 -3.54465
1065 1 20.6065 0 23.3136 5 12.2293 -3.54465
1066 1 19.7823 0 20.9823 5 12.2293 -3.54465
1067 1 22.2551 0 20.9823 5 12.2293 -3.54465
1068 1 21.4308 0 18.6509 5 12.2293 -3.54465
1069 1 23.9036 0 18.6509 5 12.2293 -3.54465
1070 1 23.0793 0 16.3195 5 12.2293 -3.54465
1071 1 25.5521 0 16.3195 5 12.2293 -3.54465
1072 1 24.7278 0 13.9882 5 12.2293 -3.54465
1073 1 27.2006 0 13.9882 5 12.2293 -3.54465
1074 1 26.3764 0 11.6568 5 12.2293 -3.54465
1075 1 28.8491 0 11.6568 5 12.2293 -3.54465
1076 1 28.0249 0 9.32545 5 12.2293 -3.54465
1077 1 30.4977 0 9.32545 5 12.2293 -3.54465
1078 1 29.6734 0 6.99409 5 12.2293 -3.54465
1079 1 32.1462 0 6.99409 5 12.2293 -3.54465
1080 1 31.3219 0 4.66273 5 12.2293 -3.54465
1081 1 33.7947 0 4.66273 5 12.2293 -3.54465
1082 1 32.9705 0 2.33136 5 12.2293 -3.54465
1083 1 35.4432 0 2.33136 5 12.2293 -3.54465
1084 1 34.619 0 0 5 12.2293 -3.54465
1085 1 37.0918 0 0 5 12.2293 -3.54465
1086 1 0.836204 30.4855 5.82734 3 0.000105686 -4.11957
1087 1 2.59679e-12 30.4855 3.49704 3 0.000105291 -4.11957
1088 1 2.50858 30.4855 3.49383 3 0.000108707 -4.11953
1089 1 1.6724 30.4855 1.16355 3 0.000106788 -4.11955
1090 1 4.18088 30.4855 1.16028 3 0.00011515 -4.11946
1091 1 0.833257 28.4603 9.32382 3 8.7341e-05 -4.12034
1092 1 64.2924 28.4603 6.99409 3 8.67783e-05 -4.12034
1093 1 2.49971 28.4603 6.98918 3 9.16039e-05 -4.12031
1094 1 1.6665 28.4603 4.65946 3 8.89242e-05 -4.12033
1095 1 4.16598 28.4603 4.65448 3 0.00010083 -4.12026
1096 1 3.33288 28.4603 2.32479 3 9.55617e-05 -4.12029
1097 1 5.83193 28.4601 2.31967 3 0.0001163 -4.12018
1098 1 4.999 28.4602 48.9487 3 0.000107615 -4.12022
1099 1 7.49742 28.4599 48.9433 3 0.000140466 -4.12007
1100 1 0.830696 26.4316 12.8205 3 6.2287e-05 -4.12081
1101 1 4.61572e-12 26.4316 10.4911 3 6.17375e-05 -4.12081
1102 1 2.49201 26.4316 10.485 3 6.69749e-05 -4.12079
1103 1 1.66137 26.4316 8.15567 3 6.40226e-05 -4.1208
1104 1 4.15311 26.4314 8.14945 3 7.68698e-05 -4.12076
1105 1 3.3226 26.4315 5.82018 3 7.11953e-05 -4.12078
1106 1 5.81382 26.4311 5.81382 3 9.31828e-05 -4.12071
1107 1 4.98352 26.4313 3.4846 3 8.41623e-05 -4.12073
1108 1 7.47397 26.4306 3.47805 3 0.000117893 -4.12064
1109 1 6.64398 26.4309 1.14891 3 0.000104313 -4.12068
1110 1 9.13339 26.4297 1.14209 3 0.000154012 -4.12056
1111 1 0.828615 24.4 16.3173 3 3.97215e-05 -4.12106
1112 1 1.6379e-11 24.4 13.9882 3 3.92233e-05 -4.12106
1113 1 2.48577 24.3999 13.9813 3 4.36992e-05 -4.12105
1114 1 1.65721 24.3999 11.6523 3 4.12123e-05 -4.12106
1115 1 4.14271 24.3996 11.6454 3 5.19585e-05 -4.12103
1116 1 3.31427 24.3997 9.31632 3 4.72763e-05 -4.12104
1117 1 5.79927 24.3991 9.30936 3 6.50271e-05 -4.12101
1118 1 4.97105 24.3994 6.98034 3 5.7818e-05 -4.12102
1119 1 7.45531 24.3983 6.97326 3 8.38841e-05 -4.12097
1120 1 6.62737 24.3987 4.64428 3 7.36744e-05 -4.12099
1121 1 9.11066 24.3971 4.63707 3 0.000109773 -4.12094
1122 1 8.28308 24.3978 2.30813 3 9.58963e-05 -4.12096
1123 1 10.7652 24.3953 2.30075 3 0.000144175 -4.1209
1124 1 9.93802 24.3963 48.9305 3 0.000125794 -4.12092
1125 1 12.4186 24.3927 48.9229 3 0.000188817 -4.12087
1126 1 0.827008 22.3659 19.8143 3 2.33734e-05 -4.12118
1127 1 2.42733e-11 22.366 17.4852 3 2.30378e-05 -4.12118
1128 1 2.48096 22.3658 17.4782 3 2.6215e-05 -4.12118
1129 1 1.654 22.3659 15.1492 3 2.44366e-05 -4.12118
1130 1 4.13472 22.3654 15.1422 3 3.19742e-05 -4.12117
1131 1 3.30787 22.3656 12.8132 3 2.87085e-05 -4.12117
1132 1 5.78817 22.3647 12.8062 3 4.08571e-05 -4.12116
1133 1 4.9615 22.3651 10.4772 3 3.60295e-05 -4.12116
1134 1 7.44118 22.3637 10.4702 3 5.29814e-05 -4.12115
1135 1 6.61474 22.3643 8.14116 3 4.64865e-05 -4.12116
1136 1 9.09362 22.3623 8.13421 3 6.86729e-05 -4.12115
1137 1 8.26748 22.3631 5.80516 3 6.03627e-05 -4.12115
1138 1 10.7454 22.3602 5.79825 3 8.81848e-05 -4.12115
1139 1 9.91959 22.3613 3.46918 3 7.79472e-05 -4.12115
1140 1 12.3963 22.3572 3.46239 3 0.000111557 -4.12116
1141 1 11.5709 22.3588 1.13326 3 9.93764e-05 -4.12115
1142 1 14.0463 22.3532 1.12667 3 0.000139139 -4.12119
1143 1 0.825818 20.3301 23.3114 3 1.31439e-05 -4.12123
1144 1 2.28414e-11 20.3301 20.9823 3 1.2915e-05 -4.12123
1145 1 2.4774 20.3298 20.9756 3 1.49752e-05 -4.12123
1146 1 1.65162 20.33 18.6465 3 1.38356e-05 -4.12123
1147 1 4.12884 20.3294 18.6398 3 1.86231e-05 -4.12123
1148 1 3.30315 20.3296 16.3107 3 1.6574e-05 -4.12123
1149 1 5.78003 20.3286 16.3041 3 2.40917e-05 -4.12123
1150 1 4.95447 20.329 13.9749 3 2.11354e-05 -4.12123
1151 1 7.43088 20.3275 13.9685 3 3.13502e-05 -4.12124
1152 1 6.60551 20.3281 11.6392 3 2.74791e-05 -4.12124
1153 1 9.0813 20.3259 11.633 3 4.03573e-05 -4.12125
1154 1 8.25615 20.3268 9.30366 3 3.5656e-05 -4.12125
1155 1 10.7312 20.3236 9.29764 3 5.11013e-05 -4.12128
1156 1 9.90632 20.3248 6.96823 3 4.55093e-05 -4.12126
1157 1 12.3805 20.3205 6.96257 3 6.35758e-05 -4.12131
1158 1 11.5559 20.3222 4.63302 3 5.71186e-05 -4.12129
1159 1 14.0291 20.3164 4.62787 3 7.78494e-05 -4.12137
1160 1 13.2049 20.3186 2.29812 3 7.04686e-05 -4.12134
1161 1 15.677 20.3109 2.29369 3 9.4415e-05 -4.12145
1162 1 14.8532 20.3138 48.9223 3 8.58048e-05 -4.1214
1163 1 17.3242 20.3036 48.9189 3 0.000114314 -4.12156
1164 1 0.82497 18.2928 26.8087 3 7.23823e-06 -4.12124
1165 1 1.33019e-11 18.2928 24.4793 3 7.09732e-06 -4.12124
1166 1 2.47487 18.2925 24.4733 3 8.38125e-06 -4.12124
1167 1 1.64993 18.2927 22.1439 3 7.66159e-06 -4.12124
1168 1 4.12466 18.2921 22.138 3 1.06657e-05 -4.12125
1169 1 3.29979 18.2923 19.8086 3 9.39266e-06 -4.12125
1170 1 5.77427 18.2913 19.8027 3 1.40407e-05 -4.12126
1171 1 4.94949 18.2917 17.4733 3 1.22128e-05 -4.12126
1172 1 7.42363 18.2901 17.4677 3 1.84107e-05 -4.12128
1173 1 6.59898 18.2907 15.1381 3 1.61087e-05 -4.12127
1174 1 9.07267 18.2884 15.1328 3 2.37711e-05 -4.12131
1175 1 8.24819 18.2893 12.8031 3 2.09722e-05 -4.12129
1176 1 10.7213 18.2862 12.7982 3 3.00528e-05 -4.12135
1177 1 9.89705 18.2874 10.4684 3 2.67886e-05 -4.12133
1178 1 12.3696 18.2831 10.464 3 3.74029e-05 -4.1214
1179 1 11.5455 18.2848 8.13397 3 3.35796e-05 -4.12137
1180 1 14.0174 18.2791 8.13024 3 4.59492e-05 -4.12147
1181 1 13.1936 18.2813 5.79998 3 4.14974e-05 -4.12143
1182 1 15.6648 18.2738 5.79717 3 5.62216e-05 -4.12156
1183 1 14.8411 18.2766 3.46657 3 5.08623e-05 -4.12151
1184 1 17.3117 18.2669 3.46495 3 6.88321e-05 -4.12169
1185 1 16.4883 18.2706 1.13389 3 6.21674e-05 -4.12162
1186 1 18.9582 18.2581 1.13379 3 8.36506e-05 -4.12184
1187 1 0.824394 16.2545 30.306 3 3.9781e-06 -4.12124
1188 1 64.2924 16.2545 27.9764 3 3.88778e-06 -4.12124
1189 1 2.47316 16.2543 27.9712 3 4.73587e-06 -4.12125
1190 1 1.64878 16.2544 25.6415 3 4.25859e-06 -4.12124
1191 1 4.12183 16.2538 25.6364 3 6.22844e-06 -4.12126
1192 1 3.29751 16.254 23.3067 3 5.3944e-06 -4.12125
1193 1 5.77038 16.253 23.3018 3 8.44024e-06 -4.12128
1194 1 4.94613 16.2534 20.972 3 7.24539e-06 -4.12126
1195 1 7.41875 16.2519 20.9674 3 1.12736e-05 -4.1213
1196 1 6.59459 16.2525 18.6375 3 9.78719e-06 -4.12129
1197 1 9.06689 16.2503 18.6332 3 1.47552e-05 -4.12134
1198 1 8.24285 16.2512 16.3032 3 1.29271e-05 -4.12132
1199 1 10.7148 16.2482 16.2993 3 1.89217e-05 -4.12139
1200 1 9.89088 16.2493 13.9691 3 1.67508e-05 -4.12136
1201 1 12.3624 16.2454 13.9659 3 2.38271e-05 -4.12145
1202 1 11.5386 16.2469 11.6355 3 2.12736e-05 -4.12142
1203 1 14.0098 16.2417 11.633 3 2.96514e-05 -4.12153
1204 1 13.1861 16.2436 9.3023 3 2.66114e-05 -4.12149
1205 1 15.6568 16.2369 9.30077 3 3.6764e-05 -4.12164
1206 1 14.8333 16.2394 6.96974 3 3.3033e-05 -4.12158
1207 1 17.3037 16.2307 6.9694 3 4.51344e-05 -4.12177
1208 1 16.4803 16.234 4.63793 3 4.08175e-05 -4.1217
1209 1 18.9504 16.2229 4.63901 3 5.43021e-05 -4.12192
1210 1 18.1271 16.227 2.30703 3 4.97277e-05 -4.12184
1211 1 20.5972 16.2131 2.30969 3 6.19556e-05 -4.12208
1212 1 19.7738 16.2182 48.9358 3 5.84032e-05 -4.122
1213 1 22.2441 16.2014 48.94 3 6.61208e-05 -4.12222
1214 1 0.824037 14.2155 33.8033 3 2.23758e-06 -4.12124
1215 1 64.2924 14.2155 31.4734 3 2.16843e-06 -4.12123
1216 1 2.47209 14.2153 31.4692 3 2.76884e-06 -4.12124
1217 1 1.64807 14.2154 29.1392 3 2.44038e-06 -4.12124
1218 1 4.12009 14.2148 29.1351 3 3.83512e-06 -4.12126
1219 1 3.2961 14.2151 26.8051 3 3.23214e-06 -4.12125
1220 1 5.76799 14.2141 26.8011 3 5.39305e-06 -4.12128
1221 1 4.94405 14.2145 24.471 3 4.55723e-06 -4.12127
1222 1 7.41576 14.2131 24.4673 3 7.47029e-06 -4.12131
1223 1 6.59189 14.2137 22.1371 3 6.36415e-06 -4.12129
1224 1 9.06338 14.2117 22.1338 3 1.00079e-05 -4.12135
1225 1 8.23959 14.2125 19.8035 3 8.67982e-06 -4.12133
1226 1 10.7108 14.2099 19.8006 3 1.30888e-05 -4.12141
1227 1 9.88713 14.2109 17.4701 3 1.14808e-05 -4.12138
1228 1 12.3581 14.2074 17.4678 3 1.67473e-05 -4.12149
1229 1 11.5345 14.2087 15.1371 3 1.48334e-05 -4.12145
1230 1 14.0052 14.2042 15.1356 3 2.11522e-05 -4.12158
1231 1 13.1817 14.2059 12.8046 3 1.88353e-05 -4.12153
1232 1 15.6522 14.2001 12.804 3 2.63636e-05 -4.12169
1233 1 14.8288 14.2023 10.4726 3 2.36476e-05 -4.12163
1234 1 17.2992 14.1949 10.4731 3 3.23328e-05 -4.12182
1235 1 16.4757 14.1977 8.14139 3 2.92764e-05 -4.12175
1236 1 18.9462 14.1884 8.14303 3 3.83868e-05 -4.12196
1237 1 18.1227 14.1918 5.81091 3 3.54186e-05 -4.12189
1238 1 20.5934 14.1805 5.81377 3 4.35488e-05 -4.1221
1239 1 19.7697 14.1846 3.48126 3 4.11553e-05 -4.12204
1240 1 22.241 14.1712 3.4852 3 4.67426e-05 -4.12223
1241 1 21.4171 14.176 1.15237 3 4.5344e-05 -4.12217
1242 1 23.8892 14.1607 1.15703 3 4.93307e-05 -4.12229
1243 1 0.823862 12.176 37.3007 3 1.39442e-06 -4.12123
1244 1 64.2924 12.1761 34.9704 3 1.34542e-06 -4.12123
1245 1 2.47157 12.1759 34.9672 3 1.80395e-06 -4.12124
1246 1 1.64772 12.176 32.6369 3 1.54489e-06 -4.12124
1247 1 4.11924 12.1755 32.6338 3 2.63711e-06 -4.12126
1248 1 3.29541 12.1757 30.3035 3 2.16766e-06 -4.12125
1249 1 5.76683 12.1749 30.3005 3 3.88782e-06 -4.12128
1250 1 4.94305 12.1752 27.9701 3 3.21513e-06 -4.12127
1251 1 7.41434 12.1741 27.9673 3 5.54987e-06 -4.12132
1252 1 6.5906 12.1745 25.6368 3 4.66645e-06 -4.1213
1253 1 9.06174 12.173 25.6344 3 7.64719e-06 -4.12137
1254 1 8.23805 12.1736 23.3038 3 6.53893e-06 -4.12134
1255 1 10.709 12.1715 23.3018 3 1.0204e-05 -4.12143
1256 1 9.8854 12.1723 20.971 3 8.86561e-06 -4.1214
1257 1 12.3562 12.1695 20.9695 3 1.32864e-05 -4.12151
1258 1 11.5326 12.1705 18.6386 3 1.16842e-05 -4.12147
1259 1 14.0033 12.167 18.6378 3 1.696e-05 -4.1216
1260 1 13.1798 12.1683 16.3065 3 1.50383e-05 -4.12155
1261 1 15.6504 12.1637 16.3065 3 2.12196e-05 -4.12172
1262 1 14.8269 12.1654 13.975 3 1.90293e-05 -4.12166
1263 1 17.2975 12.1597 13.9758 3 2.59688e-05 -4.12185
1264 1 16.4739 12.1618 11.644 3 2.35533e-05 -4.12178
1265 1 18.9448 12.1547 11.6457 3 3.06999e-05 -4.12199
1266 1 18.1211 12.1573 9.31365 3 2.83747e-05 -4.12192
1267 1 20.5923 12.1488 9.31622 3 3.4873e-05 -4.12212
1268 1 19.7685 12.1519 6.98387 3 3.2903e-05 -4.12206
1269 1 22.2404 12.1419 6.98711 3 3.79539e-05 -4.12223
1270 1 21.4163 12.1454 4.65459 3 3.65501e-05 -4.12218
1271 1 23.8891 12.1343 4.65815 3 3.99465e-05 -4.12229
1272 1 23.0646 12.1381 2.32559 3 3.90209e-05 -4.12227
1273 1 25.5387 12.1265 2.32899 3 4.13515e-05 -4.1223
1274 1 24.7138 12.1304 48.9552 3 4.0753e-05 -4.1223
1275 1 27.1893 12.1192 48.9579 3 4.21966e-05 -4.12227
1276 1 0.823848 10.1364 40.7981 3 1.17498e-06 -4.12124
1277 1 64.2924 10.1364 38.4675 3 1.13087e-06 -4.12124
1278 1 2.47153 10.1362 38.4653 3 1.53109e-06 -4.12125
1279 1 1.64769 10.1363 36.1347 3 1.30774e-06 -4.12124
1280 1 4.11919 10.136 36.1326 3 2.24957e-06 -4.12126
1281 1 3.29537 10.1361 33.8019 3 1.8446e-06 -4.12125
1282 1 5.76679 10.1355 33.7999 3 3.34687e-06 -4.12129
1283 1 4.943 10.1358 31.4692 3 2.74921e-06 -4.12127
1284 1 7.41433 10.1349 31.4674 3 4.85968e-06 -4.12132
1285 1 6.59057 10.1353 29.1366 3 4.052e-06 -4.12131
1286 1 9.06179 10.1341 29.135 3 6.83214e-06 -4.12137
1287 1 8.23807 10.1346 26.8041 3 5.78122e-06 -4.12135
1288 1 10.7092 10.1331 26.8029 3 9.3077e-06 -4.12144
1289 1 9.8855 10.1336 24.4719 3 8.00335e-06 -4.1214
1290 1 12.3565 10.1317 24.471 3 1.23825e-05 -4.12152
1291 1 11.5329 10.1324 22.1398 3 1.07709e-05 -4.12148
1292 1 14.0038 10.1299 22.1395 3 1.60209e-05 -4.12162
1293 1 13.1802 10.1309 19.8081 3 1.41216e-05 -4.12157
1294 1 15.6511 10.1277 19.8083 3 2.02669e-05 -4.12173
1295 1 14.8274 10.1289 17.4768 3 1.80735e-05 -4.12167
1296 1 17.2985 10.125 17.4776 3 2.48652e-05 -4.12186
1297 1 16.4748 10.1264 15.1458 3 2.25344e-05 -4.1218
1298 1 18.946 10.1216 15.1472 3 2.94988e-05 -4.122
1299 1 18.1222 10.1234 12.8153 3 2.72157e-05 -4.12193
1300 1 20.5938 10.1177 12.8172 3 3.34479e-05 -4.12212
1301 1 19.7699 10.1197 10.4852 3 3.15915e-05 -4.12206
1302 1 22.2421 10.1133 10.4875 3 3.59659e-05 -4.12223
1303 1 21.4179 10.1155 8.15529 3 3.49545e-05 -4.12218
1304 1 23.891 10.1084 8.1577 3 3.64192e-05 -4.12229
1305 1 23.0665 10.1109 5.82555 3 3.64631e-05 -4.12226
1306 1 25.5407 10.1036 5.82771 3 3.42984e-05 -4.12232
1307 1 24.7157 10.106 3.4957 3 3.56476e-05 -4.12231
1308 1 27.1911 10.0991 3.49728 3 2.99467e-05 -4.12231
1309 1 26.3658 10.1013 1.16552 3 3.23597e-05 -4.12232
1310 1 28.8423 10.0955 1.16629 3 2.43617e-05 -4.12228
1311 1 0.823984 8.09664 44.2955 3 1.50246e-06 -4.12227
1312 1 64.2924 8.09664 41.9645 3 1.46163e-06 -4.12227
1313 1 2.47195 8.09656 41.9634 3 1.82512e-06 -4.12227
1314 1 1.64797 8.09661 39.6324 3 1.62451e-06 -4.12227
1315 1 4.11989 8.09642 39.6314 3 2.50178e-06 -4.12228
1316 1 3.29592 8.0965 37.3004 3 2.11593e-06 -4.12228
1317 1 5.7678 8.09619 37.2993 3 3.58432e-06 -4.12229
1318 1 4.94385 8.09632 34.9683 3 2.9817e-06 -4.12229
1319 1 7.41567 8.09587 34.9674 3 5.17389e-06 -4.12231
1320 1 6.59174 8.09604 32.6363 3 4.3128e-06 -4.1223
1321 1 9.06349 8.09543 32.6355 3 7.39863e-06 -4.12233
1322 1 8.23959 8.09567 30.3044 3 6.20258e-06 -4.12232
1323 1 10.7113 8.09487 30.3038 3 1.03948e-05 -4.12236
1324 1 9.88739 8.09517 27.9726 3 8.78575e-06 -4.12235
1325 1 12.359 8.09415 27.9722 3 1.42821e-05 -4.1224
1326 1 11.5351 8.09453 25.6409 3 1.22123e-05 -4.12238
1327 1 14.0067 8.09323 25.6408 3 1.91851e-05 -4.12245
1328 1 13.1829 8.09372 23.3094 3 1.66182e-05 -4.12242
1329 1 15.6544 8.0921 23.3096 3 2.50478e-05 -4.1225
1330 1 14.8306 8.0927 20.9781 3 2.20015e-05 -4.12247
1331 1 17.3022 8.09072 20.9786 3 3.15331e-05 -4.12255
1332 1 16.4783 8.09145 18.647 3 2.82377e-05 -4.12253
1333 1 18.9501 8.08907 18.6478 3 3.79166e-05 -4.12261
1334 1 18.1262 8.08993 16.3161 3 3.48085e-05 -4.12258
1335 1 20.5982 8.08717 16.3172 3 4.30693e-05 -4.12264
1336 1 19.7741 8.08815 13.9854 3 4.07387e-05 -4.12263
1337 1 22.2466 8.08504 13.9866 3 4.55675e-05 -4.12266
1338 1 21.4224 8.08613 11.6548 3 4.4711e-05 -4.12265
1339 1 23.8954 8.08279 11.6561 3 4.43184e-05 -4.12265
1340 1 23.071 8.08392 9.32431 3 4.54803e-05 -4.12266
1341 1 25.5447 8.08055 9.32537 3 3.91003e-05 -4.12261
1342 1 24.72 8.08166 6.9937 3 4.21417e-05 -4.12263
1343 1 27.1945 8.07852 6.99443 3 3.09872e-05 -4.12255
1344 1 26.3695 8.0795 4.66289 3 3.52893e-05 -4.12258
1345 1 28.8448 8.07688 4.66319 3 2.23158e-05 -4.12249
1346 1 28.0196 8.07764 2.3318 3 2.65645e-05 -4.12252
1347 1 30.4954 8.07582 2.33167 3 1.57327e-05 -4.12245
1348 1 29.67 8.07627 0.000412521 3 1.86093e-05 -4.12247
1349 1 32.1462 8.07545 4.33382e-10 3 1.32918e-05 -4.12244
1350 1 0.824261 6.05706 47.7929 3 0.000845304 -4.12208
1351 1 0 6.05706 45.4616 3 0.000845584 -4.12208
1352 1 2.47278 6.05706 45.4616 3 0.000842843 -4.12208
1353 1 1.64852 6.05706 43.1302 3 0.000844394 -4.12208
1354 1 4.12131 6.05706 43.1302 3 0.000837583 -4.12209
1355 1 3.29705 6.05706 40.7989 3 0.000840622 -4.12209
1356 1 5.76983 6.05706 40.7989 3 0.00082881 -4.1221
1357 1 4.94557 6.05706 38.4675 3 0.00083369 -4.1221
1358 1 7.41835 6.05706 38.4675 3 0.000815526 -4.12212
1359 1 6.59409 6.05706 36.1361 3 0.0008228 -4.12211
1360 1 9.06687 6.05706 36.1361 3 0.000796409 -4.12214
1361 1 8.24261 6.05706 33.8048 3 0.000806795 -4.12213
1362 1 10.7154 6.05706 33.8048 3 0.000769854 -4.12216
1363 1 9.89114 6.05706 31.4734 3 0.000784159 -4.12215
1364 1 12.3639 6.05706 31.4734 3 0.000734204 -4.12218
1365 1 11.5397 6.05706 29.142 3 0.000753276 -4.12217
1366 1 14.0124 6.05706 29.142 3 0.000687853 -4.1222
1367 1 13.1882 6.05706 26.8107 3 0.000712434 -4.12219
1368 1 15.661 6.05706 26.8107 3 0.000629865 -4.12221
1369 1 14.8367 6.05706 24.4793 3 0.000660325 -4.1222
1370 1 17.3095 6.05706 24.4793 3 0.000560309 -4.12222
1371 1 16.4852 6.05706 22.1479 3 0.00059647 -4.12222
1372 1 18.958 6.05706 22.1479 3 0.000480835 -4.12222
1373 1 18.1337 6.05706 19.8166 3 0.000521624 -4.12222
1374 1 20.6065 6.05706 19.8166 3 0.000394982 -4.12221
1375 1 19.7823 6.05706 17.4852 3 0.000438416 -4.12221
1376 1 22.2551 6.05706 17.4852 3 0.000307777 -4.12218
1377 1 21.4308 6.05706 15.1539 3 0.000351215 -4.12219
1378 1 23.9036 6.05706 15.1539 3 0.000224709 -4.12215
1379 1 23.0793 6.05706 12.8225 3 0.000265393 -4.12217
1380 1 25.5521 6.05706 12.8225 3 0.000150566 -4.12211
1381 1 24.7278 6.05706 10.4911 3 0.000186264 -4.12213
1382 1 27.2006 6.05706 10.4911 3 8.89404e-05 -4.12208
1383 1 26.3764 6.05706 8.15977 3 0.000118019 -4.1221
1384 1 28.8491 6.05706 8.15977 3 4.24251e-05 -4.12206
1385 1 28.0249 6.05706 5.82841 3 6.36484e-05 -4.12207
1386 1 30.4977 6.05706 5.82841 3 1.32761e-05 -4.12205
1387 1 29.6734 6.05706 3.49704 3 2.55494e-05 -4.12205
1388 1 32.1462 6.05706 3.49704 3 3.3144e-06 -4.12204
1389 1 31.3219 6.05706 1.16568 3 5.81593e-06 -4.12204
1390 1 33.7947 6.05706 1.16568 3 1.3276e-05 -4.12205
1391 1 1.64852 4.03804 46.6273 3 5.945e-17 -4.12138
1392 1 4.12131 4.03804 46.6273 3 1.0169e-16 -4.12139
1393 1 3.29705 4.03804 44.2959 3 4e-16 -4.12139
1394 1 5.76983 4.03804 44.2959 3 0 -4.1214
1395 1 4.94557 4.03804 41.9645 3 1e-16 -4.1214
1396 1 7.41835 4.03804 41.9645 3 1e-16 -4.12142
1397 1 6.59409 4.03804 39.6332 3 0 -4.12141
1398 1 9.06687 4.03804 39.6332 3 4e-16 -4.12144
1399 1 8.24261 4.03804 37.3018 3 9.99999e-17 -4.12143
1400 1 10.7154 4.03804 37.3018 3 1e-16 -4.12147
1401 1 9.89114 4.03804 34.9704 3 4e-16 -4.12146
1402 1 12.3639 4.03804 34.9704 3 2.01948e-28 -4.12151
1403 1 11.5397 4.03804 32.6391 3 1e-16 -4.12149
1404 1 14.0124 4.03804 32.6391 3 1e-16 -4.12156
1405 1 13.1882 4.03804 30.3077 3 0 -4.12153
1406 1 15.661 4.03804 30.3077 3 4e-16 -4.12161
1407 1 14.8367 4.03804 27.9764 3 9.99999e-17 -4.12158
1408 1 17.3095 4.03804 27.9764 3 1e-16 -4.12168
1409 1 16.4852 4.03804 25.645 3 4e-16 -4.12165
1410 1 18.958 4.03804 25.645 3 3.5341e-28 -4.12177
1411 1 18.1337 4.03804 23.3136 3 1e-16 -4.12172
1412 1 20.6065 4.03804 23.3136 3 1e-16 -4.12186
1413 1 19.7823 4.03804 20.9823 3 1e-16 -4.12181
1414 1 22.2551 4.03804 20.9823 3 4e-16 -4.12197
1415 1 21.4308 4.03804 18.6509 3 4e-16 -4.12192
1416 1 23.9036 4.03804 18.6509 3 1e-16 -4.12208
1417 1 23.0793 4.03804 16.3195 3 1e-16 -4.12203
1418 1 25.5521 4.03804 16.3195 3 2.52435e-28 -4.12219
1419 1 24.7278 4.03804 13.9882 3 2.52435e-29 -4.12214
1420 1 27.2006 4.03804 13.9882 3 1e-16 -4.1223
1421 1 26.3764 4.03804 11.6568 3 1e-16 -4.12225
1422 1 28.8491 4.03804 11.6568 3 4e-16 -4.12238
1423 1 28.0249 4.03804 9.32545 3 3.99999e-16 -4.12234
1424 1 30.4977 4.03804 9.32545 3 9.99999e-17 -4.12243
1425 1 29.6734 4.03804 6.99409 3 1e-16 -4.12241
1426 1 32.1462 4.03804 6.99409 3 9.99999e-17 -4.12245
1427 1 31.3219 4.03804 4.66273 3 0 -4.12244
1428 1 33.7947 4.03804 4.66273 3 4.00001e-16 -4.12243
1429 1 32.9705 4.03804 2.33136 3 9.99999e-17 -4.12244
1430 1 35.4432 4.03804 2.33136 3 1e-16 -4.12238
1431 1 34.619 4.03804 0 3 4.0507e-16 -4.12241
1432 1 37.0918 4.03804 0 3 5.07001e-18 -4.1223
1433 1 3.29705 2.01902 47.7929 3 4.0507e-16 -4.10627
1434 1 5.76983 2.01902 47.7929 3 5.06996e-18 -4.10627
1435 1 4.94557 2.01902 45.4616 3 1e-16 -4.10627
1436 1 7.41835 2.01902 45.4616 3 1e-16 -4.10627
1437 1 6.59409 2.01902 43.1302 3 6.05845e-28 -4.10627
1438 1 9.06687 2.01902 43.1302 3 4e-16 -4.10627
1439 1 8.24261 2.01902 40.7989 3 9.99999e-17 -4.10627
1440 1 10.7154 2.01902 40.7989 3 1e-16 -4.10627
1441 1 9.89114 2.01902 38.4675 3 4e-16 -4.10627
1442 1 12.3639 2.01902 38.4675 3 0 -4.10627
1443 1 11.5397 2.01902 36.1361 3 1e-16 -4.10627
1444 1 14.0124 2.01902 36.1361 3 1e-16 -4.10627
1445 1 13.1882 2.01902 33.8048 3 0 -4.10627
1446 1 15.661 2.01902 33.8048 3 4e-16 -4.10627
1447 1 14.8367 2.01902 31.4734 3 9.99999e-17 -4.10627
1448 1 17.3095 2.01902 31.4734 3 1e-16 -4.10627
1449 1 16.4852 2.01902 29.142 3 4e-16 -4.10627
1450 1 18.958 2.01902 29.142 3 3.5341e-28 -4.10627
1451 1 18.1337 2.01902 26.8107 3 1e-16 -4.10627
1452 1 20.6065 2.01902 26.8107 3 1e-16 -4.10627
1453 1 19.7823 2.01902 24.4793 3 1e-16 -4.10627
1454 1 22.2551 2.01902 24.4793 3 4e-16 -4.10627
1455 1 21.4308 2.01902 22.1479 3 4e-16 -4.10627
1456 1 23.9036 2.01902 22.1479 3 1e-16 -4.10627
1457 1 23.0793 2.01902 19.8166 3 1e-16 -4.10627
1458 1 25.5521 2.01902 19.8166 3 1.51461e-28 -4.10627
1459 1 24.7278 2.01902 17.4852 3 1.00974e-28 -4.10627
1460 1 27.2006 2.01902 17.4852 3 1e-16 -4.10627
1461 1 26.3764 2.01902 15.1539 3 1e-16 -4.10627
1462 1 28.8491 2.01902 15.1539 3 4e-16 -4.10627
1463 1 28.0249 2.01902 12.8225 3 3.99999e-16 -4.10627
1464 1 30.4977 2.01902 12.8225 3 9.99999e-17 -4.10627
1465 1 29.6734 2.01902 10.4911 3 1e-16 -4.10627
1466 1 32.1462 2.01902 10.4911 3 9.99999e-17 -4.10627
1467 1 31.3219 2.01902 8.15977 3 1.26218e-29 -4.10627
1468 1 33.7947 2.01902 8.15977 3 4.00001e-16 -4.10627
1469 1 32.9705 2.01902 5.82841 3 9.99999e-17 -4.10627
1470 1 35.4432 2.01902 5.82841 3 1e-16 -4.10627
1471 1 34.619 2.01902 3.49704 3 4e-16 -4.10627
1472 1 37.0918 2.01902 3.49704 3 7.88861e-31 -4.10627
1473 1 36.2675 2.01902 1.16568 3 1.0169e-16 -4.10627
1474 1 38.7403 2.01902 1.16568 3 1.0169e-16 -4.10627
1475 1 6.59409 0 46.6273 5 12.2293 -3.54465
1476 1 9.06687 0 46.6273 5 12.2293 -3.54465
1477 1 8.24261 0 44.2959 5 12.2293 -3.54465
1478 1 10.7154 0 44.2959 5 12.2293 -3.54465
1479 1 9.89114 0 41.9645 5 12.2293 -3.54465
1480 1 12.3639 0 41.9645 5 12.2293 -3.54465
1481 1 11.5397 0 39.6332 5 12.2293 -3.54465
1482 1 14.0124 0 39.6332 5 12.2293 -3.54465
1483 1 13.1882 0 37.3018 5 12.2293 -3.54465
1484 1 15.661 0 37.3018 5 12.2293 -3.54465
1485 1 14.8367 0 34.9704 5 12.2293 -3.54465
1486 1 17.3095 0 34.9704 5 12.2293 -3.54465
1487 1 16.4852 0 32.6391 5 12.2293 -3.54465
1488 1 18.958 0 32.6391 5 12.2293 -3.54465
1489 1 18.1337 0 30.3077 5 12.2293 -3.54465
1490 1 20.6065 0 30.3077 5 12.2293 -3.54465
1491 1 19.7823 0 27.9764 5 12.2293 -3.54465
1492 1 22.2551 0 27.9764 5 12.2293 -3.54465
1493 1 21.4308 0 25.645 5 12.2293 -3.54465
1494 1 23.9036 0 25.645 5 12.2293 -3.54465
1495 1 23.0793 0 23.3136 5 12.2293 -3.54465
1496 1 25.5521 0 23.3136 5 12.2293 -3.54465
1497 1 24.7278 0 20.9823 5 12.2293 -3.54465
1498 1 27.2006 0 20.9823 5 12.2293 -3.54465
1499 1 26.3764 0 18.6509 5 12.2293 -3.54465
1500 1 28.8491 0 18.6509 5 12.2293 -3.54465
1501 1 28.0249 0 16.3195 5 12.2293 -3.54465
1502 1 30.4977 0 16.3195 5 12.2293 -3.54465
1503 1 29.6734 0 13.9882 5 12.2293 -3.54465
1504 1 32.1462 0 13.9882 5 12.2293 -3.54465
1505 1 31.3219 0 11.6568 5 12.2293 -3.54465
1506 1 33.7947 0 11.6568 5 12.2293 -3.54465
1507 1 32.9705 0 9.32545 5 12.2293 -3.54465
1508 1 35.4432 0 9.32545 5 12.2293 -3.54465
1509 1 34.619 0 6.99409 5 12.2293 -3.54465
1510 1 37.0918 0 6.99409 5 12.2293 -3.54465
1511 1 36.2675 0 4.66273 5 12.2293 -3.54465
1512 1 38.7403 0 4.66273 5 12.2293 -3.54465
1513 1 37.916 0 2.33136 5 12.2293 -3.54465
1514 1 40.3888 0 2.33136 5 12.2293 -3.54465
1515 1 39.5645 0 0 5 12.2293 -3.54465
1516 1 42.0373 0 0 5 12.2293 -3.54465
1517 1 0.836204 30.4855 12.8214 3 0.000105686 -4.11957
1518 1 64.2924 30.4855 10.4911 3 0.000105291 -4.11957
1519 1 2.50858 30.4855 10.4879 3 0.000108707 -4.11953
1520 1 1.6724 30.4855 8.15763 3 0.000106788 -4.11955
1521 1 4.18088 30.4855 8.15437 3 0.00011515 -4.11946
1522 1 3.34474 30.4855 5.82411 3 0.000111484 -4.1195
1523 1 5.85301 30.4855 5.82074 3 0.00012591 -4.11935
1524 1 5.01696 30.4855 3.49052 3 0.000119916 -4.11941
1525 1 7.52491 30.4854 3.48699 3 0.00014236 -4.11919
1526 1 6.68899 30.4855 1.15684 3 0.000133238 -4.11928
1527 1 9.19651 30.485 1.15309 3 0.000166986 -4.11899
1528 1 0.833257 28.4603 16.3179 3 8.7341e-05 -4.12034
1529 1 4.32921e-12 28.4603 13.9882 3 8.67783e-05 -4.12034
1530 1 2.49971 28.4603 13.9833 3 9.16039e-05 -4.12031
1531 1 1.6665 28.4603 11.6536 3 8.89242e-05 -4.12033
1532 1 4.16598 28.4603 11.6486 3 0.00010083 -4.12026
1533 1 3.33288 28.4603 9.31888 3 9.55617e-05 -4.12029
1534 1 5.83193 28.4601 9.31376 3 0.0001163 -4.12018
1535 1 4.999 28.4602 6.98413 3 0.000107615 -4.12022
1536 1 7.49742 28.4599 6.97879 3 0.000140466 -4.12007
1537 1 6.66474 28.46 4.64925 3 0.000127086 -4.12013
1538 1 9.16228 28.4593 4.64361 3 0.000177766 -4.11992
1539 1 8.32994 28.4596 2.31418 3 0.000157242 -4.12
1540 1 10.8263 28.4583 2.30813 3 0.000235341 -4.11973
1541 1 9.99441 28.4589 48.9375 3 0.000203071 -4.11983
1542 1 12.4893 28.4568 48.9309 3 0.000324049 -4.1195
1543 1 0.830696 26.4316 19.8145 3 6.2287e-05 -4.12081
1544 1 1.18412e-11 26.4316 17.4852 3 6.17375e-05 -4.12081
1545 1 2.49201 26.4316 17.4791 3 6.69749e-05 -4.12079
1546 1 1.66137 26.4316 15.1498 3 6.40226e-05 -4.1208
1547 1 4.15311 26.4314 15.1435 3 7.68698e-05 -4.12076
1548 1 3.3226 26.4315 12.8143 3 7.11953e-05 -4.12078
1549 1 5.81382 26.4311 12.8079 3 9.31828e-05 -4.12071
1550 1 4.98352 26.4313 10.4787 3 8.41623e-05 -4.12073
1551 1 7.47397 26.4306 10.4721 3 0.000117893 -4.12064
1552 1 6.64398 26.4309 8.143 3 0.000104313 -4.12068
1553 1 9.13339 26.4297 8.13617 3 0.000154012 -4.12056
1554 1 8.30379 26.4302 5.80714 3 0.000134239 -4.1206
1555 1 10.7919 26.4283 5.79996 3 0.000205992 -4.12045
1556 1 9.96276 26.4291 3.47106 3 0.000177741 -4.12051
1557 1 12.4492 26.4263 3.46344 3 0.000280837 -4.12034
1558 1 11.6207 26.4274 1.1347 3 0.000240231 -4.1204
1559 1 14.105 26.4232 1.12653 3 0.000387257 -4.12021
1560 1 0.828615 24.4 23.3114 3 3.97215e-05 -4.12106
1561 1 1.47226e-11 24.4 20.9823 3 3.92233e-05 -4.12106
1562 1 2.48577 24.3999 20.9754 3 4.36992e-05 -4.12105
1563 1 1.65721 24.3999 18.6463 3 4.12123e-05 -4.12106
1564 1 4.14271 24.3996 18.6395 3 5.19585e-05 -4.12103
1565 1 3.31427 24.3997 16.3104 3 4.72763e-05 -4.12104
1566 1 5.79927 24.3991 16.3035 3 6.50271e-05 -4.12101
1567 1 4.97105 24.3994 13.9744 3 5.7818e-05 -4.12102
1568 1 7.45531 24.3983 13.9674 3 8.38841e-05 -4.12097
1569 1 6.62737 24.3987 11.6384 3 7.36744e-05 -4.12099
1570 1 9.11066 24.3971 11.6312 3 0.000109773 -4.12094
1571 1 8.28308 24.3978 9.30222 3 9.58963e-05 -4.12096
1572 1 10.7652 24.3953 9.29484 3 0.000144175 -4.1209
1573 1 9.93802 24.3963 6.96597 3 0.000125794 -4.12092
1574 1 12.4186 24.3927 6.95841 3 0.000188817 -4.12087
1575 1 11.592 24.3941 4.6296 3 0.000165048 -4.12088
1576 1 14.0708 24.3891 4.62185 3 0.000245271 -4.12085
1577 1 13.2449 24.391 2.2931 3 0.000215508 -4.12085
1578 1 15.7216 24.3841 2.28522 3 0.000315312 -4.12084
1579 1 14.8964 24.3868 48.9151 3 0.000278721 -4.12084
1580 1 17.3707 24.3772 48.9072 3 0.000400063 -4.12086
1581 1 0.827008 22.3659 26.8084 3 2.33734e-05 -4.12118
1582 1 1.07181e-11 22.366 24.4793 3 2.30378e-05 -4.12118
1583 1 2.48096 22.3658 24.4723 3 2.6215e-05 -4.12118
1584 1 1.654 22.3659 22.1433 3 2.44366e-05 -4.12118
1585 1 4.13472 22.3654 22.1363 3 3.19742e-05 -4.12117
1586 1 3.30787 22.3656 19.8073 3 2.87085e-05 -4.12117
1587 1 5.78817 22.3647 19.8003 3 4.08571e-05 -4.12116
1588 1 4.9615 22.3651 17.4713 3 3.60295e-05 -4.12116
1589 1 7.44118 22.3637 17.4643 3 5.29814e-05 -4.12115
1590 1 6.61474 22.3643 15.1353 3 4.64865e-05 -4.12116
1591 1 9.09362 22.3623 15.1283 3 6.86729e-05 -4.12115
1592 1 8.26748 22.3631 12.7992 3 6.03627e-05 -4.12115
1593 1 10.7454 22.3602 12.7923 3 8.81848e-05 -4.12115
1594 1 9.91959 22.3613 10.4633 3 7.79472e-05 -4.12115
1595 1 12.3963 22.3572 10.4565 3 0.000111557 -4.12116
1596 1 11.5709 22.3588 8.12735 3 9.93764e-05 -4.12115
1597 1 14.0463 22.3532 8.12076 3 0.000139139 -4.12119
1598 1 13.2214 22.3554 5.79155 3 0.000124819 -4.12117
1599 1 15.6952 22.3478 5.78532 3 0.000170843 -4.12124
1600 1 14.8709 22.3507 3.45595 3 0.000154376 -4.12121
1601 1 17.343 22.3405 3.45034 3 0.000207491 -4.12133
1602 1 16.5192 22.3444 1.12071 3 0.000188621 -4.12127
1603 1 18.9894 22.3309 1.11611 3 0.000252583 -4.12146
1604 1 0.825818 20.3301 30.3055 3 1.31439e-05 -4.12123
1605 1 3.66357e-13 20.3301 27.9764 3 1.2915e-05 -4.12123
1606 1 2.4774 20.3298 27.9697 3 1.49752e-05 -4.12123
1607 1 1.65162 20.33 25.6405 3 1.38356e-05 -4.12123
1608 1 4.12884 20.3294 25.6339 3 1.86231e-05 -4.12123
1609 1 3.30315 20.3296 23.3048 3 1.6574e-05 -4.12123
1610 1 5.78003 20.3286 23.2982 3 2.40917e-05 -4.12123
1611 1 4.95447 20.329 20.969 3 2.11354e-05 -4.12123
1612 1 7.43088 20.3275 20.9626 3 3.13502e-05 -4.12124
1613 1 6.60551 20.3281 18.6333 3 2.74791e-05 -4.12124
1614 1 9.0813 20.3259 18.6271 3 4.03573e-05 -4.12125
1615 1 8.25615 20.3268 16.2977 3 3.5656e-05 -4.12125
1616 1 10.7312 20.3236 16.2917 3 5.11013e-05 -4.12128
1617 1 9.90632 20.3248 13.9623 3 4.55093e-05 -4.12126
1618 1 12.3805 20.3205 13.9567 3 6.35758e-05 -4.12131
1619 1 11.5559 20.3222 11.6271 3 5.71186e-05 -4.12129
1620 1 14.0291 20.3164 11.622 3 7.78494e-05 -4.12137
1621 1 13.2049 20.3186 9.29221 3 7.04686e-05 -4.12134
1622 1 15.677 20.3109 9.28778 3 9.4415e-05 -4.12145
1623 1 14.8532 20.3138 6.95775 3 8.58048e-05 -4.1214
1624 1 17.3242 20.3036 6.95433 3 0.000114314 -4.12156
1625 1 16.5007 20.3075 4.6239 3 0.000103818 -4.1215
1626 1 18.9705 20.2942 4.6219 3 0.000139213 -4.12171
1627 1 18.1474 20.2992 2.29092 3 0.000126253 -4.12162
1628 1 20.6161 20.2819 2.29089 3 0.000168778 -4.12192
1629 1 19.7934 20.2884 48.9178 3 0.000153538 -4.12181
1630 1 22.2611 20.2663 48.9203 3 0.000189371 -4.12217
1631 1 0.82497 18.2928 33.8027 3 7.23823e-06 -4.12124
1632 1 64.2924 18.2928 31.4734 3 7.09732e-06 -4.12124
1633 1 2.47487 18.2925 31.4674 3 8.38125e-06 -4.12124
1634 1 1.64993 18.2927 29.138 3 7.66159e-06 -4.12124
1635 1 4.12466 18.2921 29.132 3 1.06657e-05 -4.12125
1636 1 3.29979 18.2923 26.8027 3 9.39266e-06 -4.12125
1637 1 5.77427 18.2913 26.7968 3 1.40407e-05 -4.12126
1638 1 4.94949 18.2917 24.4674 3 1.22128e-05 -4.12126
1639 1 7.42363 18.2901 24.4617 3 1.84107e-05 -4.12128
1640 1 6.59898 18.2907 22.1322 3 1.61087e-05 -4.12127
1641 1 9.07267 18.2884 22.1269 3 2.37711e-05 -4.12131
1642 1 8.24819 18.2893 19.7972 3 2.09722e-05 -4.12129
1643 1 10.7213 18.2862 19.7923 3 3.00528e-05 -4.12135
1644 1 9.89705 18.2874 17.4625 3 2.67886e-05 -4.12133
1645 1 12.3696 18.2831 17.4581 3 3.74029e-05 -4.1214
1646 1 11.5455 18.2848 15.1281 3 3.35796e-05 -4.12137
1647 1 14.0174 18.2791 15.1243 3 4.59492e-05 -4.12147
1648 1 13.1936 18.2813 12.7941 3 4.14974e-05 -4.12143
1649 1 15.6648 18.2738 12.7913 3 5.62216e-05 -4.12156
1650 1 14.8411 18.2766 10.4607 3 5.08623e-05 -4.12151
1651 1 17.3117 18.2669 10.459 3 6.88321e-05 -4.12169
1652 1 16.4883 18.2706 8.12798 3 6.21674e-05 -4.12162
1653 1 18.9582 18.2581 8.12788 3 8.36506e-05 -4.12184
1654 1 18.135 18.2628 5.79626 3 7.59839e-05 -4.12176
1655 1 20.6043 18.2469 5.79803 3 9.79354e-05 -4.12203
1656 1 19.7813 18.2528 3.46574 3 9.14508e-05 -4.12193
1657 1 22.2504 18.233 3.46965 3 0.000106757 -4.1222
1658 1 21.4274 18.2403 1.13661 3 0.000103086 -4.12212
1659 1 23.8967 18.2165 1.14264 3 0.00010563 -4.12236
1660 1 0.824394 16.2545 37.3001 3 3.9781e-06 -4.12124
1661 1 64.2924 16.2545 34.9704 3 3.88778e-06 -4.12124
1662 1 2.47316 16.2543 34.9653 3 4.73587e-06 -4.12125
1663 1 1.64878 16.2544 32.6356 3 4.25859e-06 -4.12124
1664 1 4.12183 16.2538 32.6305 3 6.22844e-06 -4.12126
1665 1 3.29751 16.254 30.3008 3 5.3944e-06 -4.12125
1666 1 5.77038 16.253 30.2959 3 8.44024e-06 -4.12128
1667 1 4.94613 16.2534 27.9661 3 7.24539e-06 -4.12126
1668 1 7.41875 16.2519 27.9614 3 1.12736e-05 -4.1213
1669 1 6.59459 16.2525 25.6316 3 9.78719e-06 -4.12129
1670 1 9.06689 16.2503 25.6273 3 1.47552e-05 -4.12134
1671 1 8.24285 16.2512 23.2973 3 1.29271e-05 -4.12132
1672 1 10.7148 16.2482 23.2934 3 1.89217e-05 -4.12139
1673 1 9.89088 16.2493 20.9632 3 1.67508e-05 -4.12136
1674 1 12.3624 16.2454 20.96 3 2.38271e-05 -4.12145
1675 1 11.5386 16.2469 18.6296 3 2.12736e-05 -4.12142
1676 1 14.0098 16.2417 18.6271 3 2.96514e-05 -4.12153
1677 1 13.1861 16.2436 16.2964 3 2.66114e-05 -4.12149
1678 1 15.6568 16.2369 16.2949 3 3.6764e-05 -4.12164
1679 1 14.8333 16.2394 13.9638 3 3.3033e-05 -4.12158
1680 1 17.3037 16.2307 13.9635 3 4.51344e-05 -4.12177
1681 1 16.4803 16.234 11.632 3 4.08175e-05 -4.1217
1682 1 18.9504 16.2229 11.6331 3 5.43021e-05 -4.12192
1683 1 18.1271 16.227 9.30112 3 4.97277e-05 -4.12184
1684 1 20.5972 16.2131 9.30378 3 6.19556e-05 -4.12208
1685 1 19.7738 16.2182 6.97126 3 5.84032e-05 -4.122
1686 1 22.2441 16.2014 6.9755 3 6.61208e-05 -4.12222
1687 1 21.4206 16.2075 4.64248 3 6.4717e-05 -4.12215
1688 1 23.8915 16.1879 4.64806 3 6.79042e-05 -4.12231
1689 1 23.0677 16.1948 2.31465 3 6.66786e-05 -4.12228
1690 1 25.5399 16.1732 2.321 3 7.42338e-05 -4.12231
1691 1 24.7156 16.1806 48.9461 3 6.95989e-05 -4.12233
1692 1 27.1895 16.1587 48.9523 3 9.78802e-05 -4.12221
1693 1 0.824037 14.2155 40.7974 3 2.23758e-06 -4.12124
1694 1 64.2924 14.2155 38.4675 3 2.16843e-06 -4.12123
1695 1 2.47209 14.2153 38.4633 3 2.76884e-06 -4.12124
1696 1 1.64807 14.2154 36.1333 3 2.44038e-06 -4.12124
1697 1 4.12009 14.2148 36.1292 3 3.83512e-06 -4.12126
1698 1 3.2961 14.2151 33.7992 3 3.23214e-06 -4.12125
1699 1 5.76799 14.2141 33.7952 3 5.39305e-06 -4.12128
1700 1 4.94405 14.2145 31.4651 3 4.55723e-06 -4.12127
1701 1 7.41576 14.2131 31.4614 3 7.47029e-06 -4.12131
1702 1 6.59189 14.2137 29.1312 3 6.36415e-06 -4.12129
1703 1 9.06338 14.2117 29.1279 3 1.00079e-05 -4.12135
1704 1 8.23959 14.2125 26.7975 3 8.67982e-06 -4.12133
1705 1 10.7108 14.2099 26.7947 3 1.30888e-05 -4.12141
1706 1 9.88713 14.2109 24.4642 3 1.14808e-05 -4.12138
1707 1 12.3581 14.2074 24.4619 3 1.67473e-05 -4.12149
1708 1 11.5345 14.2087 22.1312 3 1.48334e-05 -4.12145
1709 1 14.0052 14.2042 22.1297 3 2.11522e-05 -4.12158
1710 1 13.1817 14.2059 19.7987 3 1.88353e-05 -4.12153
1711 1 15.6522 14.2001 19.7981 3 2.63636e-05 -4.12169
1712 1 14.8288 14.2023 17.4667 3 2.36476e-05 -4.12163
1713 1 17.2992 14.1949 17.4672 3 3.23328e-05 -4.12182
1714 1 16.4757 14.1977 15.1355 3 2.92764e-05 -4.12175
1715 1 18.9462 14.1884 15.1371 3 3.83868e-05 -4.12196
1716 1 18.1227 14.1918 12.805 3 3.54186e-05 -4.12189
1717 1 20.5934 14.1805 12.8079 3 4.35488e-05 -4.1221
1718 1 19.7697 14.1846 10.4753 3 4.11553e-05 -4.12204
1719 1 22.241 14.1712 10.4793 3 4.67426e-05 -4.12223
1720 1 21.4171 14.176 8.14646 3 4.5344e-05 -4.12217
1721 1 23.8892 14.1607 8.15112 3 4.93307e-05 -4.12229
1722 1 23.065 14.166 5.81813 3 4.80863e-05 -4.12227
1723 1 25.5384 14.1496 5.82295 3 5.45391e-05 -4.12229
1724 1 24.7137 14.1551 3.49002 3 5.12515e-05 -4.1223
1725 1 27.1888 14.1389 3.49426 3 6.4013e-05 -4.12223
1726 1 26.3634 14.1441 1.16165 3 5.86761e-05 -4.12227
1727 1 28.8403 14.13 1.16467 3 7.68747e-05 -4.12214
1728 1 0.823862 12.176 44.2948 3 1.39442e-06 -4.12123
1729 1 64.2924 12.1761 41.9645 3 1.34542e-06 -4.12123
1730 1 2.47157 12.1759 41.9613 3 1.80395e-06 -4.12124
1731 1 1.64772 12.176 39.631 3 1.54489e-06 -4.12124
1732 1 4.11924 12.1755 39.6279 3 2.63711e-06 -4.12126
1733 1 3.29541 12.1757 37.2975 3 2.16766e-06 -4.12125
1734 1 5.76683 12.1749 37.2946 3 3.88782e-06 -4.12128
1735 1 4.94305 12.1752 34.9642 3 3.21513e-06 -4.12127
1736 1 7.41434 12.1741 34.9614 3 5.54987e-06 -4.12132
1737 1 6.5906 12.1745 32.6309 3 4.66645e-06 -4.1213
1738 1 9.06174 12.173 32.6285 3 7.64719e-06 -4.12137
1739 1 8.23805 12.1736 30.2979 3 6.53893e-06 -4.12134
1740 1 10.709 12.1715 30.2959 3 1.0204e-05 -4.12143
1741 1 9.8854 12.1723 27.9651 3 8.86561e-06 -4.1214
1742 1 12.3562 12.1695 27.9636 3 1.32864e-05 -4.12151
1743 1 11.5326 12.1705 25.6327 3 1.16842e-05 -4.12147
1744 1 14.0033 12.167 25.6318 3 1.696e-05 -4.1216
1745 1 13.1798 12.1683 23.3006 3 1.50383e-05 -4.12155
1746 1 15.6504 12.1637 23.3006 3 2.12196e-05 -4.12172
1747 1 14.8269 12.1654 20.9691 3 1.90293e-05 -4.12166
1748 1 17.2975 12.1597 20.9699 3 2.59688e-05 -4.12185
1749 1 16.4739 12.1618 18.6381 3 2.35533e-05 -4.12178
1750 1 18.9448 12.1547 18.6398 3 3.06999e-05 -4.12199
1751 1 18.1211 12.1573 16.3077 3 2.83747e-05 -4.12192
1752 1 20.5923 12.1488 16.3103 3 3.4873e-05 -4.12212
1753 1 19.7685 12.1519 13.978 3 3.2903e-05 -4.12206
1754 1 22.2404 12.1419 13.9812 3 3.79539e-05 -4.12223
1755 1 21.4163 12.1454 11.6487 3 3.65501e-05 -4.12218
1756 1 23.8891 12.1343 11.6522 3 3.99465e-05 -4.12229
1757 1 23.0646 12.1381 9.31968 3 3.90209e-05 -4.12227
1758 1 25.5387 12.1265 9.32308 3 4.13515e-05 -4.1223
1759 1 24.7138 12.1304 6.99066 3 4.0753e-05 -4.1223
1760 1 27.1893 12.1192 6.99337 3 4.21966e-05 -4.12227
1761 1 26.3639 12.1227 4.66127 3 4.18121e-05 -4.12229
1762 1 28.8409 12.1131 4.6629 3 4.21562e-05 -4.12221
1763 1 28.015 12.1159 2.33119 3 4.23375e-05 -4.12224
1764 1 30.4933 12.1091 2.33168 3 4.129e-05 -4.12217
1765 1 29.667 12.1108 0.000330454 3 4.17801e-05 -4.12219
1766 1 32.1462 12.1077 7.65499e-10 3 4.0718e-05 -4.12215
1767 1 0.823848 10.1364 47.7922 3 1.17498e-06 -4.12124
1768 1 64.2924 10.1364 45.4616 3 1.13087e-06 -4.12124
1769 1 2.47153 10.1362 45.4594 3 1.53109e-06 -4.12125
1770 1 1.64769 10.1363 43.1288 3 1.30774e-06 -4.12124
1771 1 4.11919 10.136 43.1267 3 2.24957e-06 -4.12126
1772 1 3.29537 10.1361 40.796 3 1.8446e-06 -4.12125
1773 1 5.76679 10.1355 40.794 3 3.34687e-06 -4.12129
1774 1 4.943 10.1358 38.4633 3 2.74921e-06 -4.12127
1775 1 7.41433 10.1349 38.4615 3 4.85968e-06 -4.12132
1776 1 6.59057 10.1353 36.1307 3 4.052e-06 -4.12131
1777 1 9.06179 10.1341 36.1291 3 6.83214e-06 -4.12137
1778 1 8.23807 10.1346 33.7982 3 5.78122e-06 -4.12135
1779 1 10.7092 10.1331 33.7969 3 9.3077e-06 -4.12144
1780 1 9.8855 10.1336 31.4659 3 8.00335e-06 -4.1214
1781 1 12.3565 10.1317 31.4651 3 1.23825e-05 -4.12152
1782 1 11.5329 10.1324 29.1339 3 1.07709e-05 -4.12148
1783 1 14.0038 10.1299 29.1335 3 1.60209e-05 -4.12162
1784 1 13.1802 10.1309 26.8022 3 1.41216e-05 -4.12157
1785 1 15.6511 10.1277 26.8024 3 2.02669e-05 -4.12173
1786 1 14.8274 10.1289 24.4709 3 1.80735e-05 -4.12167
1787 1 17.2985 10.125 24.4717 3 2.48652e-05 -4.12186
1788 1 16.4748 10.1264 22.1399 3 2.25344e-05 -4.1218
1789 1 18.946 10.1216 22.1413 3 2.94988e-05 -4.122
1790 1 18.1222 10.1234 19.8094 3 2.72157e-05 -4.12193
1791 1 20.5938 10.1177 19.8113 3 3.34479e-05 -4.12212
1792 1 19.7699 10.1197 17.4792 3 3.15915e-05 -4.12206
1793 1 22.2421 10.1133 17.4816 3 3.59659e-05 -4.12223
1794 1 21.4179 10.1155 15.1494 3 3.49545e-05 -4.12218
1795 1 23.891 10.1084 15.1518 3 3.64192e-05 -4.12229
1796 1 23.0665 10.1109 12.8196 3 3.64631e-05 -4.12226
1797 1 25.5407 10.1036 12.8218 3 3.42984e-05 -4.12232
1798 1 24.7157 10.106 10.4898 3 3.56476e-05 -4.12231
1799 1 27.1911 10.0991 10.4914 3 2.99467e-05 -4.12231
1800 1 26.3658 10.1013 8.15961 3 3.23597e-05 -4.12232
1801 1 28.8423 10.0955 8.16038 3 2.43617e-05 -4.12228
1802 1 28.0166 10.0972 5.8289 3 2.71846e-05 -4.1223
1803 1 30.4941 10.0931 5.82887 3 1.95249e-05 -4.12226
1804 1 29.6681 10.0941 3.49763 3 2.16891e-05 -4.12227
1805 1 32.1462 10.0923 3.49704 3 1.75892e-05 -4.12225
1806 1 31.3201 10.0925 1.16593 3 1.80722e-05 -4.12225
1807 1 33.7983 10.0931 1.16522 3 1.95249e-05 -4.12226
1808 1 1.64797 8.09661 46.6265 3 1.62451e-06 -4.12227
1809 1 4.11989 8.09642 46.6255 3 2.50178e-06 -4.12228
1810 1 3.29592 8.0965 44.2944 3 2.11593e-06 -4.12228
1811 1 5.7678 8.09619 44.2934 3 3.58432e-06 -4.12229
1812 1 4.94385 8.09632 41.9624 3 2.9817e-06 -4.12229
1813 1 7.41567 8.09587 41.9615 3 5.17389e-06 -4.12231
1814 1 6.59174 8.09604 39.6304 3 4.3128e-06 -4.1223
1815 1 9.06349 8.09543 39.6296 3 7.39864e-06 -4.12233
1816 1 8.23959 8.09567 37.2985 3 6.20258e-06 -4.12232
1817 1 10.7113 8.09487 37.2979 3 1.03948e-05 -4.12236
1818 1 9.88739 8.09517 34.9667 3 8.78575e-06 -4.12235
1819 1 12.359 8.09415 34.9663 3 1.42821e-05 -4.1224
1820 1 11.5351 8.09453 32.635 3 1.22123e-05 -4.12238
1821 1 14.0067 8.09323 32.6349 3 1.91851e-05 -4.12245
1822 1 13.1829 8.09372 30.3035 3 1.66182e-05 -4.12242
1823 1 15.6544 8.0921 30.3037 3 2.50478e-05 -4.1225
1824 1 14.8306 8.0927 27.9722 3 2.20015e-05 -4.12247
1825 1 17.3022 8.09072 27.9727 3 3.15331e-05 -4.12255
1826 1 16.4783 8.09145 25.6411 3 2.82377e-05 -4.12253
1827 1 18.9501 8.08907 25.6419 3 3.79166e-05 -4.12261
1828 1 18.1262 8.08993 23.3102 3 3.48085e-05 -4.12258
1829 1 20.5982 8.08717 23.3113 3 4.30693e-05 -4.12264
1830 1 19.7741 8.08815 20.9795 3 4.07387e-05 -4.12263
1831 1 22.2466 8.08504 20.9807 3 4.55675e-05 -4.12266
1832 1 21.4224 8.08613 18.6489 3 4.4711e-05 -4.12265
1833 1 23.8954 8.08279 18.6502 3 4.43184e-05 -4.12265
1834 1 23.071 8.08392 16.3184 3 4.54803e-05 -4.12266
1835 1 25.5447 8.08055 16.3195 3 3.91003e-05 -4.12261
1836 1 24.72 8.08166 13.9878 3 4.21417e-05 -4.12263
1837 1 27.1945 8.07852 13.9885 3 3.09872e-05 -4.12255
1838 1 26.3695 8.0795 11.657 3 3.52893e-05 -4.12258
1839 1 28.8448 8.07688 11.6573 3 2.23158e-05 -4.12249
1840 1 28.0196 8.07764 9.32589 3 2.65645e-05 -4.12252
1841 1 30.4954 8.07582 9.32576 3 1.57327e-05 -4.12245
1842 1 29.67 8.07627 6.9945 3 1.86093e-05 -4.12247
1843 1 32.1462 8.07545 6.99409 3 1.32918e-05 -4.12244
1844 1 31.3208 8.07554 4.66289 3 1.39194e-05 -4.12244
1845 1 33.797 8.07582 4.66242 3 1.57327e-05 -4.12245
1846 1 32.9716 8.07554 2.3312 3 1.39194e-05 -4.12244
1847 1 35.4476 8.07688 2.3309 3 2.23158e-05 -4.12249
1848 1 34.6224 8.07627 48.9582 3 1.86093e-05 -4.12247
1849 1 37.0979 8.07852 48.9583 3 3.09872e-05 -4.12255
1850 1 3.29705 6.05706 47.7929 3 0.000840622 -4.12209
1851 1 5.76983 6.05706 47.7929 3 0.00082881 -4.1221
1852 1 4.94557 6.05706 45.4616 3 0.00083369 -4.1221
1853 1 7.41835 6.05706 45.4616 3 0.000815526 -4.12212
1854 1 6.59409 6.05706 43.1302 3 0.0008228 -4.12211
1855 1 9.06687 6.05706 43.1302 3 0.000796409 -4.12214
1856 1 8.24261 6.05706 40.7989 3 0.000806795 -4.12213
1857 1 10.7154 6.05706 40.7989 3 0.000769854 -4.12216
1858 1 9.89114 6.05706 38.4675 3 0.000784159 -4.12215
1859 1 12.3639 6.05706 38.4675 3 0.000734204 -4.12218
1860 1 11.5397 6.05706 36.1361 3 0.000753276 -4.12217
1861 1 14.0124 6.05706 36.1361 3 0.000687853 -4.1222
1862 1 13.1882 6.05706 33.8048 3 0.000712434 -4.12219
1863 1 15.661 6.05706 33.8048 3 0.000629865 -4.12221
1864 1 14.8367 6.05706 31.4734 3 0.000660325 -4.1222
1865 1 17.3095 6.05706 31.4734 3 0.000560309 -4.12222
1866 1 16.4852 6.05706 29.142 3 0.00059647 -4.12222
1867 1 18.958 6.05706 29.142 3 0.000480835 -4.12222
1868 1 18.1337 6.05706 26.8107 3 0.000521624 -4.12222
1869 1 20.6065 6.05706 26.8107 3 0.000394982 -4.12221
1870 1 19.7823 6.05706 24.4793 3 0.000438416 -4.12221
1871 1 22.2551 6.05706 24.4793 3 0.000307777 -4.12218
1872 1 21.4308 6.05706 22.1479 3 0.000351215 -4.12219
1873 1 23.9036 6.05706 22.1479 3 0.000224709 -4.12215
1874 1 23.0793 6.05706 19.8166 3 0.000265393 -4.12217
1875 1 25.5521 6.05706 19.8166 3 0.000150566 -4.12211
1876 1 24.7278 6.05706 17.4852 3 0.000186264 -4.12213
1877 1 27.2006 6.05706 17.4852 3 8.89404e-05 -4.12208
1878 1 26.3764 6.05706 15.1539 3 0.000118019 -4.1221
1879 1 28.8491 6.05706 15.1539 3 4.24251e-05 -4.12206
1880 1 28.0249 6.05706 12.8225 3 6.36484e-05 -4.12207
1881 1 30.4977 6.05706 12.8225 3 1.32761e-05 -4.12205
1882 1 29.6734 6.05706 10.4911 3 2.55494e-05 -4.12205
1883 1 32.1462 6.05706 10.4911 3 3.3144e-06 -4.12204
1884 1 31.3219 6.05706 8.15977 3 5.81593e-06 -4.12204
1885 1 33.7947 6.05706 8.15977 3 1.3276e-05 -4.12205
1886 1 32.9705 6.05706 5.82841 3 5.81592e-06 -4.12204
1887 1 35.4432 6.05706 5.82841 3 4.24253e-05 -4.12206
1888 1 34.619 6.05706 3.49704 3 2.55496e-05 -4.12205
1889 1 37.0918 6.05706 3.49704 3 8.89403e-05 -4.12208
1890 1 36.2675 6.05706 1.16568 3 6.36482e-05 -4.12207
1891 1 38.7403 6.05706 1.16568 3 0.000150565 -4.12211
1892 1 6.59409 4.03804 46.6273 3 1.69002e-18 -4.12141
1893 1 9.06687 4.03804 46.6273 3 4.0169e-16 -4.12144
1894 1 8.24261 4.03804 44.2959 3 9.99999e-17 -4.12143
1895 1 10.7154 4.03804 44.2959 3 1e-16 -4.12147
1896 1 9.89114 4.03804 41.9645 3 4e-16 -4.12146
1897 1 12.3639 4.03804 41.9645 3 0 -4.12151
1898 1 11.5397 4.03804 39.6332 3 1e-16 -4.12149
1899 1 14.0124 4.03804 39.6332 3 1e-16 -4.12156
1900 1 13.1882 4.03804 37.3018 3 0 -4.12153
1901 1 15.661 4.03804 37.3018 3 4e-16 -4.12161
1902 1 14.8367 4.03804 34.9704 3 9.99999e-17 -4.12158
1903 1 17.3095 4.03804 34.9704 3 1e-16 -4.12168
1904 1 16.4852 4.03804 32.6391 3 4e-16 -4.12165
1905 1 18.958 4.03804 32.6391 3 4.03897e-28 -4.12177
1906 1 18.1337 4.03804 30.3077 3 1e-16 -4.12172
1907 1 20.6065 4.03804 30.3077 3 1e-16 -4.12186
1908 1 19.7823 4.03804 27.9764 3 1e-16 -4.12181
1909 1 22.2551 4.03804 27.9764 3 4e-16 -4.12197
1910 1 21.4308 4.03804 25.645 3 4e-16 -4.12192
1911 1 23.9036 4.03804 25.645 3 1e-16 -4.12208
1912 1 23.0793 4.03804 23.3136 3 1e-16 -4.12203
1913 1 25.5521 4.03804 23.3136 3 1.51461e-28 -4.12219
1914 1 24.7278 4.03804 20.9823 3 0 -4.12214
1915 1 27.2006 4.03804 20.9823 3 1e-16 -4.1223
1916 1 26.3764 4.03804 18.6509 3 1e-16 -4.12225
1917 1 28.8491 4.03804 18.6509 3 4e-16 -4.12238
1918 1 28.0249 4.03804 16.3195 3 3.99999e-16 -4.12234
1919 1 30.4977 4.03804 16.3195 3 9.99999e-17 -4.12243
1920 1 29.6734 4.03804 13.9882 3 1e-16 -4.12241
1921 1 32.1462 4.03804 13.9882 3 9.99999e-17 -4.12245
1922 1 31.3219 4.03804 11.6568 3 0 -4.12244
1923 1 33.7947 4.03804 11.6568 3 4.00001e-16 -4.12243
1924 1 32.9705 4.03804 9.32545 3 9.99999e-17 -4.12244
1925 1 35.4432 4.03804 9.32545 3 1e-16 -4.12238
1926 1 34.619 4.03804 6.99409 3 4e-16 -4.12241
1927 1 37.0918 4.03804 6.99409 3 0 -4.1223
1928 1 36.2675 4.03804 4.66273 3 1e-16 -4.12234
1929 1 38.7403 4.03804 4.66273 3 1e-16 -4.12219
1930 1 37.916 4.03804 2.33136 3 8.07794e-28 -4.12225
1931 1 40.3888 4.03804 2.33136 3 3.99999e-16 -4.12208
1932 1 39.5645 4.03804 0 3 1.0507e-16 -4.12214
1933 1 42.0373 4.03804 0 3 1.0507e-16 -4.12197
1934 1 8.24261 2.01902 47.7929 3 1.0507e-16 -4.10627
1935 1 10.7154 2.01902 47.7929 3 1.0507e-16 -4.10627
1936 1 9.89114 2.01902 45.4616 3 4e-16 -4.10627
1937 1 12.3639 2.01902 45.4616 3 0 -4.10627
1938 1 11.5397 2.01902 43.1302 3 1e-16 -4.10627
1939 1 14.0124 2.01902 43.1302 3 1e-16 -4.10627
1940 1 13.1882 2.01902 40.7989 3 6.05845e-28 -4.10627
1941 1 15.661 2.01902 40.7989 3 4e-16 -4.10627
1942 1 14.8367 2.01902 38.4675 3 9.99999e-17 -4.10627
1943 1 17.3095 2.01902 38.4675 3 1e-16 -4.10627
1944 1 16.4852 2.01902 36.1361 3 4e-16 -4.10627
1945 1 18.958 2.01902 36.1361 3 8.07794e-28 -4.10627
1946 1 18.1337 2.01902 33.8048 3 1e-16 -4.10627
1947 1 20.6065 2.01902 33.8048 3 1e-16 -4.10627
1948 1 19.7823 2.01902 31.4734 3 1e-16 -4.10627
1949 1 22.2551 2.01902 31.4734 3 4e-16 -4.10627
1950 1 21.4308 2.01902 29.142 3 4e-16 -4.10627
1951 1 23.9036 2.01902 29.142 3 1e-16 -4.10627
1952 1 23.0793 2.01902 26.8107 3 1e-16 -4.10627
1953 1 25.5521 2.01902 26.8107 3 1.51461e-28 -4.10627
1954 1 24.7278 2.01902 24.4793 3 1.00974e-28 -4.10627
1955 1 27.2006 2.01902 24.4793 3 1e-16 -4.10627
1956 1 26.3764 2.01902 22.1479 3 1e-16 -4.10627
1957 1 28.8491 2.01902 22.1479 3 4e-16 -4.10627
1958 1 28.0249 2.01902 19.8166 3 3.99999e-16 -4.10627
1959 1 30.4977 2.01902 19.8166 3 9.99999e-17 -4.10627
1960 1 29.6734 2.01902 17.4852 3 1e-16 -4.10627
1961 1 32.1462 2.01902 17.4852 3 9.99999e-17 -4.10627
1962 1 31.3219 2.01902 15.1539 3 0 -4.10627
1963 1 33.7947 2.01902 15.1539 3 4.00001e-16 -4.10627
1964 1 32.9705 2.01902 12.8225 3 9.99999e-17 -4.10627
1965 1 35.4432 2.01902 12.8225 3 1e-16 -4.10627
1966 1 34.619 2.01902 10.4911 3 4e-16 -4.10627
1967 1 37.0918 2.01902 10.4911 3 0 -4.10627
1968 1 36.2675 2.01902 8.15977 3 1e-16 -4.10627
1969 1 38.7403 2.01902 8.15977 3 1e-16 -4.10627
1970 1 37.916 2.01902 5.82841 3 8.10949e-28 -4.10627
1971 1 40.3888 2.01902 5.82841 3 3.99999e-16 -4.10627
1972 1 39.5645 2.01902 3.49704 3 1e-16 -4.10627
1973 1 42.0373 2.01902 3.49704 3 1e-16 -4.10627
1974 1 41.2131 2.01902 1.16568 3 4.01691e-16 -4.10627
1975 1 43.6859 2.01902 1.16568 3 1.69e-18 -4.10627
1976 1 11.5397 0 46.6273 5 12.2293 -3.54465
1977 1 14.0124 0 46.6273 5 12.2293 -3.54465
1978 1 13.1882 0 44.2959 5 12.2293 -3.54465
1979 1 15.661 0 44.2959 5 12.2293 -3.54465
1980 1 14.8367 0 41.9645 5 12.2293 -3.54465
1981 1 17.3095 0 41.9645 5 12.2293 -3.54465
1982 1 16.4852 0 39.6332 5 12.2293 -3.54465
1983 1 18.958 0 39.6332 5 12.2293 -3.54465
1984 1 18.1337 0 37.3018 5 12.2293 -3.54465
1985 1 20.6065 0 37.3018 5 12.2293 -3.54465
1986 1 19.7823 0 34.9704 5 12.2293 -3.54465
1987 1 22.2551 0 34.9704 5 12.2293 -3.54465
1988 1 21.4308 0 32.6391 5 12.2293 -3.54465
1989 1 23.9036 0 32.6391 5 12.2293 -3.54465
1990 1 23.0793 0 30.3077 5 12.2293 -3.54465
1991 1 25.5521 0 30.3077 5 12.2293 -3.54465
1992 1 24.7278 0 27.9764 5 12.2293 -3.54465
1993 1 27.2006 0 27.9764 5 12.2293 -3.54465
1994 1 26.3764 0 25.645 5 12.2293 -3.54465
1995 1 28.8491 0 25.645 5 12.2293 -3.54465
1996 1 28.0249 0 23.3136 5 12.2293 -3.54465
1997 1 30.4977 0 23.3136 5 12.2293 -3.54465
1998 1 29.6734 0 20.9823 5 12.2293 -3.54465
1999 1 32.1462 0 20.9823 5 12.2293 -3.54465
2000 1 31.3219 0 18.6509 5 12.2293 -3.54465
2001 1 33.7947 0 18.6509 5 12.2293 -3.54465
2002 1 32.9705 0 16.3195 5 12.2293 -3.54465
2003 1 35.4432 0 16.3195 5 12.2293 -3.54465
2004 1 34.619 0 13.9882 5 12.2293 -3.54465
2005 1 37.0918 0 13.9882 5 12.2293 -3.54465
2006 1 36.2675 0 11.6568 5 12.2293 -3.54465
2007 1 38.7403 0 11.6568 5 12.2293 -3.54465
2008 1 37.916 0 9.32545 5 12.2293 -3.54465
2009 1 40.3888 0 9.32545 5 12.2293 -3.54465
2010 1 39.5645 0 6.99409 5 12.2293 -3.54465
2011 1 42.0373 0 6.99409 5 12.2293 -3.54465
2012 1 41.2131 0 4.66273 5 12.2293 -3.54465
2013 1 43.6859 0 4.66273 5 12.2293 -3.54465
2014 1 42.8616 0 2.33136 5 12.2293 -3.54465
2015 1 45.3344 0 2.33136 5 12.2293 -3.54465
2016 1 44.5101 0 0 5 12.2293 -3.54465
2017 1 46.9829 0 0 5 12.2293 -3.54465
2018 1 0.836204 30.4855 19.8155 3 0.000105686 -4.11957
2019 1 6.07306e-12 30.4855 17.4852 3 0.000105291 -4.11957
2020 1 2.50858 30.4855 17.482 3 0.000108707 -4.11953
2021 1 1.6724 30.4855 15.1517 3 0.000106788 -4.11955
2022 1 4.18088 30.4855 15.1485 3 0.00011515 -4.11946
2023 1 3.34474 30.4855 12.8182 3 0.000111484 -4.1195
2024 1 5.85301 30.4855 12.8148 3 0.00012591 -4.11935
2025 1 5.01696 30.4855 10.4846 3 0.000119916 -4.11941
2026 1 7.52491 30.4854 10.4811 3 0.00014236 -4.11919
2027 1 6.68899 30.4855 8.15093 3 0.000133238 -4.11928
2028 1 9.19651 30.485 8.14718 3 0.000166986 -4.11899
2029 1 8.36075 30.4852 5.81711 3 0.000153492 -4.1191
2030 1 10.8677 30.4843 5.81306 3 0.000205009 -4.11871
2031 1 10.0321 30.4847 3.48311 3 0.000184032 -4.11886
2032 1 12.5383 30.483 3.47864 3 0.000264672 -4.11835
2033 1 11.7031 30.4837 1.14885 3 0.000230689 -4.11855
2034 1 14.2083 30.481 1.14382 3 0.000360429 -4.11788
2035 1 0.833257 28.4603 23.312 3 8.7341e-05 -4.12034
2036 1 1.0079e-11 28.4603 20.9823 3 8.67783e-05 -4.12034
2037 1 2.49971 28.4603 20.9774 3 9.16039e-05 -4.12031
2038 1 1.6665 28.4603 18.6476 3 8.89242e-05 -4.12033
2039 1 4.16598 28.4603 18.6427 3 0.00010083 -4.12026
2040 1 3.33288 28.4603 16.313 3 9.55617e-05 -4.12029
2041 1 5.83193 28.4601 16.3078 3 0.0001163 -4.12018
2042 1 4.999 28.4602 13.9782 3 0.000107615 -4.12022
2043 1 7.49742 28.4599 13.9729 3 0.000140466 -4.12007
2044 1 6.66474 28.46 11.6433 3 0.000127086 -4.12013
2045 1 9.16228 28.4593 11.6377 3 0.000177766 -4.11992
2046 1 8.32994 28.4596 9.30827 3 0.000157242 -4.12
2047 1 10.8263 28.4583 9.30222 3 0.000235341 -4.11973
2048 1 9.99441 28.4589 6.97295 3 0.000203071 -4.11983
2049 1 12.4893 28.4568 6.96635 3 0.000324049 -4.1195
2050 1 11.6579 28.4577 4.6373 3 0.000274991 -4.11962
2051 1 14.1508 28.4544 4.62997 3 0.000468853 -4.11918
2052 1 13.3203 28.4557 2.30119 3 0.000389026 -4.11935
2053 1 15.8107 28.4509 2.29288 3 0.00070721 -4.1188
2054 1 14.981 28.4528 48.9231 3 0.000568438 -4.119
2055 1 17.4683 28.4459 48.9135 3 0.00108856 -4.11827
2056 1 0.830696 26.4316 26.8086 3 6.2287e-05 -4.12081
2057 1 1.02489e-11 26.4316 24.4793 3 6.17375e-05 -4.12081
2058 1 2.49201 26.4316 24.4732 3 6.69749e-05 -4.12079
2059 1 1.66137 26.4316 22.1439 3 6.40226e-05 -4.1208
2060 1 4.15311 26.4314 22.1376 3 7.68698e-05 -4.12076
2061 1 3.3226 26.4315 19.8084 3 7.11953e-05 -4.12078
2062 1 5.81382 26.4311 19.802 3 9.31828e-05 -4.12071
2063 1 4.98352 26.4313 17.4728 3 8.41623e-05 -4.12073
2064 1 7.47397 26.4306 17.4662 3 0.000117893 -4.12064
2065 1 6.64398 26.4309 15.1371 3 0.000104313 -4.12068
2066 1 9.13339 26.4297 15.1303 3 0.000154012 -4.12056
2067 1 8.30379 26.4302 12.8012 3 0.000134239 -4.1206
2068 1 10.7919 26.4283 12.7941 3 0.000205992 -4.12045
2069 1 9.96276 26.4291 10.4651 3 0.000177741 -4.12051
2070 1 12.4492 26.4263 10.4575 3 0.000280837 -4.12034
2071 1 11.6207 26.4274 8.12879 3 0.000240231 -4.1204
2072 1 14.105 26.4232 8.12062 3 0.000387257 -4.12021
2073 1 13.2773 26.4249 5.79209 3 0.000328903 -4.12028
2074 1 15.759 26.4189 5.78326 3 0.000535789 -4.12007
2075 1 14.9323 26.4212 3.45496 3 0.000455557 -4.12015
2076 1 17.411 26.4129 3.44536 3 0.000743912 -4.11996
2077 1 16.5853 26.4161 1.11734 3 0.000632901 -4.12001
2078 1 19.0603 26.4047 1.10692 3 0.00102489 -4.11984
2079 1 0.828615 24.4 30.3054 3 3.97215e-05 -4.12106
2080 1 5.75474e-12 24.4 27.9764 3 3.92233e-05 -4.12106
2081 1 2.48577 24.3999 27.9695 3 4.36992e-05 -4.12105
2082 1 1.65721 24.3999 25.6404 3 4.12123e-05 -4.12106
2083 1 4.14271 24.3996 25.6336 3 5.19585e-05 -4.12103
2084 1 3.31427 24.3997 23.3045 3 4.72763e-05 -4.12104
2085 1 5.79927 24.3991 23.2975 3 6.50271e-05 -4.12101
2086 1 4.97105 24.3994 20.9685 3 5.7818e-05 -4.12102
2087 1 7.45531 24.3983 20.9614 3 8.38841e-05 -4.12097
2088 1 6.62737 24.3987 18.6325 3 7.36744e-05 -4.12099
2089 1 9.11066 24.3971 18.6252 3 0.000109773 -4.12094
2090 1 8.28308 24.3978 16.2963 3 9.58963e-05 -4.12096
2091 1 10.7652 24.3953 16.2889 3 0.000144175 -4.1209
2092 1 9.93802 24.3963 13.9601 3 0.000125794 -4.12092
2093 1 12.4186 24.3927 13.9525 3 0.000188817 -4.12087
2094 1 11.592 24.3941 11.6237 3 0.000165048 -4.12088
2095 1 14.0708 24.3891 11.6159 3 0.000245271 -4.12085
2096 1 13.2449 24.391 9.28719 3 0.000215508 -4.12085
2097 1 15.7216 24.3841 9.27931 3 0.000315312 -4.12084
2098 1 14.8964 24.3868 6.95059 3 0.000278721 -4.12084
2099 1 17.3707 24.3772 6.94269 3 0.000400063 -4.12086
2100 1 16.5463 24.3809 4.61394 3 0.00035533 -4.12085
2101 1 19.0179 24.368 4.60627 3 0.00049893 -4.12096
2102 1 18.1945 24.373 2.27739 3 0.000447393 -4.12091
2103 1 20.663 24.3557 2.27047 3 0.000623091 -4.12114
2104 1 19.8407 24.3623 48.8999 3 0.000559055 -4.12101
2105 1 22.3058 24.339 48.8947 3 0.000793814 -4.12154
2106 1 0.827008 22.3659 33.8024 3 2.33734e-05 -4.12118
2107 1 64.2924 22.366 31.4734 3 2.30378e-05 -4.12118
2108 1 2.48096 22.3658 31.4664 3 2.6215e-05 -4.12118
2109 1 1.654 22.3659 29.1374 3 2.44366e-05 -4.12118
2110 1 4.13472 22.3654 29.1304 3 3.19742e-05 -4.12117
2111 1 3.30787 22.3656 26.8014 3 2.87085e-05 -4.12117
2112 1 5.78817 22.3647 26.7944 3 4.08571e-05 -4.12116
2113 1 4.9615 22.3651 24.4654 3 3.60295e-05 -4.12116
2114 1 7.44118 22.3637 24.4584 3 5.29814e-05 -4.12115
2115 1 6.61474 22.3643 22.1293 3 4.64865e-05 -4.12116
2116 1 9.09362 22.3623 22.1224 3 6.86729e-05 -4.12115
2117 1 8.26748 22.3631 19.7933 3 6.03627e-05 -4.12115
2118 1 10.7454 22.3602 19.7864 3 8.81848e-05 -4.12115
2119 1 9.91959 22.3613 17.4574 3 7.79472e-05 -4.12115
2120 1 12.3963 22.3572 17.4506 3 0.000111557 -4.12116
2121 1 11.5709 22.3588 15.1214 3 9.93764e-05 -4.12115
2122 1 14.0463 22.3532 15.1149 3 0.000139139 -4.12119
2123 1 13.2214 22.3554 12.7856 3 0.000124819 -4.12117
2124 1 15.6952 22.3478 12.7794 3 0.000170843 -4.12124
2125 1 14.8709 22.3507 10.45 3 0.000154376 -4.12121
2126 1 17.343 22.3405 10.4444 3 0.000207491 -4.12133
2127 1 16.5192 22.3444 8.1148 3 0.000188621 -4.12127
2128 1 18.9894 22.3309 8.1102 3 0.000252583 -4.12146
2129 1 18.1664 22.3361 5.78015 3 0.000228489 -4.12139
2130 1 20.6346 22.3183 5.77719 3 0.000309049 -4.1217
2131 1 19.8122 22.325 3.44646 3 0.000278697 -4.12156
2132 1 22.2785 22.3016 3.44608 3 0.000368054 -4.12203
2133 1 21.4567 22.3105 1.11432 3 0.000344028 -4.12184
2134 1 23.9211 22.28 1.11767 3 0.000399913 -4.12228
2135 1 0.825818 20.3301 37.2996 3 1.31439e-05 -4.12123
2136 1 64.2924 20.3301 34.9704 3 1.2915e-05 -4.12123
2137 1 2.4774 20.3298 34.9638 3 1.49752e-05 -4.12123
2138 1 1.65162 20.33 32.6346 3 1.38356e-05 -4.12123
2139 1 4.12884 20.3294 32.628 3 1.86231e-05 -4.12123
2140 1 3.30315 20.3296 30.2988 3 1.6574e-05 -4.12123
2141 1 5.78003 20.3286 30.2923 3 2.40917e-05 -4.12123
2142 1 4.95447 20.329 27.9631 3 2.11354e-05 -4.12123
2143 1 7.43088 20.3275 27.9567 3 3.13502e-05 -4.12124
2144 1 6.60551 20.3281 25.6274 3 2.74791e-05 -4.12124
2145 1 9.0813 20.3259 25.6211 3 4.03573e-05 -4.12125
2146 1 8.25615 20.3268 23.2918 3 3.5656e-05 -4.12125
2147 1 10.7312 20.3236 23.2858 3 5.11013e-05 -4.12128
2148 1 9.90632 20.3248 20.9564 3 4.55093e-05 -4.12126
2149 1 12.3805 20.3205 20.9507 3 6.35758e-05 -4.12131
2150 1 11.5559 20.3222 18.6212 3 5.71186e-05 -4.12129
2151 1 14.0291 20.3164 18.616 3 7.78494e-05 -4.12137
2152 1 13.2049 20.3186 16.2863 3 7.04686e-05 -4.12134
2153 1 15.677 20.3109 16.2819 3 9.4415e-05 -4.12145
2154 1 14.8532 20.3138 13.9518 3 8.58048e-05 -4.1214
2155 1 17.3242 20.3036 13.9484 3 0.000114314 -4.12156
2156 1 16.5007 20.3075 11.618 3 0.000103818 -4.1215
2157 1 18.9705 20.2942 11.616 3 0.000139213 -4.12171
2158 1 18.1474 20.2992 9.28501 3 0.000126253 -4.12162
2159 1 20.6161 20.2819 9.28498 3 0.000168778 -4.12192
2160 1 19.7934 20.2884 6.95323 3 0.000153538 -4.12181
2161 1 22.2611 20.2663 6.95576 3 0.000189371 -4.12217
2162 1 21.4387 20.2746 4.62307 3 0.000180503 -4.12205
2163 1 23.9058 20.247 4.6286 3 0.000195126 -4.12237
2164 1 23.0835 20.2571 2.2949 3 0.000195796 -4.12225
2165 1 25.5507 20.2244 2.30343 3 0.000190202 -4.12249
2166 1 24.7283 20.2361 48.9273 3 0.000187607 -4.12248
2167 1 27.1967 20.1999 48.9382 3 0.000227087 -4.12234
2168 1 0.82497 18.2928 40.7968 3 7.23823e-06 -4.12124
2169 1 64.2924 18.2928 38.4675 3 7.09732e-06 -4.12124
2170 1 2.47487 18.2925 38.4615 3 8.38125e-06 -4.12124
2171 1 1.64993 18.2927 36.1321 3 7.66159e-06 -4.12124
2172 1 4.12466 18.2921 36.1261 3 1.06657e-05 -4.12125
2173 1 3.29979 18.2923 33.7967 3 9.39266e-06 -4.12125
2174 1 5.77427 18.2913 33.7909 3 1.40407e-05 -4.12126
2175 1 4.94949 18.2917 31.4615 3 1.22128e-05 -4.12126
2176 1 7.42363 18.2901 31.4558 3 1.84107e-05 -4.12128
2177 1 6.59898 18.2907 29.1263 3 1.61087e-05 -4.12127
2178 1 9.07267 18.2884 29.121 3 2.37711e-05 -4.12131
2179 1 8.24819 18.2893 26.7913 3 2.09722e-05 -4.12129
2180 1 10.7213 18.2862 26.7864 3 3.00528e-05 -4.12135
2181 1 9.89705 18.2874 24.4566 3 2.67886e-05 -4.12133
2182 1 12.3696 18.2831 24.4521 3 3.74029e-05 -4.1214
2183 1 11.5455 18.2848 22.1222 3 3.35796e-05 -4.12137
2184 1 14.0174 18.2791 22.1184 3 4.59492e-05 -4.12147
2185 1 13.1936 18.2813 19.7882 3 4.14974e-05 -4.12143
2186 1 15.6648 18.2738 19.7853 3 5.62216e-05 -4.12156
2187 1 14.8411 18.2766 17.4547 3 5.08623e-05 -4.12151
2188 1 17.3117 18.2669 17.4531 3 6.88321e-05 -4.12169
2189 1 16.4883 18.2706 15.1221 3 6.21674e-05 -4.12162
2190 1 18.9582 18.2581 15.122 3 8.36506e-05 -4.12184
2191 1 18.135 18.2628 12.7904 3 7.59839e-05 -4.12176
2192 1 20.6043 18.2469 12.7921 3 9.79354e-05 -4.12203
2193 1 19.7813 18.2528 10.4598 3 9.14508e-05 -4.12193
2194 1 22.2504 18.233 10.4637 3 0.000106757 -4.1222
2195 1 21.4274 18.2403 8.1307 3 0.000103086 -4.12212
2196 1 23.8967 18.2165 8.13673 3 0.00010563 -4.12236
2197 1 23.0735 18.2251 5.80303 3 0.000107346 -4.12228
2198 1 25.5436 18.1979 5.81079 3 0.00010988 -4.12237
2199 1 24.72 18.2074 3.47663 3 0.00010684 -4.12238
2200 1 27.1918 18.1787 3.48518 3 0.000151304 -4.1222
2201 1 26.3675 18.1883 1.15095 3 0.000121646 -4.12232
2202 1 28.8417 18.1616 1.1589 3 0.000235322 -4.12196
2203 1 0.824394 16.2545 44.2942 3 3.9781e-06 -4.12124
2204 1 64.2924 16.2545 41.9645 3 3.88778e-06 -4.12124
2205 1 2.47316 16.2543 41.9593 3 4.73587e-06 -4.12125
2206 1 1.64878 16.2544 39.6297 3 4.25859e-06 -4.12124
2207 1 4.12183 16.2538 39.6246 3 6.22844e-06 -4.12126
2208 1 3.29751 16.254 37.2949 3 5.3944e-06 -4.12125
2209 1 5.77038 16.253 37.29 3 8.44024e-06 -4.12128
2210 1 4.94613 16.2534 34.9602 3 7.24539e-06 -4.12126
2211 1 7.41875 16.2519 34.9555 3 1.12736e-05 -4.1213
2212 1 6.59459 16.2525 32.6257 3 9.78719e-06 -4.12129
2213 1 9.06689 16.2503 32.6213 3 1.47552e-05 -4.12134
2214 1 8.24285 16.2512 30.2914 3 1.29271e-05 -4.12132
2215 1 10.7148 16.2482 30.2875 3 1.89217e-05 -4.12139
2216 1 9.89088 16.2493 27.9573 3 1.67508e-05 -4.12136
2217 1 12.3624 16.2454 27.954 3 2.38271e-05 -4.12145
2218 1 11.5386 16.2469 25.6237 3 2.12736e-05 -4.12142
2219 1 14.0098 16.2417 25.6212 3 2.96514e-05 -4.12153
2220 1 13.1861 16.2436 23.2905 3 2.66114e-05 -4.12149
2221 1 15.6568 16.2369 23.289 3 3.6764e-05 -4.12164
2222 1 14.8333 16.2394 20.9579 3 3.3033e-05 -4.12158
2223 1 17.3037 16.2307 20.9576 3 4.51344e-05 -4.12177
2224 1 16.4803 16.234 18.6261 3 4.08175e-05 -4.1217
2225 1 18.9504 16.2229 18.6272 3 5.43021e-05 -4.12192
2226 1 18.1271 16.227 16.2952 3 4.97277e-05 -4.12184
2227 1 20.5972 16.2131 16.2979 3 6.19556e-05 -4.12208
2228 1 19.7738 16.2182 13.9653 3 5.84032e-05 -4.122
2229 1 22.2441 16.2014 13.9696 3 6.61208e-05 -4.12222
2230 1 21.4206 16.2075 11.6366 3 6.4717e-05 -4.12215
2231 1 23.8915 16.1879 11.6422 3 6.79042e-05 -4.12231
2232 1 23.0677 16.1948 9.30874 3 6.66786e-05 -4.12228
2233 1 25.5399 16.1732 9.31509 3 7.42338e-05 -4.12231
2234 1 24.7156 16.1806 6.98156 3 6.95989e-05 -4.12233
2235 1 27.1895 16.1587 6.98776 3 9.78802e-05 -4.12221
2236 1 26.3645 16.1658 4.65447 3 8.44593e-05 -4.12226
2237 1 28.8405 16.1461 4.65954 3 0.000136356 -4.12207
2238 1 28.0148 16.152 2.32675 3 0.000115383 -4.12214
2239 1 30.493 16.1375 2.33017 3 0.000172908 -4.12195
2240 1 29.6666 16.1412 48.9566 3 0.000156902 -4.122
2241 1 32.1462 16.1345 6.57573e-10 3 0.000187554 -4.12191
2242 1 0.824037 14.2155 47.7915 3 2.23758e-06 -4.12124
2243 1 64.2924 14.2155 45.4616 3 2.16843e-06 -4.12123
2244 1 2.47209 14.2153 45.4573 3 2.76884e-06 -4.12124
2245 1 1.64807 14.2154 43.1274 3 2.44038e-06 -4.12124
2246 1 4.12009 14.2148 43.1232 3 3.83512e-06 -4.12126
2247 1 3.2961 14.2151 40.7932 3 3.23214e-06 -4.12125
2248 1 5.76799 14.2141 40.7893 3 5.39305e-06 -4.12128
2249 1 4.94405 14.2145 38.4592 3 4.55723e-06 -4.12127
2250 1 7.41576 14.2131 38.4555 3 7.47029e-06 -4.12131
2251 1 6.59189 14.2137 36.1253 3 6.36415e-06 -4.12129
2252 1 9.06338 14.2117 36.122 3 1.00079e-05 -4.12135
2253 1 8.23959 14.2125 33.7916 3 8.67982e-06 -4.12133
2254 1 10.7108 14.2099 33.7888 3 1.30888e-05 -4.12141
2255 1 9.88713 14.2109 31.4583 3 1.14808e-05 -4.12138
2256 1 12.3581 14.2074 31.456 3 1.67473e-05 -4.12149
2257 1 11.5345 14.2087 29.1253 3 1.48334e-05 -4.12145
2258 1 14.0052 14.2042 29.1237 3 2.11522e-05 -4.12158
2259 1 13.1817 14.2059 26.7928 3 1.88353e-05 -4.12153
2260 1 15.6522 14.2001 26.7921 3 2.63636e-05 -4.12169
2261 1 14.8288 14.2023 24.4608 3 2.36476e-05 -4.12163
2262 1 17.2992 14.1949 24.4613 3 3.23328e-05 -4.12182
2263 1 16.4757 14.1977 22.1296 3 2.92764e-05 -4.12175
2264 1 18.9462 14.1884 22.1312 3 3.83868e-05 -4.12196
2265 1 18.1227 14.1918 19.7991 3 3.54186e-05 -4.12189
2266 1 20.5934 14.1805 19.802 3 4.35488e-05 -4.1221
2267 1 19.7697 14.1846 17.4694 3 4.11553e-05 -4.12204
2268 1 22.241 14.1712 17.4734 3 4.67426e-05 -4.12223
2269 1 21.4171 14.176 15.1405 3 4.5344e-05 -4.12217
2270 1 23.8892 14.1607 15.1452 3 4.93307e-05 -4.12229
2271 1 23.065 14.166 12.8122 3 4.80863e-05 -4.12227
2272 1 25.5384 14.1496 12.817 3 5.45391e-05 -4.12229
2273 1 24.7137 14.1551 10.4841 3 5.12515e-05 -4.1223
2274 1 27.1888 14.1389 10.4883 3 6.4013e-05 -4.12223
2275 1 26.3634 14.1441 8.15574 3 5.86761e-05 -4.12227
2276 1 28.8403 14.13 8.15876 3 7.68747e-05 -4.12214
2277 1 28.0144 14.1342 5.82664 3 7.04226e-05 -4.12219
2278 1 30.493 14.124 5.82822 3 8.6905e-05 -4.12207
2279 1 29.6665 14.1265 3.49655 3 8.24054e-05 -4.1221
2280 1 32.1462 14.1218 3.49704 3 9.05667e-05 -4.12205
2281 1 31.3195 14.1224 1.16563 3 8.95175e-05 -4.12205
2282 1 33.7994 14.124 1.16587 3 8.6905e-05 -4.12207
2283 1 1.64772 12.176 46.6251 3 1.54489e-06 -4.12124
2284 1 4.11924 12.1755 46.622 3 2.63711e-06 -4.12126
2285 1 3.29541 12.1757 44.2916 3 2.16766e-06 -4.12125
2286 1 5.76683 12.1749 44.2887 3 3.88782e-06 -4.12128
2287 1 4.94305 12.1752 41.9583 3 3.21513e-06 -4.12127
2288 1 7.41434 12.1741 41.9555 3 5.54987e-06 -4.12132
2289 1 6.5906 12.1745 39.625 3 4.66645e-06 -4.1213
2290 1 9.06174 12.173 39.6226 3 7.64719e-06 -4.12137
2291 1 8.23805 12.1736 37.292 3 6.53893e-06 -4.12134
2292 1 10.709 12.1715 37.29 3 1.0204e-05 -4.12143
2293 1 9.8854 12.1723 34.9592 3 8.86561e-06 -4.1214
2294 1 12.3562 12.1695 34.9577 3 1.32864e-05 -4.12151
2295 1 11.5326 12.1705 32.6268 3 1.16842e-05 -4.12147
2296 1 14.0033 12.167 32.6259 3 1.696e-05 -4.1216
2297 1 13.1798 12.1683 30.2947 3 1.50383e-05 -4.12155
2298 1 15.6504 12.1637 30.2947 3 2.12196e-05 -4.12172
2299 1 14.8269 12.1654 27.9632 3 1.90293e-05 -4.12166
2300 1 17.2975 12.1597 27.964 3 2.59688e-05 -4.12185
2301 1 16.4739 12.1618 25.6322 3 2.35533e-05 -4.12178
2302 1 18.9448 12.1547 25.6339 3 3.06999e-05 -4.12199
2303 1 18.1211 12.1573 23.3018 3 2.83747e-05 -4.12192
2304 1 20.5923 12.1488 23.3044 3 3.4873e-05 -4.12212
2305 1 19.7685 12.1519 20.9721 3 3.2903e-05 -4.12206
2306 1 22.2404 12.1419 20.9753 3 3.79539e-05 -4.12223
2307 1 21.4163 12.1454 18.6428 3 3.65501e-05 -4.12218
2308 1 23.8891 12.1343 18.6463 3 3.99465e-05 -4.12229
2309 1 23.0646 12.1381 16.3138 3 3.90209e-05 -4.12227
2310 1 25.5387 12.1265 16.3172 3 4.13515e-05 -4.1223
2311 1 24.7138 12.1304 13.9848 3 4.0753e-05 -4.1223
2312 1 27.1893 12.1192 13.9875 3 4.21966e-05 -4.12227
2313 1 26.3639 12.1227 11.6554 3 4.18121e-05 -4.12229
2314 1 28.8409 12.1131 11.657 3 4.21562e-05 -4.12221
2315 1 28.015 12.1159 9.32528 3 4.23375e-05 -4.12224
2316 1 30.4933 12.1091 9.32577 3 4.129e-05 -4.12217
2317 1 29.667 12.1108 6.99442 3 4.17801e-05 -4.12219
2318 1 32.1462 12.1077 6.99409 3 4.0718e-05 -4.12215
2319 1 31.3197 12.1081 4.66292 3 4.08755e-05 -4.12215
2320 1 33.7991 12.1091 4.66241 3 4.129e-05 -4.12217
2321 1 32.9727 12.1081 2.33117 3 4.08755e-05 -4.12215
2322 1 35.4515 12.1131 2.33119 3 4.21562e-05 -4.12221
2323 1 34.6254 12.1108 48.9583 3 4.17801e-05 -4.12219
2324 1 37.1031 12.1192 0.000714828 3 4.21966e-05 -4.12227
2325 1 3.29537 10.1361 47.7901 3 1.8446e-06 -4.12125
2326 1 5.76679 10.1355 47.7881 3 3.34687e-06 -4.12129
2327 1 4.943 10.1358 45.4574 3 2.74921e-06 -4.12127
2328 1 7.41433 10.1349 45.4555 3 4.85968e-06 -4.12132
2329 1 6.59057 10.1353 43.1247 3 4.052e-06 -4.12131
2330 1 9.06179 10.1341 43.1232 3 6.83214e-06 -4.12137
2331 1 8.23807 10.1346 40.7923 3 5.78122e-06 -4.12135
2332 1 10.7092 10.1331 40.791 3 9.3077e-06 -4.12144
2333 1 9.8855 10.1336 38.46 3 8.00335e-06 -4.1214
2334 1 12.3565 10.1317 38.4592 3 1.23825e-05 -4.12152
2335 1 11.5329 10.1324 36.128 3 1.07709e-05 -4.12148
2336 1 14.0038 10.1299 36.1276 3 1.60209e-05 -4.12162
2337 1 13.1802 10.1309 33.7963 3 1.41216e-05 -4.12157
2338 1 15.6511 10.1277 33.7965 3 2.02669e-05 -4.12173
2339 1 14.8274 10.1289 31.465 3 1.80735e-05 -4.12167
2340 1 17.2985 10.125 31.4657 3 2.48652e-05 -4.12186
2341 1 16.4748 10.1264 29.134 3 2.25344e-05 -4.1218
2342 1 18.946 10.1216 29.1354 3 2.94988e-05 -4.122
2343 1 18.1222 10.1234 26.8035 3 2.72157e-05 -4.12193
2344 1 20.5938 10.1177 26.8054 3 3.34479e-05 -4.12212
2345 1 19.7699 10.1197 24.4733 3 3.15915e-05 -4.12206
2346 1 22.2421 10.1133 24.4756 3 3.59659e-05 -4.12223
2347 1 21.4179 10.1155 22.1435 3 3.49545e-05 -4.12218
2348 1 23.891 10.1084 22.1459 3 3.64192e-05 -4.12229
2349 1 23.0665 10.1109 19.8137 3 3.64631e-05 -4.12226
2350 1 25.5407 10.1036 19.8159 3 3.42984e-05 -4.12232
2351 1 24.7157 10.106 17.4839 3 3.56476e-05 -4.12231
2352 1 27.1911 10.0991 17.4855 3 2.99467e-05 -4.12231
2353 1 26.3658 10.1013 15.1537 3 3.23597e-05 -4.12232
2354 1 28.8423 10.0955 15.1545 3 2.43617e-05 -4.12228
2355 1 28.0166 10.0972 12.823 3 2.71846e-05 -4.1223
2356 1 30.4941 10.0931 12.823 3 1.95249e-05 -4.12226
2357 1 29.6681 10.0941 10.4917 3 2.16891e-05 -4.12227
2358 1 32.1462 10.0923 10.4911 3 1.75892e-05 -4.12225
2359 1 31.3201 10.0925 8.16002 3 1.80722e-05 -4.12225
2360 1 33.7983 10.0931 8.15931 3 1.95249e-05 -4.12226
2361 1 32.9723 10.0925 5.82816 3 1.80722e-05 -4.12225
2362 1 35.4501 10.0955 5.8278 3 2.43617e-05 -4.12228
2363 1 34.6243 10.0941 3.49646 3 2.16891e-05 -4.12227
2364 1 37.1013 10.0991 3.49681 3 2.99467e-05 -4.12231
2365 1 36.2758 10.0972 1.16519 3 2.71846e-05 -4.1223
2366 1 38.7517 10.1036 1.16638 3 3.42984e-05 -4.12232
2367 1 6.59174 8.09604 46.6245 3 4.3128e-06 -4.1223
2368 1 9.06349 8.09543 46.6237 3 7.39864e-06 -4.12233
2369 1 8.23959 8.09567 44.2926 3 6.20258e-06 -4.12232
2370 1 10.7113 8.09487 44.292 3 1.03948e-05 -4.12236
2371 1 9.88739 8.09517 41.9608 3 8.78575e-06 -4.12235
2372 1 12.359 8.09415 41.9604 3 1.42821e-05 -4.1224
2373 1 11.5351 8.09453 39.6291 3 1.22123e-05 -4.12238
2374 1 14.0067 8.09323 39.629 3 1.91851e-05 -4.12245
2375 1 13.1829 8.09372 37.2976 3 1.66182e-05 -4.12242
2376 1 15.6544 8.0921 37.2978 3 2.50478e-05 -4.1225
2377 1 14.8306 8.0927 34.9663 3 2.20015e-05 -4.12247
2378 1 17.3022 8.09072 34.9668 3 3.15331e-05 -4.12255
2379 1 16.4783 8.09145 32.6352 3 2.82377e-05 -4.12253
2380 1 18.9501 8.08907 32.636 3 3.79166e-05 -4.12261
2381 1 18.1262 8.08993 30.3043 3 3.48085e-05 -4.12258
2382 1 20.5982 8.08717 30.3053 3 4.30693e-05 -4.12264
2383 1 19.7741 8.08815 27.9736 3 4.07387e-05 -4.12263
2384 1 22.2466 8.08504 27.9748 3 4.55675e-05 -4.12266
2385 1 21.4224 8.08613 25.643 3 4.4711e-05 -4.12265
2386 1 23.8954 8.08279 25.6442 3 4.43184e-05 -4.12265
2387 1 23.071 8.08392 23.3125 3 4.54803e-05 -4.12266
2388 1 25.5447 8.08055 23.3136 3 3.91003e-05 -4.12261
2389 1 24.72 8.08166 20.9819 3 4.21417e-05 -4.12263
2390 1 27.1945 8.07852 20.9826 3 3.09872e-05 -4.12255
2391 1 26.3695 8.0795 18.6511 3 3.52893e-05 -4.12258
2392 1 28.8448 8.07688 18.6514 3 2.23158e-05 -4.12249
2393 1 28.0196 8.07764 16.32 3 2.65645e-05 -4.12252
2394 1 30.4954 8.07582 16.3199 3 1.57327e-05 -4.12245
2395 1 29.67 8.07627 13.9886 3 1.86093e-05 -4.12247
2396 1 32.1462 8.07545 13.9882 3 1.32918e-05 -4.12244
2397 1 31.3208 8.07554 11.657 3 1.39194e-05 -4.12244
2398 1 33.797 8.07582 11.6565 3 1.57327e-05 -4.12245
2399 1 32.9716 8.07554 9.32529 3 1.39194e-05 -4.12244
2400 1 35.4476 8.07688 9.32499 3 2.23158e-05 -4.12249
2401 1 34.6224 8.07627 6.99368 3 1.86093e-05 -4.12247
2402 1 37.0979 8.07852 6.99375 3 3.09872e-05 -4.12255
2403 1 36.2728 8.07764 4.66229 3 2.65645e-05 -4.12252
2404 1 38.7477 8.08055 4.6628 3 3.91003e-05 -4.12261
2405 1 37.9228 8.0795 2.3312 3 3.52892e-05 -4.12258
2406 1 40.3969 8.08279 2.33211 3 4.43185e-05 -4.12265
2407 1 39.5724 8.08166 0.000385534 3 4.21417e-05 -4.12263
2408 1 42.0457 8.08504 0.00155224 3 4.55675e-05 -4.12266
2409 1 8.24261 6.05706 47.7929 3 0.000806795 -4.12213
2410 1 10.7154 6.05706 47.7929 3 0.000769854 -4.12216
2411 1 9.89114 6.05706 45.4616 3 0.000784159 -4.12215
2412 1 12.3639 6.05706 45.4616 3 0.000734204 -4.12218
2413 1 11.5397 6.05706 43.1302 3 0.000753276 -4.12217
2414 1 14.0124 6.05706 43.1302 3 0.000687853 -4.1222
2415 1 13.1882 6.05706 40.7989 3 0.000712434 -4.12219
2416 1 15.661 6.05706 40.7989 3 0.000629865 -4.12221
2417 1 14.8367 6.05706 38.4675 3 0.000660325 -4.1222
2418 1 17.3095 6.05706 38.4675 3 0.000560309 -4.12222
2419 1 16.4852 6.05706 36.1361 3 0.00059647 -4.12222
2420 1 18.958 6.05706 36.1361 3 0.000480835 -4.12222
2421 1 18.1337 6.05706 33.8048 3 0.000521624 -4.12222
2422 1 20.6065 6.05706 33.8048 3 0.000394982 -4.12221
2423 1 19.7823 6.05706 31.4734 3 0.000438416 -4.12221
2424 1 22.2551 6.05706 31.4734 3 0.000307777 -4.12218
2425 1 21.4308 6.05706 29.142 3 0.000351215 -4.12219
2426 1 23.9036 6.05706 29.142 3 0.000224709 -4.12215
2427 1 23.0793 6.05706 26.8107 3 0.000265393 -4.12217
2428 1 25.5521 6.05706 26.8107 3 0.000150566 -4.12211
2429 1 24.7278 6.05706 24.4793 3 0.000186264 -4.12213
2430 1 27.2006 6.05706 24.4793 3 8.89404e-05 -4.12208
2431 1 26.3764 6.05706 22.1479 3 0.000118019 -4.1221
2432 1 28.8491 6.05706 22.1479 3 4.24251e-05 -4.12206
2433 1 28.0249 6.05706 19.8166 3 6.36484e-05 -4.12207
2434 1 30.4977 6.05706 19.8166 3 1.32761e-05 -4.12205
2435 1 29.6734 6.05706 17.4852 3 2.55494e-05 -4.12205
2436 1 32.1462 6.05706 17.4852 3 3.3144e-06 -4.12204
2437 1 31.3219 6.05706 15.1539 3 5.81593e-06 -4.12204
2438 1 33.7947 6.05706 15.1539 3 1.3276e-05 -4.12205
2439 1 32.9705 6.05706 12.8225 3 5.81592e-06 -4.12204
2440 1 35.4432 6.05706 12.8225 3 4.24253e-05 -4.12206
2441 1 34.619 6.05706 10.4911 3 2.55496e-05 -4.12205
2442 1 37.0918 6.05706 10.4911 3 8.89403e-05 -4.12208
2443 1 36.2675 6.05706 8.15977 3 6.36482e-05 -4.12207
2444 1 38.7403 6.05706 8.15977 3 0.000150565 -4.12211
2445 1 37.916 6.05706 5.82841 3 0.000118019 -4.1221
2446 1 40.3888 6.05706 5.82841 3 0.000224709 -4.12215
2447 1 39.5645 6.05706 3.49704 3 0.000186264 -4.12213
2448 1 42.0373 6.05706 3.49704 3 0.000307778 -4.12218
2449 1 41.2131 6.05706 1.16568 3 0.000265394 -4.12217
2450 1 43.6859 6.05706 1.16568 3 0.000394982 -4.12221
2451 1 11.5397 4.03804 46.6273 3 1.0169e-16 -4.12149
2452 1 14.0124 4.03804 46.6273 3 1.0169e-16 -4.12156
2453 1 13.1882 4.03804 44.2959 3 0 -4.12153
2454 1 15.661 4.03804 44.2959 3 4e-16 -4.12161
2455 1 14.8367 4.03804 41.9645 3 9.99999e-17 -4.12158
2456 1 17.3095 4.03804 41.9645 3 1e-16 -4.12168
2457 1 16.4852 4.03804 39.6332 3 4e-16 -4.12165
2458 1 18.958 4.03804 39.6332 3 2.01948e-28 -4.12177
2459 1 18.1337 4.03804 37.3018 3 1e-16 -4.12172
2460 1 20.6065 4.03804 37.3018 3 1e-16 -4.12186
2461 1 19.7823 4.03804 34.9704 3 1e-16 -4.12181
2462 1 22.2551 4.03804 34.9704 3 4e-16 -4.12197
2463 1 21.4308 4.03804 32.6391 3 4e-16 -4.12192
2464 1 23.9036 4.03804 32.6391 3 1e-16 -4.12208
2465 1 23.0793 4.03804 30.3077 3 1e-16 -4.12203
2466 1 25.5521 4.03804 30.3077 3 1.51461e-28 -4.12219
2467 1 24.7278 4.03804 27.9764 3 1.51461e-28 -4.12214
2468 1 27.2006 4.03804 27.9764 3 1e-16 -4.1223
2469 1 26.3764 4.03804 25.645 3 1e-16 -4.12225
2470 1 28.8491 4.03804 25.645 3 4e-16 -4.12238
2471 1 28.0249 4.03804 23.3136 3 3.99999e-16 -4.12234
2472 1 30.4977 4.03804 23.3136 3 9.99999e-17 -4.12243
2473 1 29.6734 4.03804 20.9823 3 1e-16 -4.12241
2474 1 32.1462 4.03804 20.9823 3 9.99999e-17 -4.12245
2475 1 31.3219 4.03804 18.6509 3 0 -4.12244
2476 1 33.7947 4.03804 18.6509 3 4.00001e-16 -4.12243
2477 1 32.9705 4.03804 16.3195 3 9.99999e-17 -4.12244
2478 1 35.4432 4.03804 16.3195 3 1e-16 -4.12238
2479 1 34.619 4.03804 13.9882 3 4e-16 -4.12241
2480 1 37.0918 4.03804 13.9882 3 2.52435e-29 -4.1223
2481 1 36.2675 4.03804 11.6568 3 1e-16 -4.12234
2482 1 38.7403 4.03804 11.6568 3 1e-16 -4.12219
2483 1 37.916 4.03804 9.32545 3 8.07794e-28 -4.12225
2484 1 40.3888 4.03804 9.32545 3 3.99999e-16 -4.12208
2485 1 39.5645 4.03804 6.99409 3 1e-16 -4.12214
2486 1 42.0373 4.03804 6.99409 3 1e-16 -4.12197
2487 1 41.2131 4.03804 4.66273 3 4.00001e-16 -4.12203
2488 1 43.6859 4.03804 4.66273 3 2.01948e-28 -4.12186
2489 1 42.8616 4.03804 2.33136 3 9.99999e-17 -4.12192
2490 1 45.3344 4.03804 2.33136 3 9.99999e-17 -4.12177
2491 1 44.5101 4.03804 0 3 5.07001e-18 -4.12181
2492 1 46.9829 4.03804 0 3 4.0507e-16 -4.12168
2493 1 13.1882 2.01902 47.7929 3 5.06996e-18 -4.10627
2494 1 15.661 2.01902 47.7929 3 4.0507e-16 -4.10627
2495 1 14.8367 2.01902 45.4616 3 9.99999e-17 -4.10627
2496 1 17.3095 2.01902 45.4616 3 1e-16 -4.10627
2497 1 16.4852 2.01902 43.1302 3 4e-16 -4.10627
2498 1 18.958 2.01902 43.1302 3 8.07794e-28 -4.10627
2499 1 18.1337 2.01902 40.7989 3 1e-16 -4.10627
2500 1 20.6065 2.01902 40.7989 3 1e-16 -4.10627
2501 1 19.7823 2.01902 38.4675 3 1e-16 -4.10627
2502 1 22.2551 2.01902 38.4675 3 4e-16 -4.10627
2503 1 21.4308 2.01902 36.1361 3 4e-16 -4.10627
2504 1 23.9036 2.01902 36.1361 3 1e-16 -4.10627
2505 1 23.0793 2.01902 33.8048 3 1e-16 -4.10627
2506 1 25.5521 2.01902 33.8048 3 1.51461e-28 -4.10627
2507 1 24.7278 2.01902 31.4734 3 5.04871e-29 -4.10627
2508 1 27.2006 2.01902 31.4734 3 1e-16 -4.10627
2509 1 26.3764 2.01902 29.142 3 1e-16 -4.10627
2510 1 28.8491 2.01902 29.142 3 4e-16 -4.10627
2511 1 28.0249 2.01902 26.8107 3 3.99999e-16 -4.10627
2512 1 30.4977 2.01902 26.8107 3 9.99999e-17 -4.10627
2513 1 29.6734 2.01902 24.4793 3 1e-16 -4.10627
2514 1 32.1462 2.01902 24.4793 3 9.99999e-17 -4.10627
2515 1 31.3219 2.01902 22.1479 3 0 -4.10627
2516 1 33.7947 2.01902 22.1479 3 4.00001e-16 -4.10627
2517 1 32.9705 2.01902 19.8166 3 9.99999e-17 -4.10627
2518 1 35.4432 2.01902 19.8166 3 1e-16 -4.10627
2519 1 34.619 2.01902 17.4852 3 4e-16 -4.10627
2520 1 37.0918 2.01902 17.4852 3 1.00974e-28 -4.10627
2521 1 36.2675 2.01902 15.1539 3 1e-16 -4.10627
2522 1 38.7403 2.01902 15.1539 3 1e-16 -4.10627
2523 1 37.916 2.01902 12.8225 3 8.45659e-28 -4.10627
2524 1 40.3888 2.01902 12.8225 3 3.99999e-16 -4.10627
2525 1 39.5645 2.01902 10.4911 3 1e-16 -4.10627
2526 1 42.0373 2.01902 10.4911 3 1e-16 -4.10627
2527 1 41.2131 2.01902 8.15977 3 4.00001e-16 -4.10627
2528 1 43.6859 2.01902 8.15977 3 2.1457e-28 -4.10627
2529 1 42.8616 2.01902 5.82841 3 9.99999e-17 -4.10627
2530 1 45.3344 2.01902 5.82841 3 9.99999e-17 -4.10627
2531 1 44.5101 2.01902 3.49704 3 2.02737e-28 -4.10627
2532 1 46.9829 2.01902 3.49704 3 3.99999e-16 -4.10627
2533 1 46.1586 2.01902 1.16568 3 1.0169e-16 -4.10627
2534 1 48.6314 2.01902 1.16568 3 1.0169e-16 -4.10627
2535 1 16.4852 0 46.6273 5 12.2293 -3.54465
2536 1 18.958 0 46.6273 5 12.2293 -3.54465
2537 1 18.1337 0 44.2959 5 12.2293 -3.54465
2538 1 20.6065 0 44.2959 5 12.2293 -3.54465
2539 1 19.7823 0 41.9645 5 12.2293 -3.54465
2540 1 22.2551 0 41.9645 5 12.2293 -3.54465
2541 1 21.4308 0 39.6332 5 12.2293 -3.54465
2542 1 23.9036 0 39.6332 5 12.2293 -3.54465
2543 1 23.0793 0 37.3018 5 12.2293 -3.54465
2544 1 25.5521 0 37.3018 5 12.2293 -3.54465
2545 1 24.7278 0 34.9704 5 12.2293 -3.54465
2546 1 27.2006 0 34.9704 5 12.2293 -3.54465
2547 1 26.3764 0 32.6391 5 12.2293 -3.54465
2548 1 28.8491 0 32.6391 5 12.2293 -3.54465
2549 1 28.0249 0 30.3077 5 12.2293 -3.54465
2550 1 30.4977 0 30.3077 5 12.2293 -3.54465
2551 1 29.6734 0 27.9764 5 12.2293 -3.54465
2552 1 32.1462 0 27.9764 5 12.2293 -3.54465
2553 1 31.3219 0 25.645 5 12.2293 -3.54465
2554 1 33.7947 0 25.645 5 12.2293 -3.54465
2555 1 32.9705 0 23.3136 5 12.2293 -3.54465
2556 1 35.4432 0 23.3136 5 12.2293 -3.54465
2557 1 34.619 0 20.9823 5 12.2293 -3.54465
2558 1 37.0918 0 20.9823 5 12.2293 -3.54465
2559 1 36.2675 0 18.6509 5 12.2293 -3.54465
2560 1 38.7403 0 18.6509 5 12.2293 -3.54465
2561 1 37.916 0 16.3195 5 12.2293 -3.54465
2562 1 40.3888 0 16.3195 5 12.2293 -3.54465
2563 1 39.5645 0 13.9882 5 12.2293 -3.54465
2564 1 42.0373 0 13.9882 5 12.2293 -3.54465
2565 1 41.2131 0 11.6568 5 12.2293 -3.54465
2566 1 43.6859 0 11.6568 5 12.2293 -3.54465
2567 1 42.8616 0 9.32545 5 12.2293 -3.54465
2568 1 45.3344 0 9.32545 5 12.2293 -3.54465
2569 1 44.5101 0 6.99409 5 12.2293 -3.54465
2570 1 46.9829 0 6.99409 5 12.2293 -3.54465
2571 1 46.1586 0 4.66273 5 12.2293 -3.54465
2572 1 48.6314 0 4.66273 5 12.2293 -3.54465
2573 1 47.8072 0 2.33136 5 12.2293 -3.54465
2574 1 50.2799 0 2.33136 5 12.2293 -3.54465
2575 1 49.4557 0 0 5 12.2293 -3.54465
2576 1 51.9285 0 0 5 12.2293 -3.54465
2577 1 0.836204 30.4855 26.8096 3 0.000105686 -4.11957
2578 1 1.12203e-11 30.4855 24.4793 3 0.000105291 -4.11957
2579 1 2.50858 30.4855 24.4761 3 0.000108707 -4.11953
2580 1 1.6724 30.4855 22.1458 3 0.000106788 -4.11955
2581 1 4.18088 30.4855 22.1425 3 0.00011515 -4.11946
2582 1 3.34474 30.4855 19.8123 3 0.000111484 -4.1195
2583 1 5.85301 30.4855 19.8089 3 0.00012591 -4.11935
2584 1 5.01696 30.4855 17.4787 3 0.000119916 -4.11941
2585 1 7.52491 30.4854 17.4752 3 0.00014236 -4.11919
2586 1 6.68899 30.4855 15.145 3 0.000133238 -4.11928
2587 1 9.19651 30.485 15.1413 3 0.000166986 -4.11899
2588 1 8.36075 30.4852 12.8112 3 0.000153492 -4.1191
2589 1 10.8677 30.4843 12.8072 3 0.000205009 -4.11871
2590 1 10.0321 30.4847 10.4772 3 0.000184032 -4.11886
2591 1 12.5383 30.483 10.4727 3 0.000264672 -4.11835
2592 1 11.7031 30.4837 8.14294 3 0.000230689 -4.11855
2593 1 14.2083 30.481 8.13791 3 0.000360429 -4.11788
2594 1 13.3734 30.4821 5.80834 3 0.000307261 -4.11813
2595 1 15.8772 30.478 5.80255 3 0.000536516 -4.11718
2596 1 15.0428 30.4796 3.47326 3 0.00043741 -4.11755
2597 1 17.5448 30.4737 3.46634 3 0.000873927 -4.11615
2598 1 16.7113 30.476 1.13751 3 0.000663448 -4.11678
2599 1 19.211 30.4677 1.12891 3 0.00152376 -4.11468
2600 1 0.833257 28.4603 30.3061 3 8.7341e-05 -4.12034
2601 1 1.11991e-11 28.4603 27.9764 3 8.67783e-05 -4.12034
2602 1 2.49971 28.4603 27.9714 3 9.16039e-05 -4.12031
2603 1 1.6665 28.4603 25.6417 3 8.89242e-05 -4.12033
2604 1 4.16598 28.4603 25.6367 3 0.00010083 -4.12026
2605 1 3.33288 28.4603 23.3071 3 9.55617e-05 -4.12029
2606 1 5.83193 28.4601 23.3019 3 0.0001163 -4.12018
2607 1 4.999 28.4602 20.9723 3 0.000107615 -4.12022
2608 1 7.49742 28.4599 20.967 3 0.000140466 -4.12007
2609 1 6.66474 28.46 18.6374 3 0.000127086 -4.12013
2610 1 9.16228 28.4593 18.6318 3 0.000177766 -4.11992
2611 1 8.32994 28.4596 16.3024 3 0.000157242 -4.12
2612 1 10.8263 28.4583 16.2963 3 0.000235341 -4.11973
2613 1 9.99441 28.4589 13.967 3 0.000203071 -4.11983
2614 1 12.4893 28.4568 13.9604 3 0.000324049 -4.1195
2615 1 11.6579 28.4577 11.6314 3 0.000274991 -4.11962
2616 1 14.1508 28.4544 11.6241 3 0.000468853 -4.11918
2617 1 13.3203 28.4557 9.29527 3 0.000389026 -4.11935
2618 1 15.8107 28.4509 9.28697 3 0.00070721 -4.1188
2619 1 14.981 28.4528 6.95857 3 0.000568438 -4.119
2620 1 17.4683 28.4459 6.94899 3 0.00108856 -4.11827
2621 1 16.6397 28.4486 4.62108 3 0.000876386 -4.11854
2622 1 19.1227 28.4391 4.60977 3 0.00177465 -4.11755
2623 1 18.296 28.4428 2.28249 3 0.00140198 -4.11796
2624 1 20.7736 28.4297 2.26878 3 0.00297164 -4.11672
2625 1 19.9489 28.4347 48.9011 3 0.00224084 -4.11713
2626 1 22.4195 28.4167 48.8843 3 0.00483509 -4.11549
2627 1 0.830696 26.4316 33.8027 3 6.2287e-05 -4.12081
2628 1 8.64622e-12 26.4316 31.4734 3 6.17375e-05 -4.12081
2629 1 2.49201 26.4316 31.4672 3 6.69749e-05 -4.12079
2630 1 1.66137 26.4316 29.1379 3 6.40226e-05 -4.1208
2631 1 4.15311 26.4314 29.1317 3 7.68698e-05 -4.12076
2632 1 3.3226 26.4315 26.8024 3 7.11953e-05 -4.12078
2633 1 5.81382 26.4311 26.7961 3 9.31828e-05 -4.12071
2634 1 4.98352 26.4313 24.4669 3 8.41623e-05 -4.12073
2635 1 7.47397 26.4306 24.4603 3 0.000117893 -4.12064
2636 1 6.64398 26.4309 22.1312 3 0.000104313 -4.12068
2637 1 9.13339 26.4297 22.1244 3 0.000154012 -4.12056
2638 1 8.30379 26.4302 19.7953 3 0.000134239 -4.1206
2639 1 10.7919 26.4283 19.7881 3 0.000205992 -4.12045
2640 1 9.96276 26.4291 17.4592 3 0.000177741 -4.12051
2641 1 12.4492 26.4263 17.4516 3 0.000280837 -4.12034
2642 1 11.6207 26.4274 15.1229 3 0.000240231 -4.1204
2643 1 14.105 26.4232 15.1147 3 0.000387257 -4.12021
2644 1 13.2773 26.4249 12.7862 3 0.000328903 -4.12028
2645 1 15.759 26.4189 12.7773 3 0.000535789 -4.12007
2646 1 14.9323 26.4212 10.449 3 0.000455557 -4.12015
2647 1 17.411 26.4129 10.4395 3 0.000743912 -4.11996
2648 1 16.5853 26.4161 8.11143 3 0.000632901 -4.12001
2649 1 19.0603 26.4047 8.10101 3 0.00102489 -4.11984
2650 1 18.236 26.4091 5.77326 3 0.000872325 -4.11987
2651 1 20.7065 26.3934 5.7621 3 0.00138945 -4.11976
2652 1 19.8839 26.3995 3.43454 3 0.00119292 -4.11984
2653 1 22.3494 26.378 3.42302 3 0.00186971 -4.12017
2654 1 21.5285 26.3863 1.0955 3 0.00161523 -4.11988
2655 1 23.988 26.356 1.08516 3 0.00242576 -4.12132
2656 1 0.828615 24.4 37.2995 3 3.97215e-05 -4.12106
2657 1 4.08439e-12 24.4 34.9704 3 3.92233e-05 -4.12106
2658 1 2.48577 24.3999 34.9636 3 4.36992e-05 -4.12105
2659 1 1.65721 24.3999 32.6345 3 4.12123e-05 -4.12106
2660 1 4.14271 24.3996 32.6276 3 5.19585e-05 -4.12103
2661 1 3.31427 24.3997 30.2986 3 4.72763e-05 -4.12104
2662 1 5.79927 24.3991 30.2916 3 6.50271e-05 -4.12101
2663 1 4.97105 24.3994 27.9626 3 5.7818e-05 -4.12102
2664 1 7.45531 24.3983 27.9555 3 8.38841e-05 -4.12097
2665 1 6.62737 24.3987 25.6265 3 7.36744e-05 -4.12099
2666 1 9.11066 24.3971 25.6193 3 0.000109773 -4.12094
2667 1 8.28308 24.3978 23.2904 3 9.58963e-05 -4.12096
2668 1 10.7652 24.3953 23.283 3 0.000144175 -4.1209
2669 1 9.93802 24.3963 20.9541 3 0.000125794 -4.12092
2670 1 12.4186 24.3927 20.9466 3 0.000188817 -4.12087
2671 1 11.592 24.3941 18.6178 3 0.000165048 -4.12088
2672 1 14.0708 24.3891 18.61 3 0.000245271 -4.12085
2673 1 13.2449 24.391 16.2813 3 0.000215508 -4.12085
2674 1 15.7216 24.3841 16.2734 3 0.000315312 -4.12084
2675 1 14.8964 24.3868 13.9447 3 0.000278721 -4.12084
2676 1 17.3707 24.3772 13.9368 3 0.000400063 -4.12086
2677 1 16.5463 24.3809 11.608 3 0.00035533 -4.12085
2678 1 19.0179 24.368 11.6004 3 0.00049893 -4.12096
2679 1 18.1945 24.373 9.27148 3 0.000447393 -4.12091
2680 1 20.663 24.3557 9.26456 3 0.000623091 -4.12114
2681 1 19.8407 24.3623 6.93531 3 0.000559055 -4.12101
2682 1 22.3058 24.339 6.93016 3 0.000793814 -4.12154
2683 1 21.4848 24.348 4.60005 3 0.000697935 -4.12134
2684 1 23.9465 24.3164 4.59835 3 0.000884572 -4.12224
2685 1 23.1265 24.3286 2.26678 3 0.000852825 -4.12188
2686 1 25.5851 24.2866 2.2705 3 0.000942039 -4.12252
2687 1 24.7657 24.302 48.8957 3 0.000915784 -4.12218
2688 1 27.2228 24.2502 48.906 3 0.000954188 -4.12313
2689 1 0.827008 22.3659 40.7965 3 2.33734e-05 -4.12118
2690 1 64.2924 22.366 38.4675 3 2.30378e-05 -4.12118
2691 1 2.48096 22.3658 38.4605 3 2.6215e-05 -4.12118
2692 1 1.654 22.3659 36.1315 3 2.44366e-05 -4.12118
2693 1 4.13472 22.3654 36.1245 3 3.19742e-05 -4.12117
2694 1 3.30787 22.3656 33.7955 3 2.87085e-05 -4.12117
2695 1 5.78817 22.3647 33.7885 3 4.08571e-05 -4.12116
2696 1 4.9615 22.3651 31.4594 3 3.60295e-05 -4.12116
2697 1 7.44118 22.3637 31.4525 3 5.29814e-05 -4.12115
2698 1 6.61474 22.3643 29.1234 3 4.64865e-05 -4.12116
2699 1 9.09362 22.3623 29.1165 3 6.86729e-05 -4.12115
2700 1 8.26748 22.3631 26.7874 3 6.03627e-05 -4.12115
2701 1 10.7454 22.3602 26.7805 3 8.81848e-05 -4.12115
2702 1 9.91959 22.3613 24.4514 3 7.79472e-05 -4.12115
2703 1 12.3963 22.3572 24.4447 3 0.000111557 -4.12116
2704 1 11.5709 22.3588 22.1155 3 9.93764e-05 -4.12115
2705 1 14.0463 22.3532 22.1089 3 0.000139139 -4.12119
2706 1 13.2214 22.3554 19.7797 3 0.000124819 -4.12117
2707 1 15.6952 22.3478 19.7735 3 0.000170843 -4.12124
2708 1 14.8709 22.3507 17.4441 3 0.000154376 -4.12121
2709 1 17.343 22.3405 17.4385 3 0.000207491 -4.12133
2710 1 16.5192 22.3444 15.1089 3 0.000188621 -4.12127
2711 1 18.9894 22.3309 15.1043 3 0.000252583 -4.12146
2712 1 18.1664 22.3361 12.7742 3 0.000228489 -4.12139
2713 1 20.6346 22.3183 12.7713 3 0.000309049 -4.1217
2714 1 19.8122 22.325 10.4405 3 0.000278697 -4.12156
2715 1 22.2785 22.3016 10.4402 3 0.000368054 -4.12203
2716 1 21.4567 22.3105 8.10841 3 0.000344028 -4.12184
2717 1 23.9211 22.28 8.11176 3 0.000399913 -4.12228
2718 1 23.1 22.2915 5.77852 3 0.000385065 -4.12223
2719 1 25.5635 22.2537 5.78615 3 0.000376991 -4.12269
2720 1 24.7423 22.2675 3.45152 3 0.000400036 -4.12247
2721 1 27.206 22.2233 3.46381 3 0.000407281 -4.12259
2722 1 26.3845 22.2388 1.12763 3 0.000390738 -4.12272
2723 1 28.85 22.1924 1.14373 3 0.000773009 -4.12162
2724 1 0.825818 20.3301 44.2937 3 1.31439e-05 -4.12123
2725 1 3.6196e-15 20.3301 41.9645 3 1.2915e-05 -4.12123
2726 1 2.4774 20.3298 41.9579 3 1.49752e-05 -4.12123
2727 1 1.65162 20.33 39.6287 3 1.38356e-05 -4.12123
2728 1 4.12884 20.3294 39.6221 3 1.86231e-05 -4.12123
2729 1 3.30315 20.3296 37.2929 3 1.6574e-05 -4.12123
2730 1 5.78003 20.3286 37.2864 3 2.40917e-05 -4.12123
2731 1 4.95447 20.329 34.9572 3 2.11354e-05 -4.12123
2732 1 7.43088 20.3275 34.9507 3 3.13502e-05 -4.12124
2733 1 6.60551 20.3281 32.6215 3 2.74791e-05 -4.12124
2734 1 9.0813 20.3259 32.6152 3 4.03573e-05 -4.12125
2735 1 8.25615 20.3268 30.2859 3 3.5656e-05 -4.12125
2736 1 10.7312 20.3236 30.2799 3 5.11013e-05 -4.12128
2737 1 9.90632 20.3248 27.9505 3 4.55093e-05 -4.12126
2738 1 12.3805 20.3205 27.9448 3 6.35758e-05 -4.12131
2739 1 11.5559 20.3222 25.6153 3 5.71186e-05 -4.12129
2740 1 14.0291 20.3164 25.6101 3 7.78494e-05 -4.12137
2741 1 13.2049 20.3186 23.2804 3 7.04686e-05 -4.12134
2742 1 15.677 20.3109 23.276 3 9.4415e-05 -4.12145
2743 1 14.8532 20.3138 20.9459 3 8.58048e-05 -4.1214
2744 1 17.3242 20.3036 20.9425 3 0.000114314 -4.12156
2745 1 16.5007 20.3075 18.6121 3 0.000103818 -4.1215
2746 1 18.9705 20.2942 18.6101 3 0.000139213 -4.12171
2747 1 18.1474 20.2992 16.2791 3 0.000126253 -4.12162
2748 1 20.6161 20.2819 16.2791 3 0.000168778 -4.12192
2749 1 19.7934 20.2884 13.9473 3 0.000153538 -4.12181
2750 1 22.2611 20.2663 13.9499 3 0.000189371 -4.12217
2751 1 21.4387 20.2746 11.6172 3 0.000180503 -4.12205
2752 1 23.9058 20.247 11.6227 3 0.000195126 -4.12237
2753 1 23.0835 20.2571 9.28899 3 0.000195796 -4.12225
2754 1 25.5507 20.2244 9.29752 3 0.000190202 -4.12249
2755 1 24.7283 20.2361 6.96281 3 0.000187607 -4.12248
2756 1 27.1967 20.1999 6.97371 3 0.000227087 -4.12234
2757 1 26.3736 20.2123 4.63845 3 0.000196318 -4.12245
2758 1 28.8445 20.1769 4.65017 3 0.000414603 -4.1218
2759 1 28.0203 20.1879 2.31502 3 0.000315416 -4.12203
2760 1 30.4945 20.1601 2.32562 3 0.000651847 -4.12146
2761 1 29.6693 20.1674 48.9496 3 0.000529118 -4.12161
2762 1 32.1462 20.1539 6.48909e-10 3 0.000780966 -4.12122
2763 1 0.82497 18.2928 47.7909 3 7.23823e-06 -4.12124
2764 1 6.70824e-12 18.2928 45.4616 3 7.09732e-06 -4.12124
2765 1 2.47487 18.2925 45.4556 3 8.38125e-06 -4.12124
2766 1 1.64993 18.2927 43.1262 3 7.66159e-06 -4.12124
2767 1 4.12466 18.2921 43.1202 3 1.06657e-05 -4.12125
2768 1 3.29979 18.2923 40.7908 3 9.39266e-06 -4.12125
2769 1 5.77427 18.2913 40.785 3 1.40407e-05 -4.12126
2770 1 4.94949 18.2917 38.4556 3 1.22128e-05 -4.12126
2771 1 7.42363 18.2901 38.4499 3 1.84107e-05 -4.12128
2772 1 6.59898 18.2907 36.1204 3 1.61087e-05 -4.12127
2773 1 9.07267 18.2884 36.115 3 2.37711e-05 -4.12131
2774 1 8.24819 18.2893 33.7854 3 2.09722e-05 -4.12129
2775 1 10.7213 18.2862 33.7805 3 3.00528e-05 -4.12135
2776 1 9.89705 18.2874 31.4507 3 2.67886e-05 -4.12133
2777 1 12.3696 18.2831 31.4462 3 3.74029e-05 -4.1214
2778 1 11.5455 18.2848 29.1162 3 3.35796e-05 -4.12137
2779 1 14.0174 18.2791 29.1125 3 4.59492e-05 -4.12147
2780 1 13.1936 18.2813 26.7823 3 4.14974e-05 -4.12143
2781 1 15.6648 18.2738 26.7794 3 5.62216e-05 -4.12156
2782 1 14.8411 18.2766 24.4488 3 5.08623e-05 -4.12151
2783 1 17.3117 18.2669 24.4472 3 6.88321e-05 -4.12169
2784 1 16.4883 18.2706 22.1162 3 6.21674e-05 -4.12162
2785 1 18.9582 18.2581 22.1161 3 8.36506e-05 -4.12184
2786 1 18.135 18.2628 19.7844 3 7.59839e-05 -4.12176
2787 1 20.6043 18.2469 19.7862 3 9.79354e-05 -4.12203
2788 1 19.7813 18.2528 17.4539 3 9.14508e-05 -4.12193
2789 1 22.2504 18.233 17.4578 3 0.000106757 -4.1222
2790 1 21.4274 18.2403 15.1248 3 0.000103086 -4.12212
2791 1 23.8967 18.2165 15.1308 3 0.00010563 -4.12236
2792 1 23.0735 18.2251 12.7971 3 0.000107346 -4.12228
2793 1 25.5436 18.1979 12.8049 3 0.00010988 -4.12237
2794 1 24.72 18.2074 10.4707 3 0.00010684 -4.12238
2795 1 27.1918 18.1787 10.4793 3 0.000151304 -4.1222
2796 1 26.3675 18.1883 8.14504 3 0.000121646 -4.12232
2797 1 28.8417 18.1616 8.15299 3 0.000235322 -4.12196
2798 1 28.0165 18.1698 5.81922 3 0.000188657 -4.12208
2799 1 30.4934 18.1496 5.82551 3 0.000338463 -4.12175
2800 1 29.6674 18.1548 3.49237 3 0.000289045 -4.12185
2801 1 32.1462 18.1452 3.49704 3 0.000380854 -4.12167
2802 1 31.3197 18.1464 1.16431 3 0.000368049 -4.1217
2803 1 33.799 18.1496 1.16858 3 0.000338463 -4.12175
2804 1 1.64878 16.2544 46.6238 3 4.25859e-06 -4.12124
2805 1 4.12183 16.2538 46.6187 3 6.22844e-06 -4.12126
2806 1 3.29751 16.254 44.289 3 5.3944e-06 -4.12125
2807 1 5.77038 16.253 44.2841 3 8.44024e-06 -4.12128
2808 1 4.94613 16.2534 41.9543 3 7.24539e-06 -4.12126
2809 1 7.41875 16.2519 41.9496 3 1.12736e-05 -4.1213
2810 1 6.59459 16.2525 39.6198 3 9.78719e-06 -4.12129
2811 1 9.06689 16.2503 39.6154 3 1.47552e-05 -4.12134
2812 1 8.24285 16.2512 37.2854 3 1.29271e-05 -4.12132
2813 1 10.7148 16.2482 37.2816 3 1.89217e-05 -4.12139
2814 1 9.89088 16.2493 34.9514 3 1.67508e-05 -4.12136
2815 1 12.3624 16.2454 34.9481 3 2.38271e-05 -4.12145
2816 1 11.5386 16.2469 32.6177 3 2.12736e-05 -4.12142
2817 1 14.0098 16.2417 32.6152 3 2.96514e-05 -4.12153
2818 1 13.1861 16.2436 30.2846 3 2.66114e-05 -4.12149
2819 1 15.6568 16.2369 30.283 3 3.6764e-05 -4.12164
2820 1 14.8333 16.2394 27.952 3 3.3033e-05 -4.12158
2821 1 17.3037 16.2307 27.9517 3 4.51344e-05 -4.12177
2822 1 16.4803 16.234 25.6202 3 4.08175e-05 -4.1217
2823 1 18.9504 16.2229 25.6213 3 5.43021e-05 -4.12192
2824 1 18.1271 16.227 23.2893 3 4.97277e-05 -4.12184
2825 1 20.5972 16.2131 23.292 3 6.19556e-05 -4.12208
2826 1 19.7738 16.2182 20.9594 3 5.84032e-05 -4.122
2827 1 22.2441 16.2014 20.9637 3 6.61208e-05 -4.12222
2828 1 21.4206 16.2075 18.6307 3 6.4717e-05 -4.12215
2829 1 23.8915 16.1879 18.6362 3 6.79042e-05 -4.12231
2830 1 23.0677 16.1948 16.3028 3 6.66786e-05 -4.12228
2831 1 25.5399 16.1732 16.3092 3 7.42338e-05 -4.12231
2832 1 24.7156 16.1806 13.9757 3 6.95989e-05 -4.12233
2833 1 27.1895 16.1587 13.9819 3 9.78802e-05 -4.12221
2834 1 26.3645 16.1658 11.6486 3 8.44593e-05 -4.12226
2835 1 28.8405 16.1461 11.6536 3 0.000136356 -4.12207
2836 1 28.0148 16.152 9.32083 3 0.000115383 -4.12214
2837 1 30.493 16.1375 9.32426 3 0.000172908 -4.12195
2838 1 29.6666 16.1412 6.99204 3 0.000156902 -4.122
2839 1 32.1462 16.1345 6.99409 3 0.000187554 -4.12191
2840 1 31.3195 16.1352 4.66219 3 0.000184305 -4.12191
2841 1 33.7994 16.1375 4.66392 3 0.000172908 -4.12195
2842 1 32.9729 16.1352 2.3319 3 0.000184305 -4.12191
2843 1 35.4518 16.1461 2.33455 3 0.000136356 -4.12207
2844 1 34.6258 16.1412 0.00204988 3 0.000156902 -4.122
2845 1 37.1029 16.1587 0.00632433 3 9.78802e-05 -4.12221
2846 1 3.2961 14.2151 47.7873 3 3.23214e-06 -4.12125
2847 1 5.76799 14.2141 47.7834 3 5.39305e-06 -4.12128
2848 1 4.94405 14.2145 45.4533 3 4.55723e-06 -4.12127
2849 1 7.41576 14.2131 45.4496 3 7.47029e-06 -4.12131
2850 1 6.59189 14.2137 43.1194 3 6.36415e-06 -4.12129
2851 1 9.06338 14.2117 43.116 3 1.00079e-05 -4.12135
2852 1 8.23959 14.2125 40.7857 3 8.67982e-06 -4.12133
2853 1 10.7108 14.2099 40.7828 3 1.30888e-05 -4.12141
2854 1 9.88713 14.2109 38.4524 3 1.14808e-05 -4.12138
2855 1 12.3581 14.2074 38.4501 3 1.67473e-05 -4.12149
2856 1 11.5345 14.2087 36.1194 3 1.48334e-05 -4.12145
2857 1 14.0052 14.2042 36.1178 3 2.11522e-05 -4.12158
2858 1 13.1817 14.2059 33.7868 3 1.88353e-05 -4.12153
2859 1 15.6522 14.2001 33.7862 3 2.63636e-05 -4.12169
2860 1 14.8288 14.2023 31.4549 3 2.36476e-05 -4.12163
2861 1 17.2992 14.1949 31.4554 3 3.23328e-05 -4.12182
2862 1 16.4757 14.1977 29.1237 3 2.92764e-05 -4.12175
2863 1 18.9462 14.1884 29.1253 3 3.83868e-05 -4.12196
2864 1 18.1227 14.1918 26.7932 3 3.54186e-05 -4.12189
2865 1 20.5934 14.1805 26.796 3 4.35488e-05 -4.1221
2866 1 19.7697 14.1846 24.4635 3 4.11553e-05 -4.12204
2867 1 22.241 14.1712 24.4675 3 4.67426e-05 -4.12223
2868 1 21.4171 14.176 22.1346 3 4.5344e-05 -4.12217
2869 1 23.8892 14.1607 22.1393 3 4.93307e-05 -4.12229
2870 1 23.065 14.166 19.8063 3 4.80863e-05 -4.12227
2871 1 25.5384 14.1496 19.8111 3 5.45391e-05 -4.12229
2872 1 24.7137 14.1551 17.4782 3 5.12515e-05 -4.1223
2873 1 27.1888 14.1389 17.4824 3 6.4013e-05 -4.12223
2874 1 26.3634 14.1441 15.1498 3 5.86761e-05 -4.12227
2875 1 28.8403 14.13 15.1529 3 7.68747e-05 -4.12214
2876 1 28.0144 14.1342 12.8207 3 7.04226e-05 -4.12219
2877 1 30.493 14.124 12.8223 3 8.6905e-05 -4.12207
2878 1 29.6665 14.1265 10.4906 3 8.24054e-05 -4.1221
2879 1 32.1462 14.1218 10.4911 3 9.05667e-05 -4.12205
2880 1 31.3195 14.1224 8.15972 3 8.95175e-05 -4.12205
2881 1 33.7994 14.124 8.15996 3 8.6905e-05 -4.12207
2882 1 32.9728 14.1224 5.82846 3 8.95175e-05 -4.12205
2883 1 35.452 14.13 5.82942 3 7.68747e-05 -4.12214
2884 1 34.6258 14.1265 3.49754 3 8.24054e-05 -4.1221
2885 1 37.1036 14.1389 3.49983 3 6.4013e-05 -4.12223
2886 1 36.278 14.1342 1.16745 3 7.04226e-05 -4.12219
2887 1 38.754 14.1496 1.17114 3 5.45391e-05 -4.12229
2888 1 6.5906 12.1745 46.6191 3 4.66645e-06 -4.1213
2889 1 9.06174 12.173 46.6167 3 7.64719e-06 -4.12137
2890 1 8.23805 12.1736 44.2861 3 6.53893e-06 -4.12134
2891 1 10.709 12.1715 44.2841 3 1.0204e-05 -4.12143
2892 1 9.8854 12.1723 41.9533 3 8.86561e-06 -4.1214
2893 1 12.3562 12.1695 41.9518 3 1.32864e-05 -4.12151
2894 1 11.5326 12.1705 39.6208 3 1.16842e-05 -4.12147
2895 1 14.0033 12.167 39.62 3 1.696e-05 -4.1216
2896 1 13.1798 12.1683 37.2888 3 1.50383e-05 -4.12155
2897 1 15.6504 12.1637 37.2888 3 2.12196e-05 -4.12172
2898 1 14.8269 12.1654 34.9573 3 1.90293e-05 -4.12166
2899 1 17.2975 12.1597 34.9581 3 2.59688e-05 -4.12185
2900 1 16.4739 12.1618 32.6263 3 2.35533e-05 -4.12178
2901 1 18.9448 12.1547 32.628 3 3.06999e-05 -4.12199
2902 1 18.1211 12.1573 30.2959 3 2.83747e-05 -4.12192
2903 1 20.5923 12.1488 30.2985 3 3.4873e-05 -4.12212
2904 1 19.7685 12.1519 27.9661 3 3.2903e-05 -4.12206
2905 1 22.2404 12.1419 27.9694 3 3.79539e-05 -4.12223
2906 1 21.4163 12.1454 25.6369 3 3.65501e-05 -4.12218
2907 1 23.8891 12.1343 25.6404 3 3.99465e-05 -4.12229
2908 1 23.0646 12.1381 23.3079 3 3.90209e-05 -4.12227
2909 1 25.5387 12.1265 23.3113 3 4.13515e-05 -4.1223
2910 1 24.7138 12.1304 20.9788 3 4.0753e-05 -4.1223
2911 1 27.1893 12.1192 20.9816 3 4.21966e-05 -4.12227
2912 1 26.3639 12.1227 18.6494 3 4.18121e-05 -4.12229
2913 1 28.8409 12.1131 18.6511 3 4.21562e-05 -4.12221
2914 1 28.015 12.1159 16.3194 3 4.23375e-05 -4.12224
2915 1 30.4933 12.1091 16.3199 3 4.129e-05 -4.12217
2916 1 29.667 12.1108 13.9885 3 4.17801e-05 -4.12219
2917 1 32.1462 12.1077 13.9882 3 4.0718e-05 -4.12215
2918 1 31.3197 12.1081 11.657 3 4.08755e-05 -4.12215
2919 1 33.7991 12.1091 11.6565 3 4.129e-05 -4.12217
2920 1 32.9727 12.1081 9.32526 3 4.08755e-05 -4.12215
2921 1 35.4515 12.1131 9.32528 3 4.21562e-05 -4.12221
2922 1 34.6254 12.1108 6.99376 3 4.17801e-05 -4.12219
2923 1 37.1031 12.1192 6.9948 3 4.21966e-05 -4.12227
2924 1 36.2774 12.1159 4.66289 3 4.23375e-05 -4.12224
2925 1 38.7537 12.1265 4.6651 3 4.13515e-05 -4.1223
2926 1 37.9285 12.1227 2.33282 3 4.18121e-05 -4.12229
2927 1 40.4033 12.1343 2.33594 3 3.99465e-05 -4.12229
2928 1 39.5786 12.1304 0.00342485 3 4.0753e-05 -4.1223
2929 1 42.052 12.1419 0.00697548 3 3.79539e-05 -4.12223
2930 1 8.23807 10.1346 47.7864 3 5.78122e-06 -4.12135
2931 1 10.7092 10.1331 47.7851 3 9.3077e-06 -4.12144
2932 1 9.8855 10.1336 45.4541 3 8.00335e-06 -4.1214
2933 1 12.3565 10.1317 45.4533 3 1.23825e-05 -4.12152
2934 1 11.5329 10.1324 43.1221 3 1.07709e-05 -4.12148
2935 1 14.0038 10.1299 43.1217 3 1.60209e-05 -4.12162
2936 1 13.1802 10.1309 40.7904 3 1.41216e-05 -4.12157
2937 1 15.6511 10.1277 40.7906 3 2.02669e-05 -4.12173
2938 1 14.8274 10.1289 38.4591 3 1.80735e-05 -4.12167
2939 1 17.2985 10.125 38.4598 3 2.48652e-05 -4.12186
2940 1 16.4748 10.1264 36.1281 3 2.25344e-05 -4.1218
2941 1 18.946 10.1216 36.1295 3 2.94988e-05 -4.122
2942 1 18.1222 10.1234 33.7976 3 2.72157e-05 -4.12193
2943 1 20.5938 10.1177 33.7995 3 3.34479e-05 -4.12212
2944 1 19.7699 10.1197 31.4674 3 3.15915e-05 -4.12206
2945 1 22.2421 10.1133 31.4697 3 3.59659e-05 -4.12223
2946 1 21.4179 10.1155 29.1376 3 3.49545e-05 -4.12218
2947 1 23.891 10.1084 29.14 3 3.64192e-05 -4.12229
2948 1 23.0665 10.1109 26.8078 3 3.64631e-05 -4.12226
2949 1 25.5407 10.1036 26.81 3 3.42984e-05 -4.12232
2950 1 24.7157 10.106 24.478 3 3.56476e-05 -4.12231
2951 1 27.1911 10.0991 24.4795 3 2.99467e-05 -4.12231
2952 1 26.3658 10.1013 22.1478 3 3.23597e-05 -4.12232
2953 1 28.8423 10.0955 22.1486 3 2.43617e-05 -4.12228
2954 1 28.0166 10.0972 19.8171 3 2.71846e-05 -4.1223
2955 1 30.4941 10.0931 19.817 3 1.95249e-05 -4.12226
2956 1 29.6681 10.0941 17.4858 3 2.16891e-05 -4.12227
2957 1 32.1462 10.0923 17.4852 3 1.75892e-05 -4.12225
2958 1 31.3201 10.0925 15.1541 3 1.80722e-05 -4.12225
2959 1 33.7983 10.0931 15.1534 3 1.95249e-05 -4.12226
2960 1 32.9723 10.0925 12.8222 3 1.80722e-05 -4.12225
2961 1 35.4501 10.0955 12.8219 3 2.43617e-05 -4.12228
2962 1 34.6243 10.0941 10.4905 3 2.16891e-05 -4.12227
2963 1 37.1013 10.0991 10.4909 3 2.99467e-05 -4.12231
2964 1 36.2758 10.0972 8.15928 3 2.71846e-05 -4.1223
2965 1 38.7517 10.1036 8.16047 3 3.42984e-05 -4.12232
2966 1 37.9266 10.1013 5.82857 3 3.23597e-05 -4.12232
2967 1 40.4014 10.1084 5.83048 3 3.64192e-05 -4.12229
2968 1 39.5766 10.106 3.49839 3 3.56475e-05 -4.12231
2969 1 42.0503 10.1133 3.50072 3 3.59659e-05 -4.12223
2970 1 41.2259 10.1109 1.16854 3 3.64632e-05 -4.12226
2971 1 43.6985 10.1177 1.17094 3 3.34479e-05 -4.12212
2972 1 11.5351 8.09453 46.6232 3 1.22123e-05 -4.12238
2973 1 14.0067 8.09323 46.6231 3 1.91851e-05 -4.12245
2974 1 13.1829 8.09372 44.2917 3 1.66182e-05 -4.12242
2975 1 15.6544 8.0921 44.2919 3 2.50478e-05 -4.1225
2976 1 14.8306 8.0927 41.9604 3 2.20015e-05 -4.12247
2977 1 17.3022 8.09072 41.9609 3 3.15331e-05 -4.12255
2978 1 16.4783 8.09145 39.6293 3 2.82377e-05 -4.12253
2979 1 18.9501 8.08907 39.6301 3 3.79166e-05 -4.12261
2980 1 18.1262 8.08993 37.2984 3 3.48085e-05 -4.12258
2981 1 20.5982 8.08717 37.2994 3 4.30693e-05 -4.12264
2982 1 19.7741 8.08815 34.9677 3 4.07387e-05 -4.12263
2983 1 22.2466 8.08504 34.9689 3 4.55675e-05 -4.12266
2984 1 21.4224 8.08613 32.6371 3 4.4711e-05 -4.12265
2985 1 23.8954 8.08279 32.6383 3 4.43184e-05 -4.12265
2986 1 23.071 8.08392 30.3066 3 4.54803e-05 -4.12266
2987 1 25.5447 8.08055 30.3076 3 3.91003e-05 -4.12261
2988 1 24.72 8.08166 27.976 3 4.21417e-05 -4.12263
2989 1 27.1945 8.07852 27.9767 3 3.09872e-05 -4.12255
2990 1 26.3695 8.0795 25.6452 3 3.52893e-05 -4.12258
2991 1 28.8448 8.07688 25.6455 3 2.23158e-05 -4.12249
2992 1 28.0196 8.07764 23.3141 3 2.65645e-05 -4.12252
2993 1 30.4954 8.07582 23.3139 3 1.57327e-05 -4.12245
2994 1 29.67 8.07627 20.9827 3 1.86093e-05 -4.12247
2995 1 32.1462 8.07545 20.9823 3 1.32918e-05 -4.12244
2996 1 31.3208 8.07554 18.6511 3 1.39194e-05 -4.12244
2997 1 33.797 8.07582 18.6506 3 1.57327e-05 -4.12245
2998 1 32.9716 8.07554 16.3194 3 1.39194e-05 -4.12244
2999 1 35.4476 8.07688 16.3191 3 2.23158e-05 -4.12249
3000 1 34.6224 8.07627 13.9878 3 1.86093e-05 -4.12247
3001 1 37.0979 8.07852 13.9878 3 3.09872e-05 -4.12255
3002 1 36.2728 8.07764 11.6564 3 2.65645e-05 -4.12252
3003 1 38.7477 8.08055 11.6569 3 3.91003e-05 -4.12261
3004 1 37.9228 8.0795 9.32529 3 3.52892e-05 -4.12258
3005 1 40.3969 8.08279 9.3262 3 4.43185e-05 -4.12265
3006 1 39.5724 8.08166 6.99447 3 4.21417e-05 -4.12263
3007 1 42.0457 8.08504 6.99564 3 4.55676e-05 -4.12266
3008 1 41.2214 8.08392 4.66386 3 4.54804e-05 -4.12266
3009 1 43.6942 8.08717 4.6651 3 4.30693e-05 -4.12264
3010 1 42.87 8.08613 2.33333 3 4.47111e-05 -4.12265
3011 1 45.3423 8.08907 2.33448 3 3.79166e-05 -4.12261
3012 1 44.5182 8.08815 0.00276296 3 4.07387e-05 -4.12263
3013 1 46.9902 8.09072 0.00368348 3 3.15332e-05 -4.12255
3014 1 13.1882 6.05706 47.7929 3 0.000712434 -4.12219
3015 1 15.661 6.05706 47.7929 3 0.000629865 -4.12221
3016 1 14.8367 6.05706 45.4616 3 0.000660325 -4.1222
3017 1 17.3095 6.05706 45.4616 3 0.000560309 -4.12222
3018 1 16.4852 6.05706 43.1302 3 0.00059647 -4.12222
3019 1 18.958 6.05706 43.1302 3 0.000480835 -4.12222
3020 1 18.1337 6.05706 40.7989 3 0.000521624 -4.12222
3021 1 20.6065 6.05706 40.7989 3 0.000394982 -4.12221
3022 1 19.7823 6.05706 38.4675 3 0.000438416 -4.12221
3023 1 22.2551 6.05706 38.4675 3 0.000307777 -4.12218
3024 1 21.4308 6.05706 36.1361 3 0.000351215 -4.12219
3025 1 23.9036 6.05706 36.1361 3 0.000224709 -4.12215
3026 1 23.0793 6.05706 33.8048 3 0.000265393 -4.12217
3027 1 25.5521 6.05706 33.8048 3 0.000150566 -4.12211
3028 1 24.7278 6.05706 31.4734 3 0.000186264 -4.12213
3029 1 27.2006 6.05706 31.4734 3 8.89404e-05 -4.12208
3030 1 26.3764 6.05706 29.142 3 0.000118019 -4.1221
3031 1 28.8491 6.05706 29.142 3 4.24251e-05 -4.12206
3032 1 28.0249 6.05706 26.8107 3 6.36484e-05 -4.12207
3033 1 30.4977 6.05706 26.8107 3 1.32761e-05 -4.12205
3034 1 29.6734 6.05706 24.4793 3 2.55494e-05 -4.12205
3035 1 32.1462 6.05706 24.4793 3 3.3144e-06 -4.12204
3036 1 31.3219 6.05706 22.1479 3 5.81593e-06 -4.12204
3037 1 33.7947 6.05706 22.1479 3 1.3276e-05 -4.12205
3038 1 32.9705 6.05706 19.8166 3 5.81592e-06 -4.12204
3039 1 35.4432 6.05706 19.8166 3 4.24253e-05 -4.12206
3040 1 34.619 6.05706 17.4852 3 2.55496e-05 -4.12205
3041 1 37.0918 6.05706 17.4852 3 8.89403e-05 -4.12208
3042 1 36.2675 6.05706 15.1539 3 6.36482e-05 -4.12207
3043 1 38.7403 6.05706 15.1539 3 0.000150565 -4.12211
3044 1 37.916 6.05706 12.8225 3 0.000118019 -4.1221
3045 1 40.3888 6.05706 12.8225 3 0.000224709 -4.12215
3046 1 39.5645 6.05706 10.4911 3 0.000186264 -4.12213
3047 1 42.0373 6.05706 10.4911 3 0.000307778 -4.12218
3048 1 41.2131 6.05706 8.15977 3 0.000265394 -4.12217
3049 1 43.6859 6.05706 8.15977 3 0.000394982 -4.12221
3050 1 42.8616 6.05706 5.82841 3 0.000351215 -4.12219
3051 1 45.3344 6.05706 5.82841 3 0.000480835 -4.12222
3052 1 44.5101 6.05706 3.49704 3 0.000438416 -4.12221
3053 1 46.9829 6.05706 3.49704 3 0.000560309 -4.12222
3054 1 46.1586 6.05706 1.16568 3 0.000521624 -4.12222
3055 1 48.6314 6.05706 1.16568 3 0.000629864 -4.12221
3056 1 16.4852 4.03804 46.6273 3 4.0169e-16 -4.12165
3057 1 18.958 4.03804 46.6273 3 1.69002e-18 -4.12177
3058 1 18.1337 4.03804 44.2959 3 1e-16 -4.12172
3059 1 20.6065 4.03804 44.2959 3 1e-16 -4.12186
3060 1 19.7823 4.03804 41.9645 3 1e-16 -4.12181
3061 1 22.2551 4.03804 41.9645 3 4e-16 -4.12197
3062 1 21.4308 4.03804 39.6332 3 4e-16 -4.12192
3063 1 23.9036 4.03804 39.6332 3 1e-16 -4.12208
3064 1 23.0793 4.03804 37.3018 3 1e-16 -4.12203
3065 1 25.5521 4.03804 37.3018 3 1.51461e-28 -4.12219
3066 1 24.7278 4.03804 34.9704 3 2.01948e-28 -4.12214
3067 1 27.2006 4.03804 34.9704 3 1e-16 -4.1223
3068 1 26.3764 4.03804 32.6391 3 1e-16 -4.12225
3069 1 28.8491 4.03804 32.6391 3 4e-16 -4.12238
3070 1 28.0249 4.03804 30.3077 3 3.99999e-16 -4.12234
3071 1 30.4977 4.03804 30.3077 3 9.99999e-17 -4.12243
3072 1 29.6734 4.03804 27.9764 3 1e-16 -4.12241
3073 1 32.1462 4.03804 27.9764 3 9.99999e-17 -4.12245
3074 1 31.3219 4.03804 25.645 3 1.51461e-28 -4.12244
3075 1 33.7947 4.03804 25.645 3 4.00001e-16 -4.12243
3076 1 32.9705 4.03804 23.3136 3 9.99999e-17 -4.12244
3077 1 35.4432 4.03804 23.3136 3 1e-16 -4.12238
3078 1 34.619 4.03804 20.9823 3 4e-16 -4.12241
3079 1 37.0918 4.03804 20.9823 3 0 -4.1223
3080 1 36.2675 4.03804 18.6509 3 1e-16 -4.12234
3081 1 38.7403 4.03804 18.6509 3 1e-16 -4.12219
3082 1 37.916 4.03804 16.3195 3 9.08768e-28 -4.12225
3083 1 40.3888 4.03804 16.3195 3 3.99999e-16 -4.12208
3084 1 39.5645 4.03804 13.9882 3 1e-16 -4.12214
3085 1 42.0373 4.03804 13.9882 3 1e-16 -4.12197
3086 1 41.2131 4.03804 11.6568 3 4.00001e-16 -4.12203
3087 1 43.6859 4.03804 11.6568 3 2.01948e-28 -4.12186
3088 1 42.8616 4.03804 9.32545 3 9.99999e-17 -4.12192
3089 1 45.3344 4.03804 9.32545 3 9.99999e-17 -4.12177
3090 1 44.5101 4.03804 6.99409 3 2.01948e-28 -4.12181
3091 1 46.9829 4.03804 6.99409 3 3.99999e-16 -4.12168
3092 1 46.1586 4.03804 4.66273 3 9.99999e-17 -4.12172
3093 1 48.6314 4.03804 4.66273 3 9.99999e-17 -4.12161
3094 1 47.8072 4.03804 2.33136 3 3.99999e-16 -4.12165
3095 1 50.2799 4.03804 2.33136 3 2.01948e-28 -4.12156
3096 1 49.4557 4.03804 0 3 1.0507e-16 -4.12158
3097 1 51.9285 4.03804 0 3 1.0507e-16 -4.12151
3098 1 18.1337 2.01902 47.7929 3 1.0507e-16 -4.10627
3099 1 20.6065 2.01902 47.7929 3 1.0507e-16 -4.10627
3100 1 19.7823 2.01902 45.4616 3 1e-16 -4.10627
3101 1 22.2551 2.01902 45.4616 3 4e-16 -4.10627
3102 1 21.4308 2.01902 43.1302 3 4e-16 -4.10627
3103 1 23.9036 2.01902 43.1302 3 1e-16 -4.10627
3104 1 23.0793 2.01902 40.7989 3 1e-16 -4.10627
3105 1 25.5521 2.01902 40.7989 3 7.57306e-28 -4.10627
3106 1 24.7278 2.01902 38.4675 3 0 -4.10627
3107 1 27.2006 2.01902 38.4675 3 1e-16 -4.10627
3108 1 26.3764 2.01902 36.1361 3 1e-16 -4.10627
3109 1 28.8491 2.01902 36.1361 3 4e-16 -4.10627
3110 1 28.0249 2.01902 33.8048 3 3.99999e-16 -4.10627
3111 1 30.4977 2.01902 33.8048 3 9.99999e-17 -4.10627
3112 1 29.6734 2.01902 31.4734 3 1e-16 -4.10627
3113 1 32.1462 2.01902 31.4734 3 9.99999e-17 -4.10627
3114 1 31.3219 2.01902 29.142 3 1.51461e-28 -4.10627
3115 1 33.7947 2.01902 29.142 3 4.00001e-16 -4.10627
3116 1 32.9705 2.01902 26.8107 3 9.99999e-17 -4.10627
3117 1 35.4432 2.01902 26.8107 3 1e-16 -4.10627
3118 1 34.619 2.01902 24.4793 3 4e-16 -4.10627
3119 1 37.0918 2.01902 24.4793 3 1.00974e-28 -4.10627
3120 1 36.2675 2.01902 22.1479 3 1e-16 -4.10627
3121 1 38.7403 2.01902 22.1479 3 1e-16 -4.10627
3122 1 37.916 2.01902 19.8166 3 8.07794e-28 -4.10627
3123 1 40.3888 2.01902 19.8166 3 3.99999e-16 -4.10627
3124 1 39.5645 2.01902 17.4852 3 1e-16 -4.10627
3125 1 42.0373 2.01902 17.4852 3 1e-16 -4.10627
3126 1 41.2131 2.01902 15.1539 3 4.00001e-16 -4.10627
3127 1 43.6859 2.01902 15.1539 3 2.01948e-28 -4.10627
3128 1 42.8616 2.01902 12.8225 3 9.99999e-17 -4.10627
3129 1 45.3344 2.01902 12.8225 3 9.99999e-17 -4.10627
3130 1 44.5101 2.01902 10.4911 3 2.01948e-28 -4.10627
3131 1 46.9829 2.01902 10.4911 3 3.99999e-16 -4.10627
3132 1 46.1586 2.01902 8.15977 3 9.99999e-17 -4.10627
3133 1 48.6314 2.01902 8.15977 3 9.99999e-17 -4.10627
3134 1 47.8072 2.01902 5.82841 3 3.99999e-16 -4.10627
3135 1 50.2799 2.01902 5.82841 3 2.05104e-28 -4.10627
3136 1 49.4557 2.01902 3.49704 3 9.99999e-17 -4.10627
3137 1 51.9285 2.01902 3.49704 3 1e-16 -4.10627
3138 1 51.1042 2.01902 1.16568 3 1.0169e-16 -4.10627
3139 1 53.577 2.01902 1.16568 3 4.01689e-16 -4.10627
3140 1 21.4308 0 46.6273 5 12.2293 -3.54465
3141 1 23.9036 0 46.6273 5 12.2293 -3.54465
3142 1 23.0793 0 44.2959 5 12.2293 -3.54465
3143 1 25.5521 0 44.2959 5 12.2293 -3.54465
3144 1 24.7278 0 41.9645 5 12.2293 -3.54465
3145 1 27.2006 0 41.9645 5 12.2293 -3.54465
3146 1 26.3764 0 39.6332 5 12.2293 -3.54465
3147 1 28.8491 0 39.6332 5 12.2293 -3.54465
3148 1 28.0249 0 37.3018 5 12.2293 -3.54465
3149 1 30.4977 0 37.3018 5 12.2293 -3.54465
3150 1 29.6734 0 34.9704 5 12.2293 -3.54465
3151 1 32.1462 0 34.9704 5 12.2293 -3.54465
3152 1 31.3219 0 32.6391 5 12.2293 -3.54465
3153 1 33.7947 0 32.6391 5 12.2293 -3.54465
3154 1 32.9705 0 30.3077 5 12.2293 -3.54465
3155 1 35.4432 0 30.3077 5 12.2293 -3.54465
3156 1 34.619 0 27.9764 5 12.2293 -3.54465
3157 1 37.0918 0 27.9764 5 12.2293 -3.54465
3158 1 36.2675 0 25.645 5 12.2293 -3.54465
3159 1 38.7403 0 25.645 5 12.2293 -3.54465
3160 1 37.916 0 23.3136 5 12.2293 -3.54465
3161 1 40.3888 0 23.3136 5 12.2293 -3.54465
3162 1 39.5645 0 20.9823 5 12.2293 -3.54465
3163 1 42.0373 0 20.9823 5 12.2293 -3.54465
3164 1 41.2131 0 18.6509 5 12.2293 -3.54465
3165 1 43.6859 0 18.6509 5 12.2293 -3.54465
3166 1 42.8616 0 16.3195 5 12.2293 -3.54465
3167 1 45.3344 0 16.3195 5 12.2293 -3.54465
3168 1 44.5101 0 13.9882 5 12.2293 -3.54465
3169 1 46.9829 0 13.9882 5 12.2293 -3.54465
3170 1 46.1586 0 11.6568 5 12.2293 -3.54465
3171 1 48.6314 0 11.6568 5 12.2293 -3.54465
3172 1 47.8072 0 9.32545 5 12.2293 -3.54465
3173 1 50.2799 0 9.32545 5 12.2293 -3.54465
3174 1 49.4557 0 6.99409 5 12.2293 -3.54465
3175 1 51.9285 0 6.99409 5 12.2293 -3.54465
3176 1 51.1042 0 4.66273 5 12.2293 -3.54465
3177 1 53.577 0 4.66273 5 12.2293 -3.54465
3178 1 52.7527 0 2.33136 5 12.2293 -3.54465
3179 1 55.2255 0 2.33136 5 12.2293 -3.54465
3180 1 54.4012 0 0 5 12.2293 -3.54465
3181 1 56.874 0 0 5 12.2293 -3.54465
3182 1 0.836204 30.4855 33.8037 3 0.000105686 -4.11957
3183 1 1.6356e-11 30.4855 31.4734 3 0.000105291 -4.11957
3184 1 2.50858 30.4855 31.4702 3 0.000108707 -4.11953
3185 1 1.6724 30.4855 29.1399 3 0.000106788 -4.11955
3186 1 4.18088 30.4855 29.1366 3 0.00011515 -4.11946
3187 1 3.34474 30.4855 26.8064 3 0.000111484 -4.1195
3188 1 5.85301 30.4855 26.803 3 0.00012591 -4.11935
3189 1 5.01696 30.4855 24.4728 3 0.000119916 -4.11941
3190 1 7.52491 30.4854 24.4693 3 0.00014236 -4.11919
3191 1 6.68899 30.4855 22.1391 3 0.000133238 -4.11928
3192 1 9.19651 30.485 22.1354 3 0.000166986 -4.11899
3193 1 8.36075 30.4852 19.8053 3 0.000153492 -4.1191
3194 1 10.8677 30.4843 19.8012 3 0.000205009 -4.11871
3195 1 10.0321 30.4847 17.4713 3 0.000184032 -4.11886
3196 1 12.5383 30.483 17.4668 3 0.000264672 -4.11835
3197 1 11.7031 30.4837 15.137 3 0.000230689 -4.11855
3198 1 14.2083 30.481 15.132 3 0.000360429 -4.11788
3199 1 13.3734 30.4821 12.8024 3 0.000307261 -4.11813
3200 1 15.8772 30.478 12.7966 3 0.000536516 -4.11718
3201 1 15.0428 30.4796 10.4674 3 0.00043741 -4.11755
3202 1 17.5448 30.4737 10.4604 3 0.000873927 -4.11615
3203 1 16.7113 30.476 8.1316 3 0.000663448 -4.11678
3204 1 19.211 30.4677 8.123 3 0.00152376 -4.11468
3205 1 18.378 30.4709 5.7949 3 0.00115263 -4.11545
3206 1 20.8736 30.4599 5.7838 3 0.00325419 -4.11174
3207 1 20.0425 30.4641 3.45662 3 0.00225363 -4.11327
3208 1 22.5319 30.4496 3.44131 3 0.00806511 -4.10618
3209 1 21.7047 30.455 1.11589 3 0.00467582 -4.10997
3210 1 24.1862 30.4356 1.09342 3 0.0215462 -4.09544
3211 1 0.833257 28.4603 37.3002 3 8.7341e-05 -4.12034
3212 1 1.69526e-11 28.4603 34.9704 3 8.67783e-05 -4.12034
3213 1 2.49971 28.4603 34.9655 3 9.16039e-05 -4.12031
3214 1 1.6665 28.4603 32.6358 3 8.89242e-05 -4.12033
3215 1 4.16598 28.4603 32.6308 3 0.00010083 -4.12026
3216 1 3.33288 28.4603 30.3012 3 9.55617e-05 -4.12029
3217 1 5.83193 28.4601 30.296 3 0.0001163 -4.12018
3218 1 4.999 28.4602 27.9664 3 0.000107615 -4.12022
3219 1 7.49742 28.4599 27.9611 3 0.000140466 -4.12007
3220 1 6.66474 28.46 25.6315 3 0.000127086 -4.12013
3221 1 9.16228 28.4593 25.6259 3 0.000177766 -4.11992
3222 1 8.32994 28.4596 23.2965 3 0.000157242 -4.12
3223 1 10.8263 28.4583 23.2904 3 0.000235341 -4.11973
3224 1 9.99441 28.4589 20.9611 3 0.000203071 -4.11983
3225 1 12.4893 28.4568 20.9545 3 0.000324049 -4.1195
3226 1 11.6579 28.4577 18.6255 3 0.000274991 -4.11962
3227 1 14.1508 28.4544 18.6181 3 0.000468853 -4.11918
3228 1 13.3203 28.4557 16.2894 3 0.000389026 -4.11935
3229 1 15.8107 28.4509 16.2811 3 0.00070721 -4.1188
3230 1 14.981 28.4528 13.9527 3 0.000568438 -4.119
3231 1 17.4683 28.4459 13.9431 3 0.00108856 -4.11827
3232 1 16.6397 28.4486 11.6152 3 0.000876386 -4.11854
3233 1 19.1227 28.4391 11.6039 3 0.00177465 -4.11755
3234 1 18.296 28.4428 9.27658 3 0.00140198 -4.11796
3235 1 20.7736 28.4297 9.26287 3 0.00297164 -4.11672
3236 1 19.9489 28.4347 6.93659 3 0.00224084 -4.11713
3237 1 22.4195 28.4167 6.91978 3 0.00483509 -4.11549
3238 1 21.5969 28.4237 4.59465 3 0.00380236 -4.11608
3239 1 24.0575 28.3979 4.57383 3 0.00848892 -4.1156
3240 1 23.2399 28.4085 2.24995 3 0.00657172 -4.11542
3241 1 25.6893 28.3672 2.22553 3 0.0118046 -4.12298
3242 1 24.875 28.3848 48.8615 3 0.0101215 -4.1172
3243 1 27.3116 28.3192 48.8425 3 0.0126047 -4.12069
3244 1 0.830696 26.4316 40.7968 3 6.2287e-05 -4.12081
3245 1 1.58659e-11 26.4316 38.4675 3 6.17375e-05 -4.12081
3246 1 2.49201 26.4316 38.4613 3 6.69749e-05 -4.12079
3247 1 1.66137 26.4316 36.132 3 6.40226e-05 -4.1208
3248 1 4.15311 26.4314 36.1258 3 7.68698e-05 -4.12076
3249 1 3.3226 26.4315 33.7965 3 7.11953e-05 -4.12078
3250 1 5.81382 26.4311 33.7902 3 9.31828e-05 -4.12071
3251 1 4.98352 26.4313 31.461 3 8.41623e-05 -4.12073
3252 1 7.47397 26.4306 31.4544 3 0.000117893 -4.12064
3253 1 6.64398 26.4309 29.1253 3 0.000104313 -4.12068
3254 1 9.13339 26.4297 29.1184 3 0.000154012 -4.12056
3255 1 8.30379 26.4302 26.7894 3 0.000134239 -4.1206
3256 1 10.7919 26.4283 26.7822 3 0.000205992 -4.12045
3257 1 9.96276 26.4291 24.4533 3 0.000177741 -4.12051
3258 1 12.4492 26.4263 24.4457 3 0.000280837 -4.12034
3259 1 11.6207 26.4274 22.117 3 0.000240231 -4.1204
3260 1 14.105 26.4232 22.1088 3 0.000387257 -4.12021
3261 1 13.2773 26.4249 19.7803 3 0.000328903 -4.12028
3262 1 15.759 26.4189 19.7714 3 0.000535789 -4.12007
3263 1 14.9323 26.4212 17.4431 3 0.000455557 -4.12015
3264 1 17.411 26.4129 17.4335 3 0.000743912 -4.11996
3265 1 16.5853 26.4161 15.1055 3 0.000632901 -4.12001
3266 1 19.0603 26.4047 15.0951 3 0.00102489 -4.11984
3267 1 18.236 26.4091 12.7674 3 0.000872325 -4.11987
3268 1 20.7065 26.3934 12.7562 3 0.00138945 -4.11976
3269 1 19.8839 26.3995 10.4286 3 0.00119292 -4.11984
3270 1 22.3494 26.378 10.4171 3 0.00186971 -4.12017
3271 1 21.5285 26.3863 8.08959 3 0.00161523 -4.11988
3272 1 23.988 26.356 8.07925 3 0.00242576 -4.12132
3273 1 23.169 26.3679 5.75092 3 0.00221009 -4.12044
3274 1 25.6217 26.3231 5.74565 3 0.00253655 -4.12157
3275 1 24.8057 26.3415 3.41443 3 0.00249975 -4.12221
3276 1 27.2545 26.2828 3.41595 3 0.00270402 -4.12349
3277 1 26.4385 26.3041 1.08293 3 0.00259635 -4.12219
3278 1 28.8844 26.2327 1.09818 3 0.00356947 -4.12193
3279 1 0.828615 24.4 44.2936 3 3.97215e-05 -4.12106
3280 1 1.41739e-11 24.4 41.9645 3 3.92233e-05 -4.12106
3281 1 2.48577 24.3999 41.9577 3 4.36992e-05 -4.12105
3282 1 1.65721 24.3999 39.6286 3 4.12123e-05 -4.12106
3283 1 4.14271 24.3996 39.6217 3 5.19585e-05 -4.12103
3284 1 3.31427 24.3997 37.2927 3 4.72763e-05 -4.12104
3285 1 5.79927 24.3991 37.2857 3 6.50271e-05 -4.12101
3286 1 4.97105 24.3994 34.9567 3 5.7818e-05 -4.12102
3287 1 7.45531 24.3983 34.9496 3 8.38841e-05 -4.12097
3288 1 6.62737 24.3987 32.6206 3 7.36744e-05 -4.12099
3289 1 9.11066 24.3971 32.6134 3 0.000109773 -4.12094
3290 1 8.28308 24.3978 30.2845 3 9.58963e-05 -4.12096
3291 1 10.7652 24.3953 30.2771 3 0.000144175 -4.1209
3292 1 9.93802 24.3963 27.9482 3 0.000125794 -4.12092
3293 1 12.4186 24.3927 27.9407 3 0.000188817 -4.12087
3294 1 11.592 24.3941 25.6119 3 0.000165048 -4.12088
3295 1 14.0708 24.3891 25.6041 3 0.000245271 -4.12085
3296 1 13.2449 24.391 23.2754 3 0.000215508 -4.12085
3297 1 15.7216 24.3841 23.2675 3 0.000315312 -4.12084
3298 1 14.8964 24.3868 20.9388 3 0.000278721 -4.12084
3299 1 17.3707 24.3772 20.9309 3 0.000400063 -4.12086
3300 1 16.5463 24.3809 18.6021 3 0.00035533 -4.12085
3301 1 19.0179 24.368 18.5944 3 0.00049893 -4.12096
3302 1 18.1945 24.373 16.2656 3 0.000447393 -4.12091
3303 1 20.663 24.3557 16.2587 3 0.000623091 -4.12114
3304 1 19.8407 24.3623 13.9294 3 0.000559055 -4.12101
3305 1 22.3058 24.339 13.9242 3 0.000793814 -4.12154
3306 1 21.4848 24.348 11.5941 3 0.000697935 -4.12134
3307 1 23.9465 24.3164 11.5924 3 0.000884572 -4.12224
3308 1 23.1265 24.3286 9.26087 3 0.000852825 -4.12188
3309 1 25.5851 24.2866 9.26459 3 0.000942039 -4.12252
3310 1 24.7657 24.302 6.93113 3 0.000915784 -4.12218
3311 1 27.2228 24.2502 6.94148 3 0.000954188 -4.12313
3312 1 26.4042 24.2694 4.6051 3 0.000890561 -4.12299
3313 1 28.8614 24.2108 4.62427 3 0.00127742 -4.12238
3314 1 28.042 24.2304 2.28513 3 0.00103223 -4.12292
3315 1 30.5022 24.1766 2.31168 3 0.00310541 -4.11892
3316 1 29.6811 24.1912 48.9295 3 0.00230359 -4.1201
3317 1 32.1462 24.1639 6.45539e-10 3 0.00353295 -4.11927
3318 1 0.827008 22.3659 47.7906 3 2.33734e-05 -4.12118
3319 1 1.25978e-11 22.366 45.4616 3 2.30378e-05 -4.12118
3320 1 2.48096 22.3658 45.4546 3 2.6215e-05 -4.12118
3321 1 1.654 22.3659 43.1256 3 2.44366e-05 -4.12118
3322 1 4.13472 22.3654 43.1186 3 3.19742e-05 -4.12117
3323 1 3.30787 22.3656 40.7896 3 2.87085e-05 -4.12117
3324 1 5.78817 22.3647 40.7826 3 4.08571e-05 -4.12116
3325 1 4.9615 22.3651 38.4535 3 3.60295e-05 -4.12116
3326 1 7.44118 22.3637 38.4466 3 5.29814e-05 -4.12115
3327 1 6.61474 22.3643 36.1175 3 4.64865e-05 -4.12116
3328 1 9.09362 22.3623 36.1106 3 6.86729e-05 -4.12115
3329 1 8.26748 22.3631 33.7815 3 6.03627e-05 -4.12115
3330 1 10.7454 22.3602 33.7746 3 8.81848e-05 -4.12115
3331 1 9.91959 22.3613 31.4455 3 7.79472e-05 -4.12115
3332 1 12.3963 22.3572 31.4387 3 0.000111557 -4.12116
3333 1 11.5709 22.3588 29.1096 3 9.93764e-05 -4.12115
3334 1 14.0463 22.3532 29.103 3 0.000139139 -4.12119
3335 1 13.2214 22.3554 26.7738 3 0.000124819 -4.12117
3336 1 15.6952 22.3478 26.7676 3 0.000170843 -4.12124
3337 1 14.8709 22.3507 24.4382 3 0.000154376 -4.12121
3338 1 17.343 22.3405 24.4326 3 0.000207491 -4.12133
3339 1 16.5192 22.3444 22.103 3 0.000188621 -4.12127
3340 1 18.9894 22.3309 22.0984 3 0.000252583 -4.12146
3341 1 18.1664 22.3361 19.7683 3 0.000228489 -4.12139
3342 1 20.6346 22.3183 19.7654 3 0.000309049 -4.1217
3343 1 19.8122 22.325 17.4346 3 0.000278697 -4.12156
3344 1 22.2785 22.3016 17.4343 3 0.000368054 -4.12203
3345 1 21.4567 22.3105 15.1025 3 0.000344028 -4.12184
3346 1 23.9211 22.28 15.1059 3 0.000399913 -4.12228
3347 1 23.1 22.2915 12.7726 3 0.000385065 -4.12223
3348 1 25.5635 22.2537 12.7802 3 0.000376991 -4.12269
3349 1 24.7423 22.2675 10.4456 3 0.000400036 -4.12247
3350 1 27.206 22.2233 10.4579 3 0.000407281 -4.12259
3351 1 26.3845 22.2388 8.12171 3 0.000390738 -4.12272
3352 1 28.85 22.1924 8.13782 3 0.000773009 -4.12162
3353 1 28.0278 22.2077 5.80052 3 0.000487495 -4.12235
3354 1 30.4971 22.169 5.81761 3 0.00130375 -4.12073
3355 1 29.6732 22.1794 3.48082 3 0.00104397 -4.12115
3356 1 32.1462 22.1599 3.49704 3 0.00169982 -4.12037
3357 1 31.3214 22.1623 1.16036 3 0.00155395 -4.12055
3358 1 33.7953 22.169 1.17647 3 0.00130375 -4.12073
3359 1 1.65162 20.33 46.6228 3 1.38356e-05 -4.12123
3360 1 4.12884 20.3294 46.6162 3 1.86231e-05 -4.12123
3361 1 3.30315 20.3296 44.287 3 1.6574e-05 -4.12123
3362 1 5.78003 20.3286 44.2805 3 2.40917e-05 -4.12123
3363 1 4.95447 20.329 41.9513 3 2.11354e-05 -4.12123
3364 1 7.43088 20.3275 41.9448 3 3.13502e-05 -4.12124
3365 1 6.60551 20.3281 39.6156 3 2.74791e-05 -4.12124
3366 1 9.0813 20.3259 39.6093 3 4.03573e-05 -4.12125
3367 1 8.25615 20.3268 37.28 3 3.5656e-05 -4.12125
3368 1 10.7312 20.3236 37.274 3 5.11013e-05 -4.12128
3369 1 9.90632 20.3248 34.9446 3 4.55093e-05 -4.12126
3370 1 12.3805 20.3205 34.9389 3 6.35758e-05 -4.12131
3371 1 11.5559 20.3222 32.6094 3 5.71186e-05 -4.12129
3372 1 14.0291 20.3164 32.6042 3 7.78494e-05 -4.12137
3373 1 13.2049 20.3186 30.2745 3 7.04686e-05 -4.12134
3374 1 15.677 20.3109 30.27 3 9.4415e-05 -4.12145
3375 1 14.8532 20.3138 27.94 3 8.58048e-05 -4.1214
3376 1 17.3242 20.3036 27.9366 3 0.000114314 -4.12156
3377 1 16.5007 20.3075 25.6062 3 0.000103818 -4.1215
3378 1 18.9705 20.2942 25.6042 3 0.000139213 -4.12171
3379 1 18.1474 20.2992 23.2732 3 0.000126253 -4.12162
3380 1 20.6161 20.2819 23.2732 3 0.000168778 -4.12192
3381 1 19.7934 20.2884 20.9414 3 0.000153538 -4.12181
3382 1 22.2611 20.2663 20.9439 3 0.000189371 -4.12217
3383 1 21.4387 20.2746 18.6113 3 0.000180503 -4.12205
3384 1 23.9058 20.247 18.6168 3 0.000195126 -4.12237
3385 1 23.0835 20.2571 16.2831 3 0.000195796 -4.12225
3386 1 25.5507 20.2244 16.2916 3 0.000190202 -4.12249
3387 1 24.7283 20.2361 13.9569 3 0.000187607 -4.12248
3388 1 27.1967 20.1999 13.9678 3 0.000227087 -4.12234
3389 1 26.3736 20.2123 11.6325 3 0.000196318 -4.12245
3390 1 28.8445 20.1769 11.6443 3 0.000414603 -4.1218
3391 1 28.0203 20.1879 9.30911 3 0.000315416 -4.12203
3392 1 30.4945 20.1601 9.31971 3 0.000651847 -4.12146
3393 1 29.6693 20.1674 6.98507 3 0.000529118 -4.12161
3394 1 32.1462 20.1539 6.99409 3 0.000780966 -4.12122
3395 1 31.3203 20.1554 4.65994 3 0.000753447 -4.12126
3396 1 33.7979 20.1601 4.66847 3 0.000651847 -4.12146
3397 1 32.9721 20.1554 2.33415 3 0.000753447 -4.12126
3398 1 35.4479 20.1769 2.34392 3 0.000414603 -4.1218
3399 1 34.6231 20.1674 0.00902341 3 0.000529118 -4.12161
3400 1 37.0957 20.1999 0.0203771 3 0.000227087 -4.12234
3401 1 3.29979 18.2923 47.7849 3 9.39267e-06 -4.12125
3402 1 5.77427 18.2913 47.7791 3 1.40407e-05 -4.12126
3403 1 4.94949 18.2917 45.4496 3 1.22128e-05 -4.12126
3404 1 7.42363 18.2901 45.444 3 1.84107e-05 -4.12128
3405 1 6.59898 18.2907 43.1145 3 1.61087e-05 -4.12127
3406 1 9.07267 18.2884 43.1091 3 2.37711e-05 -4.12131
3407 1 8.24819 18.2893 40.7795 3 2.09722e-05 -4.12129
3408 1 10.7213 18.2862 40.7745 3 3.00528e-05 -4.12135
3409 1 9.89705 18.2874 38.4448 3 2.67886e-05 -4.12133
3410 1 12.3696 18.2831 38.4403 3 3.74029e-05 -4.1214
3411 1 11.5455 18.2848 36.1103 3 3.35796e-05 -4.12137
3412 1 14.0174 18.2791 36.1066 3 4.59492e-05 -4.12147
3413 1 13.1936 18.2813 33.7763 3 4.14974e-05 -4.12143
3414 1 15.6648 18.2738 33.7735 3 5.62216e-05 -4.12156
3415 1 14.8411 18.2766 31.4429 3 5.08623e-05 -4.12151
3416 1 17.3117 18.2669 31.4413 3 6.88321e-05 -4.12169
3417 1 16.4883 18.2706 29.1103 3 6.21674e-05 -4.12162
3418 1 18.9582 18.2581 29.1101 3 8.36506e-05 -4.12184
3419 1 18.135 18.2628 26.7785 3 7.59839e-05 -4.12176
3420 1 20.6043 18.2469 26.7803 3 9.79354e-05 -4.12203
3421 1 19.7813 18.2528 24.448 3 9.14508e-05 -4.12193
3422 1 22.2504 18.233 24.4519 3 0.000106757 -4.1222
3423 1 21.4274 18.2403 22.1189 3 0.000103086 -4.12212
3424 1 23.8967 18.2165 22.1249 3 0.00010563 -4.12236
3425 1 23.0735 18.2251 19.7912 3 0.000107346 -4.12228
3426 1 25.5436 18.1979 19.799 3 0.00010988 -4.12237
3427 1 24.72 18.2074 17.4648 3 0.00010684 -4.12238
3428 1 27.1918 18.1787 17.4734 3 0.000151304 -4.1222
3429 1 26.3675 18.1883 15.1391 3 0.000121646 -4.12232
3430 1 28.8417 18.1616 15.1471 3 0.000235322 -4.12196
3431 1 28.0165 18.1698 12.8133 3 0.000188657 -4.12208
3432 1 30.4934 18.1496 12.8196 3 0.000338463 -4.12175
3433 1 29.6674 18.1548 10.4865 3 0.000289045 -4.12185
3434 1 32.1462 18.1452 10.4911 3 0.000380854 -4.12167
3435 1 31.3197 18.1464 8.1584 3 0.000368049 -4.1217
3436 1 33.799 18.1496 8.16266 3 0.000338463 -4.12175
3437 1 32.9727 18.1464 5.82978 3 0.000368049 -4.1217
3438 1 35.4506 18.1616 5.83519 3 0.000235322 -4.12196
3439 1 34.625 18.1548 3.50172 3 0.000289045 -4.12185
3440 1 37.1006 18.1787 3.50891 3 0.000151304 -4.1222
3441 1 36.2758 18.1698 1.17487 3 0.000188657 -4.12208
3442 1 38.7488 18.1979 1.1833 3 0.00010988 -4.12237
3443 1 6.59459 16.2525 46.6139 3 9.78719e-06 -4.12129
3444 1 9.06689 16.2503 46.6095 3 1.47552e-05 -4.12134
3445 1 8.24285 16.2512 44.2795 3 1.29271e-05 -4.12132
3446 1 10.7148 16.2482 44.2757 3 1.89217e-05 -4.12139
3447 1 9.89088 16.2493 41.9455 3 1.67508e-05 -4.12136
3448 1 12.3624 16.2454 41.9422 3 2.38271e-05 -4.12145
3449 1 11.5386 16.2469 39.6118 3 2.12736e-05 -4.12142
3450 1 14.0098 16.2417 39.6093 3 2.96514e-05 -4.12153
3451 1 13.1861 16.2436 37.2787 3 2.66114e-05 -4.12149
3452 1 15.6568 16.2369 37.2771 3 3.6764e-05 -4.12164
3453 1 14.8333 16.2394 34.9461 3 3.3033e-05 -4.12158
3454 1 17.3037 16.2307 34.9458 3 4.51344e-05 -4.12177
3455 1 16.4803 16.234 32.6143 3 4.08175e-05 -4.1217
3456 1 18.9504 16.2229 32.6154 3 5.43021e-05 -4.12192
3457 1 18.1271 16.227 30.2834 3 4.97277e-05 -4.12184
3458 1 20.5972 16.2131 30.286 3 6.19556e-05 -4.12208
3459 1 19.7738 16.2182 27.9535 3 5.84032e-05 -4.122
3460 1 22.2441 16.2014 27.9578 3 6.61208e-05 -4.12222
3461 1 21.4206 16.2075 25.6247 3 6.4717e-05 -4.12215
3462 1 23.8915 16.1879 25.6303 3 6.79042e-05 -4.12231
3463 1 23.0677 16.1948 23.2969 3 6.66786e-05 -4.12228
3464 1 25.5399 16.1732 23.3033 3 7.42338e-05 -4.12231
3465 1 24.7156 16.1806 20.9697 3 6.95989e-05 -4.12233
3466 1 27.1895 16.1587 20.9759 3 9.78802e-05 -4.12221
3467 1 26.3645 16.1658 18.6426 3 8.44593e-05 -4.12226
3468 1 28.8405 16.1461 18.6477 3 0.000136356 -4.12207
3469 1 28.0148 16.152 16.3149 3 0.000115383 -4.12214
3470 1 30.493 16.1375 16.3183 3 0.000172908 -4.12195
3471 1 29.6666 16.1412 13.9861 3 0.000156902 -4.122
3472 1 32.1462 16.1345 13.9882 3 0.000187554 -4.12191
3473 1 31.3195 16.1352 11.6563 3 0.000184305 -4.12191
3474 1 33.7994 16.1375 11.658 3 0.000172908 -4.12195
3475 1 32.9729 16.1352 9.32599 3 0.000184305 -4.12191
3476 1 35.4518 16.1461 9.32864 3 0.000136356 -4.12207
3477 1 34.6258 16.1412 6.99614 3 0.000156902 -4.122
3478 1 37.1029 16.1587 7.00041 3 9.78802e-05 -4.12221
3479 1 36.2776 16.152 4.66734 3 0.000115383 -4.12214
3480 1 38.7525 16.1732 4.67309 3 7.42338e-05 -4.12231
3481 1 37.9279 16.1658 2.33962 3 8.44593e-05 -4.12226
3482 1 40.4009 16.1879 2.34603 3 6.79042e-05 -4.12231
3483 1 39.5768 16.1806 0.0125249 3 6.95989e-05 -4.12233
3484 1 42.0483 16.2014 0.0185879 3 6.61208e-05 -4.12222
3485 1 8.23959 14.2125 47.7798 3 8.67982e-06 -4.12133
3486 1 10.7108 14.2099 47.7769 3 1.30888e-05 -4.12141
3487 1 9.88713 14.2109 45.4464 3 1.14808e-05 -4.12138
3488 1 12.3581 14.2074 45.4442 3 1.67473e-05 -4.12149
3489 1 11.5345 14.2087 43.1134 3 1.48334e-05 -4.12145
3490 1 14.0052 14.2042 43.1119 3 2.11522e-05 -4.12158
3491 1 13.1817 14.2059 40.7809 3 1.88353e-05 -4.12153
3492 1 15.6522 14.2001 40.7803 3 2.63636e-05 -4.12169
3493 1 14.8288 14.2023 38.449 3 2.36476e-05 -4.12163
3494 1 17.2992 14.1949 38.4495 3 3.23328e-05 -4.12182
3495 1 16.4757 14.1977 36.1177 3 2.92764e-05 -4.12175
3496 1 18.9462 14.1884 36.1194 3 3.83868e-05 -4.12196
3497 1 18.1227 14.1918 33.7873 3 3.54186e-05 -4.12189
3498 1 20.5934 14.1805 33.7901 3 4.35488e-05 -4.1221
3499 1 19.7697 14.1846 31.4576 3 4.11553e-05 -4.12204
3500 1 22.241 14.1712 31.4616 3 4.67426e-05 -4.12223
3501 1 21.4171 14.176 29.1287 3 4.5344e-05 -4.12217
3502 1 23.8892 14.1607 29.1334 3 4.93307e-05 -4.12229
3503 1 23.065 14.166 26.8004 3 4.80863e-05 -4.12227
3504 1 25.5384 14.1496 26.8052 3 5.45391e-05 -4.12229
3505 1 24.7137 14.1551 24.4723 3 5.12515e-05 -4.1223
3506 1 27.1888 14.1389 24.4765 3 6.4013e-05 -4.12223
3507 1 26.3634 14.1441 22.1439 3 5.86761e-05 -4.12227
3508 1 28.8403 14.13 22.1469 3 7.68747e-05 -4.12214
3509 1 28.0144 14.1342 19.8148 3 7.04226e-05 -4.12219
3510 1 30.493 14.124 19.8164 3 8.6905e-05 -4.12207
3511 1 29.6665 14.1265 17.4847 3 8.24054e-05 -4.1221
3512 1 32.1462 14.1218 17.4852 3 9.05667e-05 -4.12205
3513 1 31.3195 14.1224 15.1538 3 8.95175e-05 -4.12205
3514 1 33.7994 14.124 15.1541 3 8.6905e-05 -4.12207
3515 1 32.9728 14.1224 12.8225 3 8.95175e-05 -4.12205
3516 1 35.452 14.13 12.8235 3 7.68747e-05 -4.12214
3517 1 34.6258 14.1265 10.4916 3 8.24054e-05 -4.1221
3518 1 37.1036 14.1389 10.4939 3 6.4013e-05 -4.12223
3519 1 36.278 14.1342 8.16154 3 7.04226e-05 -4.12219
3520 1 38.754 14.1496 8.16523 3 5.45391e-05 -4.12229
3521 1 37.929 14.1441 5.83244 3 5.86761e-05 -4.12227
3522 1 40.4032 14.1607 5.83705 3 4.93307e-05 -4.12229
3523 1 39.5787 14.1551 3.50407 3 5.12515e-05 -4.1223
3524 1 42.0514 14.1712 3.50889 3 4.67426e-05 -4.12223
3525 1 41.2274 14.166 1.17596 3 4.80863e-05 -4.12227
3526 1 43.699 14.1805 1.18032 3 4.35488e-05 -4.1221
3527 1 11.5326 12.1705 46.6149 3 1.16842e-05 -4.12147
3528 1 14.0033 12.167 46.6141 3 1.696e-05 -4.1216
3529 1 13.1798 12.1683 44.2829 3 1.50383e-05 -4.12155
3530 1 15.6504 12.1637 44.2828 3 2.12196e-05 -4.12172
3531 1 14.8269 12.1654 41.9514 3 1.90293e-05 -4.12166
3532 1 17.2975 12.1597 41.9522 3 2.59688e-05 -4.12185
3533 1 16.4739 12.1618 39.6204 3 2.35533e-05 -4.12178
3534 1 18.9448 12.1547 39.6221 3 3.06999e-05 -4.12199
3535 1 18.1211 12.1573 37.29 3 2.83747e-05 -4.12192
3536 1 20.5923 12.1488 37.2926 3 3.4873e-05 -4.12212
3537 1 19.7685 12.1519 34.9602 3 3.2903e-05 -4.12206
3538 1 22.2404 12.1419 34.9635 3 3.79539e-05 -4.12223
3539 1 21.4163 12.1454 32.6309 3 3.65501e-05 -4.12218
3540 1 23.8891 12.1343 32.6345 3 3.99465e-05 -4.12229
3541 1 23.0646 12.1381 30.3019 3 3.90209e-05 -4.12227
3542 1 25.5387 12.1265 30.3053 3 4.13515e-05 -4.1223
3543 1 24.7138 12.1304 27.9729 3 4.0753e-05 -4.1223
3544 1 27.1893 12.1192 27.9756 3 4.21966e-05 -4.12227
3545 1 26.3639 12.1227 25.6435 3 4.18121e-05 -4.12229
3546 1 28.8409 12.1131 25.6452 3 4.21562e-05 -4.12221
3547 1 28.015 12.1159 23.3135 3 4.23375e-05 -4.12224
3548 1 30.4933 12.1091 23.314 3 4.129e-05 -4.12217
3549 1 29.667 12.1108 20.9826 3 4.17801e-05 -4.12219
3550 1 32.1462 12.1077 20.9823 3 4.0718e-05 -4.12215
3551 1 31.3197 12.1081 18.6511 3 4.08755e-05 -4.12215
3552 1 33.7991 12.1091 18.6506 3 4.129e-05 -4.12217
3553 1 32.9727 12.1081 16.3193 3 4.08755e-05 -4.12215
3554 1 35.4515 12.1131 16.3194 3 4.21562e-05 -4.12221
3555 1 34.6254 12.1108 13.9878 3 4.17801e-05 -4.12219
3556 1 37.1031 12.1192 13.9889 3 4.21966e-05 -4.12227
3557 1 36.2774 12.1159 11.657 3 4.23375e-05 -4.12224
3558 1 38.7537 12.1265 11.6592 3 4.13515e-05 -4.1223
3559 1 37.9285 12.1227 9.32691 3 4.18121e-05 -4.12229
3560 1 40.4033 12.1343 9.33003 3 3.99465e-05 -4.12229
3561 1 39.5786 12.1304 6.99751 3 4.0753e-05 -4.1223
3562 1 42.052 12.1419 7.00106 3 3.79539e-05 -4.12223
3563 1 41.2278 12.1381 4.6685 3 3.90209e-05 -4.12227
3564 1 43.7001 12.1488 4.67196 3 3.4873e-05 -4.12212
3565 1 42.8761 12.1454 2.3395 3 3.65501e-05 -4.12218
3566 1 45.3476 12.1547 2.34244 3 3.06999e-05 -4.12199
3567 1 44.5239 12.1519 0.0102178 3 3.2903e-05 -4.12206
3568 1 46.9949 12.1597 0.0123716 3 2.59688e-05 -4.12185
3569 1 13.1802 10.1309 47.7845 3 1.41216e-05 -4.12157
3570 1 15.6511 10.1277 47.7847 3 2.02669e-05 -4.12173
3571 1 14.8274 10.1289 45.4531 3 1.80735e-05 -4.12167
3572 1 17.2985 10.125 45.4539 3 2.48652e-05 -4.12186
3573 1 16.4748 10.1264 43.1222 3 2.25344e-05 -4.1218
3574 1 18.946 10.1216 43.1236 3 2.94988e-05 -4.122
3575 1 18.1222 10.1234 40.7917 3 2.72157e-05 -4.12193
3576 1 20.5938 10.1177 40.7936 3 3.34479e-05 -4.12212
3577 1 19.7699 10.1197 38.4615 3 3.15915e-05 -4.12206
3578 1 22.2421 10.1133 38.4638 3 3.59659e-05 -4.12223
3579 1 21.4179 10.1155 36.1316 3 3.49545e-05 -4.12218
3580 1 23.891 10.1084 36.1341 3 3.64192e-05 -4.12229
3581 1 23.0665 10.1109 33.8019 3 3.64631e-05 -4.12226
3582 1 25.5407 10.1036 33.8041 3 3.42984e-05 -4.12232
3583 1 24.7157 10.106 31.4721 3 3.56476e-05 -4.12231
3584 1 27.1911 10.0991 31.4736 3 2.99467e-05 -4.12231
3585 1 26.3658 10.1013 29.1419 3 3.23597e-05 -4.12232
3586 1 28.8423 10.0955 29.1426 3 2.43617e-05 -4.12228
3587 1 28.0166 10.0972 26.8112 3 2.71846e-05 -4.1223
3588 1 30.4941 10.0931 26.8111 3 1.95249e-05 -4.12226
3589 1 29.6681 10.0941 24.4799 3 2.16891e-05 -4.12227
3590 1 32.1462 10.0923 24.4793 3 1.75892e-05 -4.12225
3591 1 31.3201 10.0925 22.1482 3 1.80722e-05 -4.12225
3592 1 33.7983 10.0931 22.1475 3 1.95249e-05 -4.12226
3593 1 32.9723 10.0925 19.8163 3 1.80722e-05 -4.12225
3594 1 35.4501 10.0955 19.816 3 2.43617e-05 -4.12228
3595 1 34.6243 10.0941 17.4846 3 2.16891e-05 -4.12227
3596 1 37.1013 10.0991 17.485 3 2.99467e-05 -4.12231
3597 1 36.2758 10.0972 15.1534 3 2.71846e-05 -4.1223
3598 1 38.7517 10.1036 15.1546 3 3.42984e-05 -4.12232
3599 1 37.9266 10.1013 12.8227 3 3.23597e-05 -4.12232
3600 1 40.4014 10.1084 12.8246 3 3.64192e-05 -4.12229
3601 1 39.5766 10.106 10.4925 3 3.56475e-05 -4.12231
3602 1 42.0503 10.1133 10.4948 3 3.59659e-05 -4.12223
3603 1 41.2259 10.1109 8.16263 3 3.64632e-05 -4.12226
3604 1 43.6985 10.1177 8.16503 3 3.34479e-05 -4.12212
3605 1 42.8745 10.1155 5.83289 3 3.49544e-05 -4.12218
3606 1 45.3464 10.1216 5.83504 3 2.94988e-05 -4.122
3607 1 44.5225 10.1197 3.50303 3 3.15915e-05 -4.12206
3608 1 46.9939 10.125 3.5047 3 2.48652e-05 -4.12186
3609 1 46.1702 10.1234 1.17288 3 2.72156e-05 -4.12193
3610 1 48.6413 10.1277 1.17396 3 2.02669e-05 -4.12173
3611 1 16.4783 8.09145 46.6234 3 2.82377e-05 -4.12253
3612 1 18.9501 8.08907 46.6241 3 3.79166e-05 -4.12261
3613 1 18.1262 8.08993 44.2925 3 3.48085e-05 -4.12258
3614 1 20.5982 8.08717 44.2935 3 4.30693e-05 -4.12264
3615 1 19.7741 8.08815 41.9618 3 4.07387e-05 -4.12263
3616 1 22.2466 8.08504 41.963 3 4.55675e-05 -4.12266
3617 1 21.4224 8.08613 39.6312 3 4.4711e-05 -4.12265
3618 1 23.8954 8.08279 39.6324 3 4.43184e-05 -4.12265
3619 1 23.071 8.08392 37.3007 3 4.54803e-05 -4.12266
3620 1 25.5447 8.08055 37.3017 3 3.91003e-05 -4.12261
3621 1 24.72 8.08166 34.9701 3 4.21417e-05 -4.12263
3622 1 27.1945 8.07852 34.9708 3 3.09872e-05 -4.12255
3623 1 26.3695 8.0795 32.6393 3 3.52893e-05 -4.12258
3624 1 28.8448 8.07688 32.6395 3 2.23158e-05 -4.12249
3625 1 28.0196 8.07764 30.3082 3 2.65645e-05 -4.12252
3626 1 30.4954 8.07582 30.308 3 1.57327e-05 -4.12245
3627 1 29.67 8.07627 27.9768 3 1.86093e-05 -4.12247
3628 1 32.1462 8.07545 27.9764 3 1.32918e-05 -4.12244
3629 1 31.3208 8.07554 25.6452 3 1.39194e-05 -4.12244
3630 1 33.797 8.07582 25.6447 3 1.57327e-05 -4.12245
3631 1 32.9716 8.07554 23.3135 3 1.39194e-05 -4.12244
3632 1 35.4476 8.07688 23.3132 3 2.23158e-05 -4.12249
3633 1 34.6224 8.07627 20.9819 3 1.86093e-05 -4.12247
3634 1 37.0979 8.07852 20.9819 3 3.09872e-05 -4.12255
3635 1 36.2728 8.07764 18.6505 3 2.65645e-05 -4.12252
3636 1 38.7477 8.08055 18.651 3 3.91003e-05 -4.12261
3637 1 37.9228 8.0795 16.3194 3 3.52892e-05 -4.12258
3638 1 40.3969 8.08279 16.3203 3 4.43185e-05 -4.12265
3639 1 39.5724 8.08166 13.9886 3 4.21417e-05 -4.12263
3640 1 42.0457 8.08504 13.9897 3 4.55676e-05 -4.12266
3641 1 41.2214 8.08392 11.658 3 4.54804e-05 -4.12266
3642 1 43.6942 8.08717 11.6592 3 4.30692e-05 -4.12264
3643 1 42.87 8.08613 9.32742 3 4.47111e-05 -4.12265
3644 1 45.3423 8.08907 9.32857 3 3.79166e-05 -4.12261
3645 1 44.5182 8.08815 6.99685 3 4.07387e-05 -4.12263
3646 1 46.9902 8.09072 6.99777 3 3.15332e-05 -4.12255
3647 1 46.1662 8.08993 4.66615 3 3.48085e-05 -4.12258
3648 1 48.6379 8.0921 4.66677 3 2.50478e-05 -4.1225
3649 1 47.8141 8.09145 2.33526 3 2.82377e-05 -4.12253
3650 1 50.2857 8.09323 2.33556 3 1.91851e-05 -4.12245
3651 1 49.4618 8.0927 0.00414814 3 2.20015e-05 -4.12247
3652 1 51.9334 8.09415 0.00414738 3 1.42821e-05 -4.1224
3653 1 18.1337 6.05706 47.7929 3 0.000521624 -4.12222
3654 1 20.6065 6.05706 47.7929 3 0.000394982 -4.12221
3655 1 19.7823 6.05706 45.4616 3 0.000438416 -4.12221
3656 1 22.2551 6.05706 45.4616 3 0.000307777 -4.12218
3657 1 21.4308 6.05706 43.1302 3 0.000351215 -4.12219
3658 1 23.9036 6.05706 43.1302 3 0.000224709 -4.12215
3659 1 23.0793 6.05706 40.7989 3 0.000265393 -4.12217
3660 1 25.5521 6.05706 40.7989 3 0.000150566 -4.12211
3661 1 24.7278 6.05706 38.4675 3 0.000186264 -4.12213
3662 1 27.2006 6.05706 38.4675 3 8.89404e-05 -4.12208
3663 1 26.3764 6.05706 36.1361 3 0.000118019 -4.1221
3664 1 28.8491 6.05706 36.1361 3 4.24251e-05 -4.12206
3665 1 28.0249 6.05706 33.8048 3 6.36484e-05 -4.12207
3666 1 30.4977 6.05706 33.8048 3 1.32761e-05 -4.12205
3667 1 29.6734 6.05706 31.4734 3 2.55494e-05 -4.12205
3668 1 32.1462 6.05706 31.4734 3 3.3144e-06 -4.12204
3669 1 31.3219 6.05706 29.142 3 5.81593e-06 -4.12204
3670 1 33.7947 6.05706 29.142 3 1.3276e-05 -4.12205
3671 1 32.9705 6.05706 26.8107 3 5.81592e-06 -4.12204
3672 1 35.4432 6.05706 26.8107 3 4.24253e-05 -4.12206
3673 1 34.619 6.05706 24.4793 3 2.55496e-05 -4.12205
3674 1 37.0918 6.05706 24.4793 3 8.89403e-05 -4.12208
3675 1 36.2675 6.05706 22.1479 3 6.36482e-05 -4.12207
3676 1 38.7403 6.05706 22.1479 3 0.000150565 -4.12211
3677 1 37.916 6.05706 19.8166 3 0.000118019 -4.1221
3678 1 40.3888 6.05706 19.8166 3 0.000224709 -4.12215
3679 1 39.5645 6.05706 17.4852 3 0.000186264 -4.12213
3680 1 42.0373 6.05706 17.4852 3 0.000307778 -4.12218
3681 1 41.2131 6.05706 15.1539 3 0.000265394 -4.12217
3682 1 43.6859 6.05706 15.1539 3 0.000394982 -4.12221
3683 1 42.8616 6.05706 12.8225 3 0.000351215 -4.12219
3684 1 45.3344 6.05706 12.8225 3 0.000480835 -4.12222
3685 1 44.5101 6.05706 10.4911 3 0.000438416 -4.12221
3686 1 46.9829 6.05706 10.4911 3 0.000560309 -4.12222
3687 1 46.1586 6.05706 8.15977 3 0.000521624 -4.12222
3688 1 48.6314 6.05706 8.15977 3 0.000629864 -4.12221
3689 1 47.8072 6.05706 5.82841 3 0.000596471 -4.12222
3690 1 50.2799 6.05706 5.82841 3 0.000687853 -4.1222
3691 1 49.4557 6.05706 3.49704 3 0.000660325 -4.1222
3692 1 51.9285 6.05706 3.49704 3 0.000734204 -4.12218
3693 1 51.1042 6.05706 1.16568 3 0.000712434 -4.12219
3694 1 53.577 6.05706 1.16568 3 0.000769854 -4.12216
3695 1 21.4308 4.03804 46.6273 3 4.01691e-16 -4.12192
3696 1 23.9036 4.03804 46.6273 3 1.0169e-16 -4.12208
3697 1 23.0793 4.03804 44.2959 3 1e-16 -4.12203
3698 1 25.5521 4.03804 44.2959 3 1.51461e-28 -4.12219
3699 1 24.7278 4.03804 41.9645 3 0 -4.12214
3700 1 27.2006 4.03804 41.9645 3 1e-16 -4.1223
3701 1 26.3764 4.03804 39.6332 3 1e-16 -4.12225
3702 1 28.8491 4.03804 39.6332 3 4e-16 -4.12238
3703 1 28.0249 4.03804 37.3018 3 3.99999e-16 -4.12234
3704 1 30.4977 4.03804 37.3018 3 9.99999e-17 -4.12243
3705 1 29.6734 4.03804 34.9704 3 1e-16 -4.12241
3706 1 32.1462 4.03804 34.9704 3 9.99999e-17 -4.12245
3707 1 31.3219 4.03804 32.6391 3 2.01948e-28 -4.12244
3708 1 33.7947 4.03804 32.6391 3 4.00001e-16 -4.12243
3709 1 32.9705 4.03804 30.3077 3 9.99999e-17 -4.12244
3710 1 35.4432 4.03804 30.3077 3 1e-16 -4.12238
3711 1 34.619 4.03804 27.9764 3 4e-16 -4.12241
3712 1 37.0918 4.03804 27.9764 3 1.51461e-28 -4.1223
3713 1 36.2675 4.03804 25.645 3 1e-16 -4.12234
3714 1 38.7403 4.03804 25.645 3 1e-16 -4.12219
3715 1 37.916 4.03804 23.3136 3 8.07794e-28 -4.12225
3716 1 40.3888 4.03804 23.3136 3 3.99999e-16 -4.12208
3717 1 39.5645 4.03804 20.9823 3 1e-16 -4.12214
3718 1 42.0373 4.03804 20.9823 3 1e-16 -4.12197
3719 1 41.2131 4.03804 18.6509 3 4.00001e-16 -4.12203
3720 1 43.6859 4.03804 18.6509 3 2.01948e-28 -4.12186
3721 1 42.8616 4.03804 16.3195 3 9.99999e-17 -4.12192
3722 1 45.3344 4.03804 16.3195 3 9.99999e-17 -4.12177
3723 1 44.5101 4.03804 13.9882 3 2.27192e-28 -4.12181
3724 1 46.9829 4.03804 13.9882 3 3.99999e-16 -4.12168
3725 1 46.1586 4.03804 11.6568 3 9.99999e-17 -4.12172
3726 1 48.6314 4.03804 11.6568 3 9.99999e-17 -4.12161
3727 1 47.8072 4.03804 9.32545 3 3.99999e-16 -4.12165
3728 1 50.2799 4.03804 9.32545 3 2.01948e-28 -4.12156
3729 1 49.4557 4.03804 6.99409 3 9.99999e-17 -4.12158
3730 1 51.9285 4.03804 6.99409 3 1e-16 -4.12151
3731 1 51.1042 4.03804 4.66273 3 9.99999e-17 -4.12153
3732 1 53.577 4.03804 4.66273 3 3.99999e-16 -4.12147
3733 1 52.7527 4.03804 2.33136 3 4.00001e-16 -4.12149
3734 1 55.2255 4.03804 2.33136 3 1e-16 -4.12144
3735 1 54.4012 4.03804 0 3 1.0507e-16 -4.12146
3736 1 56.874 4.03804 0 3 5.07001e-18 -4.12142
3737 1 23.0793 2.01902 47.7929 3 1.0507e-16 -4.10627
3738 1 25.5521 2.01902 47.7929 3 5.06996e-18 -4.10627
3739 1 24.7278 2.01902 45.4616 3 0 -4.10627
3740 1 27.2006 2.01902 45.4616 3 1e-16 -4.10627
3741 1 26.3764 2.01902 43.1302 3 1e-16 -4.10627
3742 1 28.8491 2.01902 43.1302 3 4e-16 -4.10627
3743 1 28.0249 2.01902 40.7989 3 3.99999e-16 -4.10627
3744 1 30.4977 2.01902 40.7989 3 9.99999e-17 -4.10627
3745 1 29.6734 2.01902 38.4675 3 1e-16 -4.10627
3746 1 32.1462 2.01902 38.4675 3 9.99999e-17 -4.10627
3747 1 31.3219 2.01902 36.1361 3 6.05845e-28 -4.10627
3748 1 33.7947 2.01902 36.1361 3 4.00001e-16 -4.10627
3749 1 32.9705 2.01902 33.8048 3 9.99999e-17 -4.10627
3750 1 35.4432 2.01902 33.8048 3 1e-16 -4.10627
3751 1 34.619 2.01902 31.4734 3 4e-16 -4.10627
3752 1 37.0918 2.01902 31.4734 3 5.04871e-29 -4.10627
3753 1 36.2675 2.01902 29.142 3 1e-16 -4.10627
3754 1 38.7403 2.01902 29.142 3 1e-16 -4.10627
3755 1 37.916 2.01902 26.8107 3 8.07794e-28 -4.10627
3756 1 40.3888 2.01902 26.8107 3 3.99999e-16 -4.10627
3757 1 39.5645 2.01902 24.4793 3 1e-16 -4.10627
3758 1 42.0373 2.01902 24.4793 3 1e-16 -4.10627
3759 1 41.2131 2.01902 22.1479 3 4.00001e-16 -4.10627
3760 1 43.6859 2.01902 22.1479 3 2.01948e-28 -4.10627
3761 1 42.8616 2.01902 19.8166 3 9.99999e-17 -4.10627
3762 1 45.3344 2.01902 19.8166 3 9.99999e-17 -4.10627
3763 1 44.5101 2.01902 17.4852 3 3.02923e-28 -4.10627
3764 1 46.9829 2.01902 17.4852 3 3.99999e-16 -4.10627
3765 1 46.1586 2.01902 15.1539 3 9.99999e-17 -4.10627
3766 1 48.6314 2.01902 15.1539 3 9.99999e-17 -4.10627
3767 1 47.8072 2.01902 12.8225 3 3.99999e-16 -4.10627
3768 1 50.2799 2.01902 12.8225 3 2.39814e-28 -4.10627
3769 1 49.4557 2.01902 10.4911 3 9.99999e-17 -4.10627
3770 1 51.9285 2.01902 10.4911 3 1e-16 -4.10627
3771 1 51.1042 2.01902 8.15977 3 9.99999e-17 -4.10627
3772 1 53.577 2.01902 8.15977 3 3.99999e-16 -4.10627
3773 1 52.7527 2.01902 5.82841 3 4.00001e-16 -4.10627
3774 1 55.2255 2.01902 5.82841 3 1e-16 -4.10627
3775 1 54.4012 2.01902 3.49704 3 1e-16 -4.10627
3776 1 56.874 2.01902 3.49704 3 7.88861e-31 -4.10627
3777 1 56.0498 2.01902 1.16568 3 1.69e-18 -4.10627
3778 1 58.5226 2.01902 1.16568 3 1.0169e-16 -4.10627
3779 1 26.3764 0 46.6273 5 12.2293 -3.54465
3780 1 28.8491 0 46.6273 5 12.2293 -3.54465
3781 1 28.0249 0 44.2959 5 12.2293 -3.54465
3782 1 30.4977 0 44.2959 5 12.2293 -3.54465
3783 1 29.6734 0 41.9645 5 12.2293 -3.54465
3784 1 32.1462 0 41.9645 5 12.2293 -3.54465
3785 1 31.3219 0 39.6332 5 12.2293 -3.54465
3786 1 33.7947 0 39.6332 5 12.2293 -3.54465
3787 1 32.9705 0 37.3018 5 12.2293 -3.54465
3788 1 35.4432 0 37.3018 5 12.2293 -3.54465
3789 1 34.619 0 34.9704 5 12.2293 -3.54465
3790 1 37.0918 0 34.9704 5 12.2293 -3.54465
3791 1 36.2675 0 32.6391 5 12.2293 -3.54465
3792 1 38.7403 0 32.6391 5 12.2293 -3.54465
3793 1 37.916 0 30.3077 5 12.2293 -3.54465
3794 1 40.3888 0 30.3077 5 12.2293 -3.54465
3795 1 39.5645 0 27.9764 5 12.2293 -3.54465
3796 1 42.0373 0 27.9764 5 12.2293 -3.54465
3797 1 41.2131 0 25.645 5 12.2293 -3.54465
3798 1 43.6859 0 25.645 5 12.2293 -3.54465
3799 1 42.8616 0 23.3136 5 12.2293 -3.54465
3800 1 45.3344 0 23.3136 5 12.2293 -3.54465
3801 1 44.5101 0 20.9823 5 12.2293 -3.54465
3802 1 46.9829 0 20.9823 5 12.2293 -3.54465
3803 1 46.1586 0 18.6509 5 12.2293 -3.54465
3804 1 48.6314 0 18.6509 5 12.2293 -3.54465
3805 1 47.8072 0 16.3195 5 12.2293 -3.54465
3806 1 50.2799 0 16.3195 5 12.2293 -3.54465
3807 1 49.4557 0 13.9882 5 12.2293 -3.54465
3808 1 51.9285 0 13.9882 5 12.2293 -3.54465
3809 1 51.1042 0 11.6568 5 12.2293 -3.54465
3810 1 53.577 0 11.6568 5 12.2293 -3.54465
3811 1 52.7527 0 9.32545 5 12.2293 -3.54465
3812 1 55.2255 0 9.32545 5 12.2293 -3.54465
3813 1 54.4012 0 6.99409 5 12.2293 -3.54465
3814 1 56.874 0 6.99409 5 12.2293 -3.54465
3815 1 56.0498 0 4.66273 5 12.2293 -3.54465
3816 1 58.5226 0 4.66273 5 12.2293 -3.54465
3817 1 57.6983 0 2.33136 5 12.2293 -3.54465
3818 1 60.1711 0 2.33136 5 12.2293 -3.54465
3819 1 59.3468 0 0 5 12.2293 -3.54465
3820 1 61.8196 0 0 5 12.2293 -3.54465
3821 1 0.836204 30.4855 40.7978 3 0.000105686 -4.11957
3822 1 2.45105e-11 30.4855 38.4675 3 0.000105291 -4.11957
3823 1 2.50858 30.4855 38.4643 3 0.000108707 -4.11953
3824 1 1.6724 30.4855 36.134 3 0.000106788 -4.11955
3825 1 4.18088 30.4855 36.1307 3 0.00011515 -4.11946
3826 1 3.34474 30.4855 33.8005 3 0.000111484 -4.1195
3827 1 5.85301 30.4855 33.7971 3 0.00012591 -4.11935
3828 1 5.01696 30.4855 31.4669 3 0.000119916 -4.11941
3829 1 7.52491 30.4854 31.4634 3 0.00014236 -4.11919
3830 1 6.68899 30.4855 29.1332 3 0.000133238 -4.11928
3831 1 9.19651 30.485 29.1294 3 0.000166986 -4.11899
3832 1 8.36075 30.4852 26.7994 3 0.000153492 -4.1191
3833 1 10.8677 30.4843 26.7953 3 0.000205009 -4.11871
3834 1 10.0321 30.4847 24.4654 3 0.000184032 -4.11886
3835 1 12.5383 30.483 24.4609 3 0.000264672 -4.11835
3836 1 11.7031 30.4837 22.1311 3 0.000230689 -4.11855
3837 1 14.2083 30.481 22.1261 3 0.000360429 -4.11788
3838 1 13.3734 30.4821 19.7965 3 0.000307261 -4.11813
3839 1 15.8772 30.478 19.7907 3 0.000536516 -4.11718
3840 1 15.0428 30.4796 17.4614 3 0.00043741 -4.11755
3841 1 17.5448 30.4737 17.4545 3 0.000873927 -4.11615
3842 1 16.7113 30.476 15.1257 3 0.000663448 -4.11678
3843 1 19.211 30.4677 15.1171 3 0.00152376 -4.11468
3844 1 18.378 30.4709 12.789 3 0.00115263 -4.11545
3845 1 20.8736 30.4599 12.7779 3 0.00325419 -4.11174
3846 1 20.0425 30.4641 10.4507 3 0.00225363 -4.11327
3847 1 22.5319 30.4496 10.4354 3 0.00806511 -4.10618
3848 1 21.7047 30.455 8.10998 3 0.00467582 -4.10997
3849 1 24.1862 30.4356 8.08751 3 0.0215462 -4.09544
3850 1 23.3589 30.4432 5.7657 3 0.0130334 -4.10166
3851 1 25.8204 30.414 5.72788 3 0.0954364 -4.05808
3852 1 25.0033 30.4266 3.41309 3 0.0487191 -4.07866
3853 1 27.4243 30.3474 3.33845 3 5.11537 -4.00147
3854 1 26.6376 30.3951 1.03942 3 0.167103 -4.03237
3855 1 29.0294 30.3016 0.961653 5 4.50623 -3.98757
3856 1 0.833257 28.4603 44.2943 3 8.7341e-05 -4.12034
3857 1 2.23254e-11 28.4603 41.9645 3 8.67783e-05 -4.12034
3858 1 2.49971 28.4603 41.9596 3 9.16039e-05 -4.12031
3859 1 1.6665 28.4603 39.6299 3 8.89242e-05 -4.12033
3860 1 4.16598 28.4603 39.6249 3 0.00010083 -4.12026
3861 1 3.33288 28.4603 37.2952 3 9.55617e-05 -4.12029
3862 1 5.83193 28.4601 37.2901 3 0.0001163 -4.12018
3863 1 4.999 28.4602 34.9605 3 0.000107615 -4.12022
3864 1 7.49742 28.4599 34.9551 3 0.000140466 -4.12007
3865 1 6.66474 28.46 32.6256 3 0.000127086 -4.12013
3866 1 9.16228 28.4593 32.62 3 0.000177766 -4.11992
3867 1 8.32994 28.4596 30.2905 3 0.000157242 -4.12
3868 1 10.8263 28.4583 30.2845 3 0.000235341 -4.11973
3869 1 9.99441 28.4589 27.9552 3 0.000203071 -4.11983
3870 1 12.4893 28.4568 27.9486 3 0.000324049 -4.1195
3871 1 11.6579 28.4577 25.6196 3 0.000274991 -4.11962
3872 1 14.1508 28.4544 25.6122 3 0.000468853 -4.11918
3873 1 13.3203 28.4557 23.2835 3 0.000389026 -4.11935
3874 1 15.8107 28.4509 23.2752 3 0.00070721 -4.1188
3875 1 14.981 28.4528 20.9468 3 0.000568438 -4.119
3876 1 17.4683 28.4459 20.9372 3 0.00108856 -4.11827
3877 1 16.6397 28.4486 18.6093 3 0.000876386 -4.11854
3878 1 19.1227 28.4391 18.5979 3 0.00177465 -4.11755
3879 1 18.296 28.4428 16.2707 3 0.00140198 -4.11796
3880 1 20.7736 28.4297 16.257 3 0.00297164 -4.11672
3881 1 19.9489 28.4347 13.9307 3 0.00224084 -4.11713
3882 1 22.4195 28.4167 13.9139 3 0.00483509 -4.11549
3883 1 21.5969 28.4237 11.5887 3 0.00380236 -4.11608
3884 1 24.0575 28.3979 11.5679 3 0.00848892 -4.1156
3885 1 23.2399 28.4085 9.24404 3 0.00657172 -4.11542
3886 1 25.6893 28.3672 9.21962 3 0.0118046 -4.12298
3887 1 24.875 28.3848 6.89698 3 0.0101215 -4.1172
3888 1 27.3116 28.3192 6.87801 3 0.0126047 -4.12069
3889 1 26.4984 28.342 4.55232 3 0.0117188 -4.12211
3890 1 28.9306 28.2612 4.54467 3 0.0139267 -4.11512
3891 1 28.1253 28.2912 2.20917 3 0.0108747 -4.11667
3892 1 30.543 28.2101 2.2548 3 0.0163236 -4.11343
3893 1 29.7378 28.2337 48.8557 3 0.0161729 -4.11454
3894 1 32.1462 28.1701 6.46538e-10 3 0.0485463 -4.09016
3895 1 0.830696 26.4316 47.7909 3 6.2287e-05 -4.12081
3896 1 1.67195e-11 26.4316 45.4616 3 6.17375e-05 -4.12081
3897 1 2.49201 26.4316 45.4554 3 6.69749e-05 -4.12079
3898 1 1.66137 26.4316 43.1261 3 6.40226e-05 -4.1208
3899 1 4.15311 26.4314 43.1199 3 7.68698e-05 -4.12076
3900 1 3.3226 26.4315 40.7906 3 7.11953e-05 -4.12078
3901 1 5.81382 26.4311 40.7843 3 9.31828e-05 -4.12071
3902 1 4.98352 26.4313 38.455 3 8.41623e-05 -4.12073
3903 1 7.47397 26.4306 38.4485 3 0.000117893 -4.12064
3904 1 6.64398 26.4309 36.1194 3 0.000104313 -4.12068
3905 1 9.13339 26.4297 36.1125 3 0.000154012 -4.12056
3906 1 8.30379 26.4302 33.7835 3 0.000134239 -4.1206
3907 1 10.7919 26.4283 33.7763 3 0.000205992 -4.12045
3908 1 9.96276 26.4291 31.4474 3 0.000177741 -4.12051
3909 1 12.4492 26.4263 31.4398 3 0.000280837 -4.12034
3910 1 11.6207 26.4274 29.1111 3 0.000240231 -4.1204
3911 1 14.105 26.4232 29.1029 3 0.000387257 -4.12021
3912 1 13.2773 26.4249 26.7744 3 0.000328903 -4.12028
3913 1 15.759 26.4189 26.7655 3 0.000535789 -4.12007
3914 1 14.9323 26.4212 24.4372 3 0.000455557 -4.12015
3915 1 17.411 26.4129 24.4276 3 0.000743912 -4.11996
3916 1 16.5853 26.4161 22.0996 3 0.000632901 -4.12001
3917 1 19.0603 26.4047 22.0892 3 0.00102489 -4.11984
3918 1 18.236 26.4091 19.7614 3 0.000872325 -4.11987
3919 1 20.7065 26.3934 19.7503 3 0.00138945 -4.11976
3920 1 19.8839 26.3995 17.4227 3 0.00119292 -4.11984
3921 1 22.3494 26.378 17.4112 3 0.00186971 -4.12017
3922 1 21.5285 26.3863 15.0837 3 0.00161523 -4.11988
3923 1 23.988 26.356 15.0733 3 0.00242576 -4.12132
3924 1 23.169 26.3679 12.745 3 0.00221009 -4.12044
3925 1 25.6217 26.3231 12.7397 3 0.00253655 -4.12157
3926 1 24.8057 26.3415 10.4085 3 0.00249975 -4.12221
3927 1 27.2545 26.2828 10.41 3 0.00270402 -4.12349
3928 1 26.4385 26.3041 8.07702 3 0.00259635 -4.12219
3929 1 28.8844 26.2327 8.09227 3 0.00356947 -4.12193
3930 1 28.0687 26.2585 5.75284 3 0.00322313 -4.12373
3931 1 30.5129 26.1844 5.79146 3 0.00816207 -4.11663
3932 1 29.6995 26.2083 3.44187 3 0.00443349 -4.12078
3933 1 32.1462 26.1677 3.49704 3 0.0089096 -4.11296
3934 1 31.3291 26.1714 1.14759 3 0.00960164 -4.11429
3935 1 33.7795 26.1844 1.20263 3 0.00816207 -4.11663
3936 1 1.65721 24.3999 46.6227 3 4.12123e-05 -4.12106
3937 1 4.14271 24.3996 46.6158 3 5.19585e-05 -4.12103
3938 1 3.31427 24.3997 44.2868 3 4.72763e-05 -4.12104
3939 1 5.79927 24.3991 44.2798 3 6.50271e-05 -4.12101
3940 1 4.97105 24.3994 41.9508 3 5.7818e-05 -4.12102
3941 1 7.45531 24.3983 41.9437 3 8.38841e-05 -4.12097
3942 1 6.62737 24.3987 39.6147 3 7.36744e-05 -4.12099
3943 1 9.11066 24.3971 39.6075 3 0.000109773 -4.12094
3944 1 8.28308 24.3978 37.2786 3 9.58963e-05 -4.12096
3945 1 10.7652 24.3953 37.2712 3 0.000144175 -4.1209
3946 1 9.93802 24.3963 34.9423 3 0.000125794 -4.12092
3947 1 12.4186 24.3927 34.9348 3 0.000188817 -4.12087
3948 1 11.592 24.3941 32.606 3 0.000165048 -4.12088
3949 1 14.0708 24.3891 32.5982 3 0.000245271 -4.12085
3950 1 13.2449 24.391 30.2695 3 0.000215508 -4.12085
3951 1 15.7216 24.3841 30.2616 3 0.000315312 -4.12084
3952 1 14.8964 24.3868 27.9329 3 0.000278721 -4.12084
3953 1 17.3707 24.3772 27.925 3 0.000400063 -4.12086
3954 1 16.5463 24.3809 25.5962 3 0.00035533 -4.12085
3955 1 19.0179 24.368 25.5885 3 0.00049893 -4.12096
3956 1 18.1945 24.373 23.2597 3 0.000447393 -4.12091
3957 1 20.663 24.3557 23.2527 3 0.000623091 -4.12114
3958 1 19.8407 24.3623 20.9235 3 0.000559055 -4.12101
3959 1 22.3058 24.339 20.9183 3 0.000793814 -4.12154
3960 1 21.4848 24.348 18.5882 3 0.000697935 -4.12134
3961 1 23.9465 24.3164 18.5865 3 0.000884572 -4.12224
3962 1 23.1265 24.3286 16.255 3 0.000852825 -4.12188
3963 1 25.5851 24.2866 16.2587 3 0.000942039 -4.12252
3964 1 24.7657 24.302 13.9252 3 0.000915784 -4.12218
3965 1 27.2228 24.2502 13.9356 3 0.000954188 -4.12313
3966 1 26.4042 24.2694 11.5992 3 0.000890561 -4.12299
3967 1 28.8614 24.2108 11.6184 3 0.00127742 -4.12238
3968 1 28.042 24.2304 9.27922 3 0.00103223 -4.12292
3969 1 30.5022 24.1766 9.30577 3 0.00310541 -4.11892
3970 1 29.6811 24.1912 6.96499 3 0.00230359 -4.1201
3971 1 32.1462 24.1639 6.99409 3 0.00353295 -4.11927
3972 1 31.3242 24.1672 4.65251 3 0.00347281 -4.11881
3973 1 33.7902 24.1766 4.68241 3 0.00310541 -4.11892
3974 1 32.9682 24.1672 2.34158 3 0.00347281 -4.11881
3975 1 35.4309 24.2108 2.36982 3 0.00127742 -4.12238
3976 1 34.6113 24.1912 0.0291042 3 0.00230359 -4.1201
3977 1 37.0696 24.2502 0.0526132 3 0.000954188 -4.12313
3978 1 3.30787 22.3656 47.7836 3 2.87085e-05 -4.12117
3979 1 5.78817 22.3647 47.7767 3 4.08571e-05 -4.12116
3980 1 4.9615 22.3651 45.4476 3 3.60295e-05 -4.12116
3981 1 7.44118 22.3637 45.4406 3 5.29814e-05 -4.12115
3982 1 6.61474 22.3643 43.1116 3 4.64865e-05 -4.12116
3983 1 9.09362 22.3623 43.1047 3 6.86729e-05 -4.12115
3984 1 8.26748 22.3631 40.7756 3 6.03627e-05 -4.12115
3985 1 10.7454 22.3602 40.7687 3 8.81848e-05 -4.12115
3986 1 9.91959 22.3613 38.4396 3 7.79472e-05 -4.12115
3987 1 12.3963 22.3572 38.4328 3 0.000111557 -4.12116
3988 1 11.5709 22.3588 36.1037 3 9.93764e-05 -4.12115
3989 1 14.0463 22.3532 36.0971 3 0.000139139 -4.12119
3990 1 13.2214 22.3554 33.7679 3 0.000124819 -4.12117
3991 1 15.6952 22.3478 33.7617 3 0.000170843 -4.12124
3992 1 14.8709 22.3507 31.4323 3 0.000154376 -4.12121
3993 1 17.343 22.3405 31.4267 3 0.000207491 -4.12133
3994 1 16.5192 22.3444 29.0971 3 0.000188621 -4.12127
3995 1 18.9894 22.3309 29.0925 3 0.000252583 -4.12146
3996 1 18.1664 22.3361 26.7624 3 0.000228489 -4.12139
3997 1 20.6346 22.3183 26.7595 3 0.000309049 -4.1217
3998 1 19.8122 22.325 24.4287 3 0.000278697 -4.12156
3999 1 22.2785 22.3016 24.4284 3 0.000368054 -4.12203
4000 1 21.4567 22.3105 22.0966 3 0.000344028 -4.12184
4001 1 23.9211 22.28 22.0999 3 0.000399913 -4.12228
4002 1 23.1 22.2915 19.7667 3 0.000385065 -4.12223
4003 1 25.5635 22.2537 19.7743 3 0.000376991 -4.12269
4004 1 24.7423 22.2675 17.4397 3 0.000400036 -4.12247
4005 1 27.206 22.2233 17.452 3 0.000407281 -4.12259
4006 1 26.3845 22.2388 15.1158 3 0.000390738 -4.12272
4007 1 28.85 22.1924 15.1319 3 0.000773009 -4.12162
4008 1 28.0278 22.2077 12.7946 3 0.000487495 -4.12235
4009 1 30.4971 22.169 12.8117 3 0.00130375 -4.12073
4010 1 29.6732 22.1794 10.4749 3 0.00104397 -4.12115
4011 1 32.1462 22.1599 10.4911 3 0.00169982 -4.12037
4012 1 31.3214 22.1623 8.15445 3 0.00155395 -4.12055
4013 1 33.7953 22.169 8.17056 3 0.00130375 -4.12073
4014 1 32.971 22.1623 5.83373 3 0.00155395 -4.12055
4015 1 35.4424 22.1924 5.85036 3 0.000773009 -4.12162
4016 1 34.6192 22.1794 3.51327 3 0.00104397 -4.12115
4017 1 37.0864 22.2233 3.53028 3 0.000407281 -4.12259
4018 1 36.2646 22.2077 1.19357 3 0.000487495 -4.12235
4019 1 38.7289 22.2537 1.20794 3 0.000376991 -4.12269
4020 1 6.60551 20.3281 46.6097 3 2.74791e-05 -4.12124
4021 1 9.0813 20.3259 46.6034 3 4.03573e-05 -4.12125
4022 1 8.25615 20.3268 44.2741 3 3.5656e-05 -4.12125
4023 1 10.7312 20.3236 44.2681 3 5.11013e-05 -4.12128
4024 1 9.90632 20.3248 41.9387 3 4.55093e-05 -4.12126
4025 1 12.3805 20.3205 41.933 3 6.35758e-05 -4.12131
4026 1 11.5559 20.3222 39.6035 3 5.71186e-05 -4.12129
4027 1 14.0291 20.3164 39.5983 3 7.78494e-05 -4.12137
4028 1 13.2049 20.3186 37.2686 3 7.04686e-05 -4.12134
4029 1 15.677 20.3109 37.2641 3 9.4415e-05 -4.12145
4030 1 14.8532 20.3138 34.9341 3 8.58048e-05 -4.1214
4031 1 17.3242 20.3036 34.9307 3 0.000114314 -4.12156
4032 1 16.5007 20.3075 32.6003 3 0.000103818 -4.1215
4033 1 18.9705 20.2942 32.5983 3 0.000139213 -4.12171
4034 1 18.1474 20.2992 30.2673 3 0.000126253 -4.12162
4035 1 20.6161 20.2819 30.2672 3 0.000168778 -4.12192
4036 1 19.7934 20.2884 27.9355 3 0.000153538 -4.12181
4037 1 22.2611 20.2663 27.938 3 0.000189371 -4.12217
4038 1 21.4387 20.2746 25.6053 3 0.000180503 -4.12205
4039 1 23.9058 20.247 25.6109 3 0.000195126 -4.12237
4040 1 23.0835 20.2571 23.2772 3 0.000195796 -4.12225
4041 1 25.5507 20.2244 23.2857 3 0.000190202 -4.12249
4042 1 24.7283 20.2361 20.951 3 0.000187607 -4.12248
4043 1 27.1967 20.1999 20.9619 3 0.000227087 -4.12234
4044 1 26.3736 20.2123 18.6266 3 0.000196318 -4.12245
4045 1 28.8445 20.1769 18.6384 3 0.000414603 -4.1218
4046 1 28.0203 20.1879 16.3032 3 0.000315416 -4.12203
4047 1 30.4945 20.1601 16.3138 3 0.000651847 -4.12146
4048 1 29.6693 20.1674 13.9792 3 0.000529118 -4.12161
4049 1 32.1462 20.1539 13.9882 3 0.000780966 -4.12122
4050 1 31.3203 20.1554 11.654 3 0.000753447 -4.12126
4051 1 33.7979 20.1601 11.6626 3 0.000651847 -4.12146
4052 1 32.9721 20.1554 9.32824 3 0.000753447 -4.12126
4053 1 35.4479 20.1769 9.33801 3 0.000414603 -4.1218
4054 1 34.6231 20.1674 7.00311 3 0.000529118 -4.12161
4055 1 37.0957 20.1999 7.01447 3 0.000227087 -4.12234
4056 1 36.2721 20.1879 4.67907 3 0.000315416 -4.12203
4057 1 38.7416 20.2244 4.69066 3 0.000190202 -4.12249
4058 1 37.9188 20.2123 2.35564 3 0.000196318 -4.12245
4059 1 40.3865 20.247 2.36549 3 0.000195126 -4.12237
4060 1 39.5641 20.2361 0.0312826 3 0.000187607 -4.12248
4061 1 42.0312 20.2663 0.038328 3 0.000189371 -4.12217
4062 1 8.24819 18.2893 47.7736 3 2.09722e-05 -4.12129
4063 1 10.7213 18.2862 47.7686 3 3.00528e-05 -4.12135
4064 1 9.89705 18.2874 45.4388 3 2.67886e-05 -4.12133
4065 1 12.3696 18.2831 45.4344 3 3.74029e-05 -4.1214
4066 1 11.5455 18.2848 43.1044 3 3.35796e-05 -4.12137
4067 1 14.0174 18.2791 43.1007 3 4.59492e-05 -4.12147
4068 1 13.1936 18.2813 40.7704 3 4.14974e-05 -4.12143
4069 1 15.6648 18.2738 40.7676 3 5.62216e-05 -4.12156
4070 1 14.8411 18.2766 38.437 3 5.08623e-05 -4.12151
4071 1 17.3117 18.2669 38.4354 3 6.88321e-05 -4.12169
4072 1 16.4883 18.2706 36.1043 3 6.21674e-05 -4.12162
4073 1 18.9582 18.2581 36.1042 3 8.36506e-05 -4.12184
4074 1 18.135 18.2628 33.7726 3 7.59839e-05 -4.12176
4075 1 20.6043 18.2469 33.7744 3 9.79354e-05 -4.12203
4076 1 19.7813 18.2528 31.4421 3 9.14508e-05 -4.12193
4077 1 22.2504 18.233 31.446 3 0.000106757 -4.1222
4078 1 21.4274 18.2403 29.113 3 0.000103086 -4.12212
4079 1 23.8967 18.2165 29.119 3 0.00010563 -4.12236
4080 1 23.0735 18.2251 26.7853 3 0.000107346 -4.12228
4081 1 25.5436 18.1979 26.7931 3 0.00010988 -4.12237
4082 1 24.72 18.2074 24.4589 3 0.00010684 -4.12238
4083 1 27.1918 18.1787 24.4674 3 0.000151304 -4.1222
4084 1 26.3675 18.1883 22.1332 3 0.000121646 -4.12232
4085 1 28.8417 18.1616 22.1412 3 0.000235322 -4.12196
4086 1 28.0165 18.1698 19.8074 3 0.000188657 -4.12208
4087 1 30.4934 18.1496 19.8137 3 0.000338463 -4.12175
4088 1 29.6674 18.1548 17.4805 3 0.000289045 -4.12185
4089 1 32.1462 18.1452 17.4852 3 0.000380854 -4.12167
4090 1 31.3197 18.1464 15.1525 3 0.000368049 -4.1217
4091 1 33.799 18.1496 15.1568 3 0.000338463 -4.12175
4092 1 32.9727 18.1464 12.8239 3 0.000368049 -4.1217
4093 1 35.4506 18.1616 12.8293 3 0.000235322 -4.12196
4094 1 34.625 18.1548 10.4958 3 0.000289045 -4.12185
4095 1 37.1006 18.1787 10.503 3 0.000151304 -4.1222
4096 1 36.2758 18.1698 8.16896 3 0.000188657 -4.12208
4097 1 38.7488 18.1979 8.17739 3 0.00010988 -4.12237
4098 1 37.9249 18.1883 5.84314 3 0.000121646 -4.12232
4099 1 40.3957 18.2165 5.85145 3 0.00010563 -4.12236
4100 1 39.5724 18.2074 3.51746 3 0.00010684 -4.12238
4101 1 42.042 18.233 3.52444 3 0.000106757 -4.1222
4102 1 41.2189 18.2251 1.19106 3 0.000107346 -4.12228
4103 1 43.688 18.2469 1.19606 3 9.79354e-05 -4.12203
4104 1 11.5386 16.2469 46.6059 3 2.12736e-05 -4.12142
4105 1 14.0098 16.2417 46.6034 3 2.96514e-05 -4.12153
4106 1 13.1861 16.2436 44.2727 3 2.66114e-05 -4.12149
4107 1 15.6568 16.2369 44.2712 3 3.6764e-05 -4.12164
4108 1 14.8333 16.2394 41.9402 3 3.3033e-05 -4.12158
4109 1 17.3037 16.2307 41.9398 3 4.51344e-05 -4.12177
4110 1 16.4803 16.234 39.6084 3 4.08175e-05 -4.1217
4111 1 18.9504 16.2229 39.6095 3 5.43021e-05 -4.12192
4112 1 18.1271 16.227 37.2775 3 4.97277e-05 -4.12184
4113 1 20.5972 16.2131 37.2801 3 6.19556e-05 -4.12208
4114 1 19.7738 16.2182 34.9476 3 5.84032e-05 -4.122
4115 1 22.2441 16.2014 34.9519 3 6.61208e-05 -4.12222
4116 1 21.4206 16.2075 32.6188 3 6.4717e-05 -4.12215
4117 1 23.8915 16.1879 32.6244 3 6.79042e-05 -4.12231
4118 1 23.0677 16.1948 30.291 3 6.66786e-05 -4.12228
4119 1 25.5399 16.1732 30.2974 3 7.42338e-05 -4.12231
4120 1 24.7156 16.1806 27.9638 3 6.95989e-05 -4.12233
4121 1 27.1895 16.1587 27.97 3 9.78802e-05 -4.12221
4122 1 26.3645 16.1658 25.6367 3 8.44593e-05 -4.12226
4123 1 28.8405 16.1461 25.6418 3 0.000136356 -4.12207
4124 1 28.0148 16.152 23.309 3 0.000115383 -4.12214
4125 1 30.493 16.1375 23.3124 3 0.000172908 -4.12195
4126 1 29.6666 16.1412 20.9802 3 0.000156902 -4.122
4127 1 32.1462 16.1345 20.9823 3 0.000187554 -4.12191
4128 1 31.3195 16.1352 18.6504 3 0.000184305 -4.12191
4129 1 33.7994 16.1375 18.6521 3 0.000172908 -4.12195
4130 1 32.9729 16.1352 16.3201 3 0.000184305 -4.12191
4131 1 35.4518 16.1461 16.3227 3 0.000136356 -4.12207
4132 1 34.6258 16.1412 13.9902 3 0.000156902 -4.122
4133 1 37.1029 16.1587 13.9945 3 9.78802e-05 -4.12221
4134 1 36.2776 16.152 11.6614 3 0.000115383 -4.12214
4135 1 38.7525 16.1732 11.6672 3 7.42338e-05 -4.12231
4136 1 37.9279 16.1658 9.33371 3 8.44593e-05 -4.12226
4137 1 40.4009 16.1879 9.34012 3 6.79042e-05 -4.12231
4138 1 39.5768 16.1806 7.00661 3 6.95989e-05 -4.12233
4139 1 42.0483 16.2014 7.01268 3 6.61208e-05 -4.12222
4140 1 41.2247 16.1948 4.67944 3 6.66786e-05 -4.12228
4141 1 43.6952 16.2131 4.6844 3 6.19556e-05 -4.12208
4142 1 42.8718 16.2075 2.35161 3 6.4717e-05 -4.12215
4143 1 45.3419 16.2229 2.35508 3 5.43021e-05 -4.12192
4144 1 44.5186 16.2182 0.0228329 3 5.84032e-05 -4.122
4145 1 46.9887 16.2307 0.024686 3 4.51344e-05 -4.12177
4146 1 13.1817 14.2059 47.775 3 1.88353e-05 -4.12153
4147 1 15.6522 14.2001 47.7744 3 2.63636e-05 -4.12169
4148 1 14.8288 14.2023 45.4431 3 2.36476e-05 -4.12163
4149 1 17.2992 14.1949 45.4435 3 3.23328e-05 -4.12182
4150 1 16.4757 14.1977 43.1118 3 2.92764e-05 -4.12175
4151 1 18.9462 14.1884 43.1135 3 3.83868e-05 -4.12196
4152 1 18.1227 14.1918 40.7814 3 3.54186e-05 -4.12189
4153 1 20.5934 14.1805 40.7842 3 4.35488e-05 -4.1221
4154 1 19.7697 14.1846 38.4517 3 4.11553e-05 -4.12204
4155 1 22.241 14.1712 38.4556 3 4.67426e-05 -4.12223
4156 1 21.4171 14.176 36.1228 3 4.5344e-05 -4.12217
4157 1 23.8892 14.1607 36.1275 3 4.93307e-05 -4.12229
4158 1 23.065 14.166 33.7945 3 4.80863e-05 -4.12227
4159 1 25.5384 14.1496 33.7993 3 5.45391e-05 -4.12229
4160 1 24.7137 14.1551 31.4664 3 5.12515e-05 -4.1223
4161 1 27.1888 14.1389 31.4706 3 6.4013e-05 -4.12223
4162 1 26.3634 14.1441 29.138 3 5.86761e-05 -4.12227
4163 1 28.8403 14.13 29.141 3 7.68747e-05 -4.12214
4164 1 28.0144 14.1342 26.8089 3 7.04226e-05 -4.12219
4165 1 30.493 14.124 26.8105 3 8.6905e-05 -4.12207
4166 1 29.6665 14.1265 24.4788 3 8.24054e-05 -4.1221
4167 1 32.1462 14.1218 24.4793 3 9.05667e-05 -4.12205
4168 1 31.3195 14.1224 22.1479 3 8.95175e-05 -4.12205
4169 1 33.7994 14.124 22.1481 3 8.6905e-05 -4.12207
4170 1 32.9728 14.1224 19.8166 3 8.95175e-05 -4.12205
4171 1 35.452 14.13 19.8176 3 7.68747e-05 -4.12214
4172 1 34.6258 14.1265 17.4857 3 8.24054e-05 -4.1221
4173 1 37.1036 14.1389 17.488 3 6.4013e-05 -4.12223
4174 1 36.278 14.1342 15.1556 3 7.04226e-05 -4.12219
4175 1 38.754 14.1496 15.1593 3 5.45391e-05 -4.12229
4176 1 37.929 14.1441 12.8265 3 5.86761e-05 -4.12227
4177 1 40.4032 14.1607 12.8311 3 4.93307e-05 -4.12229
4178 1 39.5787 14.1551 10.4982 3 5.12515e-05 -4.1223
4179 1 42.0514 14.1712 10.503 3 4.67426e-05 -4.12223
4180 1 41.2274 14.166 8.17005 3 4.80863e-05 -4.12227
4181 1 43.699 14.1805 8.17441 3 4.35488e-05 -4.1221
4182 1 42.8753 14.176 5.84172 3 4.5344e-05 -4.12217
4183 1 45.3462 14.1884 5.84515 3 3.83868e-05 -4.12196
4184 1 44.5226 14.1846 3.51283 3 4.11553e-05 -4.12204
4185 1 46.9932 14.1949 3.51508 3 3.23328e-05 -4.12182
4186 1 46.1697 14.1918 1.18317 3 3.54186e-05 -4.12189
4187 1 48.6401 14.2001 1.18421 3 2.63636e-05 -4.12169
4188 1 16.4739 12.1618 46.6145 3 2.35533e-05 -4.12178
4189 1 18.9448 12.1547 46.6162 3 3.06999e-05 -4.12199
4190 1 18.1211 12.1573 44.2841 3 2.83747e-05 -4.12192
4191 1 20.5923 12.1488 44.2867 3 3.4873e-05 -4.12212
4192 1 19.7685 12.1519 41.9543 3 3.2903e-05 -4.12206
4193 1 22.2404 12.1419 41.9576 3 3.79539e-05 -4.12223
4194 1 21.4163 12.1454 39.625 3 3.65501e-05 -4.12218
4195 1 23.8891 12.1343 39.6286 3 3.99465e-05 -4.12229
4196 1 23.0646 12.1381 37.296 3 3.90209e-05 -4.12227
4197 1 25.5387 12.1265 37.2994 3 4.13515e-05 -4.1223
4198 1 24.7138 12.1304 34.967 3 4.0753e-05 -4.1223
4199 1 27.1893 12.1192 34.9697 3 4.21966e-05 -4.12227
4200 1 26.3639 12.1227 32.6376 3 4.18121e-05 -4.12229
4201 1 28.8409 12.1131 32.6393 3 4.21562e-05 -4.12221
4202 1 28.015 12.1159 30.3076 3 4.23375e-05 -4.12224
4203 1 30.4933 12.1091 30.308 3 4.129e-05 -4.12217
4204 1 29.667 12.1108 27.9767 3 4.17801e-05 -4.12219
4205 1 32.1462 12.1077 27.9764 3 4.0718e-05 -4.12215
4206 1 31.3197 12.1081 25.6452 3 4.08755e-05 -4.12215
4207 1 33.7991 12.1091 25.6447 3 4.129e-05 -4.12217
4208 1 32.9727 12.1081 23.3134 3 4.08755e-05 -4.12215
4209 1 35.4515 12.1131 23.3135 3 4.21562e-05 -4.12221
4210 1 34.6254 12.1108 20.9819 3 4.17801e-05 -4.12219
4211 1 37.1031 12.1192 20.983 3 4.21966e-05 -4.12227
4212 1 36.2774 12.1159 18.6511 3 4.23375e-05 -4.12224
4213 1 38.7537 12.1265 18.6533 3 4.13515e-05 -4.1223
4214 1 37.9285 12.1227 16.321 3 4.18121e-05 -4.12229
4215 1 40.4033 12.1343 16.3241 3 3.99465e-05 -4.12229
4216 1 39.5786 12.1304 13.9916 3 4.0753e-05 -4.1223
4217 1 42.052 12.1419 13.9952 3 3.79539e-05 -4.12223
4218 1 41.2278 12.1381 11.6626 3 3.90209e-05 -4.12227
4219 1 43.7001 12.1488 11.666 3 3.4873e-05 -4.12212
4220 1 42.8761 12.1454 9.33359 3 3.65501e-05 -4.12218
4221 1 45.3476 12.1547 9.33653 3 3.06999e-05 -4.12199
4222 1 44.5239 12.1519 7.00431 3 3.2903e-05 -4.12206
4223 1 46.9949 12.1597 7.00646 3 2.59688e-05 -4.12185
4224 1 46.1713 12.1573 4.67453 3 2.83747e-05 -4.12192
4225 1 48.642 12.1637 4.67578 3 2.12196e-05 -4.12172
4226 1 47.8184 12.1618 2.34415 3 2.35533e-05 -4.12178
4227 1 50.2891 12.167 2.34452 3 1.696e-05 -4.1216
4228 1 49.4655 12.1654 0.0131754 3 1.90293e-05 -4.12166
4229 1 51.9362 12.1695 0.0127209 3 1.32864e-05 -4.12151
4230 1 18.1222 10.1234 47.7857 3 2.72156e-05 -4.12193
4231 1 20.5938 10.1177 47.7877 3 3.34479e-05 -4.12212
4232 1 19.7699 10.1197 45.4556 3 3.15915e-05 -4.12206
4233 1 22.2421 10.1133 45.4579 3 3.59659e-05 -4.12223
4234 1 21.4179 10.1155 43.1257 3 3.49545e-05 -4.12218
4235 1 23.891 10.1084 43.1281 3 3.64192e-05 -4.12229
4236 1 23.0665 10.1109 40.796 3 3.64631e-05 -4.12226
4237 1 25.5407 10.1036 40.7982 3 3.42984e-05 -4.12232
4238 1 24.7157 10.106 38.4661 3 3.56476e-05 -4.12231
4239 1 27.1911 10.0991 38.4677 3 2.99467e-05 -4.12231
4240 1 26.3658 10.1013 36.136 3 3.23597e-05 -4.12232
4241 1 28.8423 10.0955 36.1367 3 2.43617e-05 -4.12228
4242 1 28.0166 10.0972 33.8053 3 2.71846e-05 -4.1223
4243 1 30.4941 10.0931 33.8052 3 1.95249e-05 -4.12226
4244 1 29.6681 10.0941 31.474 3 2.16891e-05 -4.12227
4245 1 32.1462 10.0923 31.4734 3 1.75892e-05 -4.12225
4246 1 31.3201 10.0925 29.1423 3 1.80722e-05 -4.12225
4247 1 33.7983 10.0931 29.1416 3 1.95249e-05 -4.12226
4248 1 32.9723 10.0925 26.8104 3 1.80722e-05 -4.12225
4249 1 35.4501 10.0955 26.8101 3 2.43617e-05 -4.12228
4250 1 34.6243 10.0941 24.4787 3 2.16891e-05 -4.12227
4251 1 37.1013 10.0991 24.4791 3 2.99467e-05 -4.12231
4252 1 36.2758 10.0972 22.1475 3 2.71846e-05 -4.1223
4253 1 38.7517 10.1036 22.1486 3 3.42984e-05 -4.12232
4254 1 37.9266 10.1013 19.8168 3 3.23597e-05 -4.12232
4255 1 40.4014 10.1084 19.8187 3 3.64192e-05 -4.12229
4256 1 39.5766 10.106 17.4866 3 3.56475e-05 -4.12231
4257 1 42.0503 10.1133 17.4889 3 3.59659e-05 -4.12223
4258 1 41.2259 10.1109 15.1567 3 3.64632e-05 -4.12226
4259 1 43.6985 10.1177 15.1591 3 3.34479e-05 -4.12212
4260 1 42.8745 10.1155 12.827 3 3.49544e-05 -4.12218
4261 1 45.3464 10.1216 12.8291 3 2.94988e-05 -4.122
4262 1 44.5225 10.1197 10.4971 3 3.15915e-05 -4.12206
4263 1 46.9939 10.125 10.4988 3 2.48652e-05 -4.12186
4264 1 46.1702 10.1234 8.16696 3 2.72156e-05 -4.12193
4265 1 48.6413 10.1277 8.16805 3 2.02669e-05 -4.12173
4266 1 47.8176 10.1264 5.83643 3 2.25344e-05 -4.1218
4267 1 50.2886 10.1299 5.8369 3 1.60209e-05 -4.12162
4268 1 49.4649 10.1289 3.50548 3 1.80734e-05 -4.12167
4269 1 51.9359 10.1317 3.50537 3 1.23825e-05 -4.12152
4270 1 51.1122 10.1309 1.17413 3 1.41216e-05 -4.12157
4271 1 53.5832 10.1331 1.1735 3 9.30771e-06 -4.12144
4272 1 21.4224 8.08613 46.6253 3 4.4711e-05 -4.12265
4273 1 23.8954 8.08279 46.6265 3 4.43184e-05 -4.12265
4274 1 23.071 8.08392 44.2948 3 4.54803e-05 -4.12266
4275 1 25.5447 8.08055 44.2958 3 3.91003e-05 -4.12261
4276 1 24.72 8.08166 41.9642 3 4.21417e-05 -4.12263
4277 1 27.1945 8.07852 41.9649 3 3.09872e-05 -4.12255
4278 1 26.3695 8.0795 39.6333 3 3.52893e-05 -4.12258
4279 1 28.8448 8.07688 39.6336 3 2.23158e-05 -4.12249
4280 1 28.0196 8.07764 37.3022 3 2.65645e-05 -4.12252
4281 1 30.4954 8.07582 37.3021 3 1.57327e-05 -4.12245
4282 1 29.67 8.07627 34.9709 3 1.86093e-05 -4.12247
4283 1 32.1462 8.07545 34.9704 3 1.32918e-05 -4.12244
4284 1 31.3208 8.07554 32.6392 3 1.39194e-05 -4.12244
4285 1 33.797 8.07582 32.6388 3 1.57327e-05 -4.12245
4286 1 32.9716 8.07554 30.3076 3 1.39194e-05 -4.12244
4287 1 35.4476 8.07688 30.3073 3 2.23158e-05 -4.12249
4288 1 34.6224 8.07627 27.9759 3 1.86093e-05 -4.12247
4289 1 37.0979 8.07852 27.976 3 3.09872e-05 -4.12255
4290 1 36.2728 8.07764 25.6446 3 2.65645e-05 -4.12252
4291 1 38.7477 8.08055 25.6451 3 3.91003e-05 -4.12261
4292 1 37.9228 8.0795 23.3135 3 3.52892e-05 -4.12258
4293 1 40.3969 8.08279 23.3144 3 4.43185e-05 -4.12265
4294 1 39.5724 8.08166 20.9827 3 4.21417e-05 -4.12263
4295 1 42.0457 8.08504 20.9838 3 4.55676e-05 -4.12266
4296 1 41.2214 8.08392 18.652 3 4.54804e-05 -4.12266
4297 1 43.6942 8.08717 18.6533 3 4.30692e-05 -4.12264
4298 1 42.87 8.08613 16.3215 3 4.47111e-05 -4.12265
4299 1 45.3423 8.08907 16.3227 3 3.79166e-05 -4.12261
4300 1 44.5182 8.08815 13.9909 3 4.07387e-05 -4.12263
4301 1 46.9902 8.09072 13.9919 3 3.15332e-05 -4.12255
4302 1 46.1662 8.08993 11.6602 3 3.48085e-05 -4.12258
4303 1 48.6379 8.0921 11.6609 3 2.50478e-05 -4.1225
4304 1 47.8141 8.09145 9.32934 3 2.82377e-05 -4.12253
4305 1 50.2857 8.09323 9.32965 3 1.91851e-05 -4.12245
4306 1 49.4618 8.0927 6.99824 3 2.20015e-05 -4.12247
4307 1 51.9334 8.09415 6.99824 3 1.42821e-05 -4.1224
4308 1 51.1095 8.09372 4.66692 3 1.66182e-05 -4.12242
4309 1 53.5811 8.09487 4.66665 3 1.03948e-05 -4.12236
4310 1 52.7572 8.09453 2.33542 3 1.22123e-05 -4.12238
4311 1 55.2289 8.09543 2.33491 3 7.39866e-06 -4.12233
4312 1 54.405 8.09517 0.00374864 3 8.78578e-06 -4.12235
4313 1 56.8767 8.09587 0.00304871 3 5.17388e-06 -4.12231
4314 1 23.0793 6.05706 47.7929 3 0.000265393 -4.12217
4315 1 25.5521 6.05706 47.7929 3 0.000150566 -4.12211
4316 1 24.7278 6.05706 45.4616 3 0.000186264 -4.12213
4317 1 27.2006 6.05706 45.4616 3 8.89404e-05 -4.12208
4318 1 26.3764 6.05706 43.1302 3 0.000118019 -4.1221
4319 1 28.8491 6.05706 43.1302 3 4.24251e-05 -4.12206
4320 1 28.0249 6.05706 40.7989 3 6.36484e-05 -4.12207
4321 1 30.4977 6.05706 40.7989 3 1.32761e-05 -4.12205
4322 1 29.6734 6.05706 38.4675 3 2.55494e-05 -4.12205
4323 1 32.1462 6.05706 38.4675 3 3.3144e-06 -4.12204
4324 1 31.3219 6.05706 36.1361 3 5.81593e-06 -4.12204
4325 1 33.7947 6.05706 36.1361 3 1.3276e-05 -4.12205
4326 1 32.9705 6.05706 33.8048 3 5.81592e-06 -4.12204
4327 1 35.4432 6.05706 33.8048 3 4.24253e-05 -4.12206
4328 1 34.619 6.05706 31.4734 3 2.55496e-05 -4.12205
4329 1 37.0918 6.05706 31.4734 3 8.89403e-05 -4.12208
4330 1 36.2675 6.05706 29.142 3 6.36482e-05 -4.12207
4331 1 38.7403 6.05706 29.142 3 0.000150565 -4.12211
4332 1 37.916 6.05706 26.8107 3 0.000118019 -4.1221
4333 1 40.3888 6.05706 26.8107 3 0.000224709 -4.12215
4334 1 39.5645 6.05706 24.4793 3 0.000186264 -4.12213
4335 1 42.0373 6.05706 24.4793 3 0.000307778 -4.12218
4336 1 41.2131 6.05706 22.1479 3 0.000265394 -4.12217
4337 1 43.6859 6.05706 22.1479 3 0.000394982 -4.12221
4338 1 42.8616 6.05706 19.8166 3 0.000351215 -4.12219
4339 1 45.3344 6.05706 19.8166 3 0.000480835 -4.12222
4340 1 44.5101 6.05706 17.4852 3 0.000438416 -4.12221
4341 1 46.9829 6.05706 17.4852 3 0.000560309 -4.12222
4342 1 46.1586 6.05706 15.1539 3 0.000521624 -4.12222
4343 1 48.6314 6.05706 15.1539 3 0.000629864 -4.12221
4344 1 47.8072 6.05706 12.8225 3 0.000596471 -4.12222
4345 1 50.2799 6.05706 12.8225 3 0.000687853 -4.1222
4346 1 49.4557 6.05706 10.4911 3 0.000660325 -4.1222
4347 1 51.9285 6.05706 10.4911 3 0.000734204 -4.12218
4348 1 51.1042 6.05706 8.15977 3 0.000712434 -4.12219
4349 1 53.577 6.05706 8.15977 3 0.000769854 -4.12216
4350 1 52.7527 6.05706 5.82841 3 0.000753276 -4.12217
4351 1 55.2255 6.05706 5.82841 3 0.000796409 -4.12214
4352 1 54.4012 6.05706 3.49704 3 0.00078416 -4.12215
4353 1 56.874 6.05706 3.49704 3 0.000815526 -4.12212
4354 1 56.0498 6.05706 1.16568 3 0.000806795 -4.12213
4355 1 58.5226 6.05706 1.16568 3 0.00082881 -4.1221
4356 1 26.3764 4.03804 46.6273 3 1.0169e-16 -4.12225
4357 1 28.8491 4.03804 46.6273 3 4.0169e-16 -4.12238
4358 1 28.0249 4.03804 44.2959 3 3.99999e-16 -4.12234
4359 1 30.4977 4.03804 44.2959 3 9.99999e-17 -4.12243
4360 1 29.6734 4.03804 41.9645 3 1e-16 -4.12241
4361 1 32.1462 4.03804 41.9645 3 9.99999e-17 -4.12245
4362 1 31.3219 4.03804 39.6332 3 0 -4.12244
4363 1 33.7947 4.03804 39.6332 3 4.00001e-16 -4.12243
4364 1 32.9705 4.03804 37.3018 3 9.99999e-17 -4.12244
4365 1 35.4432 4.03804 37.3018 3 1e-16 -4.12238
4366 1 34.619 4.03804 34.9704 3 4e-16 -4.12241
4367 1 37.0918 4.03804 34.9704 3 2.01948e-28 -4.1223
4368 1 36.2675 4.03804 32.6391 3 1e-16 -4.12234
4369 1 38.7403 4.03804 32.6391 3 1e-16 -4.12219
4370 1 37.916 4.03804 30.3077 3 8.07794e-28 -4.12225
4371 1 40.3888 4.03804 30.3077 3 3.99999e-16 -4.12208
4372 1 39.5645 4.03804 27.9764 3 1e-16 -4.12214
4373 1 42.0373 4.03804 27.9764 3 1e-16 -4.12197
4374 1 41.2131 4.03804 25.645 3 4.00001e-16 -4.12203
4375 1 43.6859 4.03804 25.645 3 3.5341e-28 -4.12186
4376 1 42.8616 4.03804 23.3136 3 9.99999e-17 -4.12192
4377 1 45.3344 4.03804 23.3136 3 9.99999e-17 -4.12177
4378 1 44.5101 4.03804 20.9823 3 2.01948e-28 -4.12181
4379 1 46.9829 4.03804 20.9823 3 3.99999e-16 -4.12168
4380 1 46.1586 4.03804 18.6509 3 9.99999e-17 -4.12172
4381 1 48.6314 4.03804 18.6509 3 9.99999e-17 -4.12161
4382 1 47.8072 4.03804 16.3195 3 3.99999e-16 -4.12165
4383 1 50.2799 4.03804 16.3195 3 3.02923e-28 -4.12156
4384 1 49.4557 4.03804 13.9882 3 9.99999e-17 -4.12158
4385 1 51.9285 4.03804 13.9882 3 1e-16 -4.12151
4386 1 51.1042 4.03804 11.6568 3 9.99999e-17 -4.12153
4387 1 53.577 4.03804 11.6568 3 3.99999e-16 -4.12147
4388 1 52.7527 4.03804 9.32545 3 4.00001e-16 -4.12149
4389 1 55.2255 4.03804 9.32545 3 1e-16 -4.12144
4390 1 54.4012 4.03804 6.99409 3 1e-16 -4.12146
4391 1 56.874 4.03804 6.99409 3 0 -4.12142
4392 1 56.0498 4.03804 4.66273 3 0 -4.12143
4393 1 58.5226 4.03804 4.66273 3 9.99999e-17 -4.1214
4394 1 57.6983 4.03804 2.33136 3 1e-16 -4.12141
4395 1 60.1711 4.03804 2.33136 3 3.99999e-16 -4.12139
4396 1 59.3468 4.03804 0 3 4.0507e-16 -4.1214
4397 1 61.8196 4.03804 0 3 6.28299e-17 -4.12138
4398 1 28.0249 2.01902 47.7929 3 4.05069e-16 -4.10627
4399 1 30.4977 2.01902 47.7929 3 1.0507e-16 -4.10627
4400 1 29.6734 2.01902 45.4616 3 1e-16 -4.10627
4401 1 32.1462 2.01902 45.4616 3 9.99999e-17 -4.10627
4402 1 31.3219 2.01902 43.1302 3 6.05845e-28 -4.10627
4403 1 33.7947 2.01902 43.1302 3 4.00001e-16 -4.10627
4404 1 32.9705 2.01902 40.7989 3 9.99999e-17 -4.10627
4405 1 35.4432 2.01902 40.7989 3 1e-16 -4.10627
4406 1 34.619 2.01902 38.4675 3 4e-16 -4.10627
4407 1 37.0918 2.01902 38.4675 3 0 -4.10627
4408 1 36.2675 2.01902 36.1361 3 1e-16 -4.10627
4409 1 38.7403 2.01902 36.1361 3 1e-16 -4.10627
4410 1 37.916 2.01902 33.8048 3 8.07794e-28 -4.10627
4411 1 40.3888 2.01902 33.8048 3 3.99999e-16 -4.10627
4412 1 39.5645 2.01902 31.4734 3 1e-16 -4.10627
4413 1 42.0373 2.01902 31.4734 3 1e-16 -4.10627
4414 1 41.2131 2.01902 29.142 3 4.00001e-16 -4.10627
4415 1 43.6859 2.01902 29.142 3 3.5341e-28 -4.10627
4416 1 42.8616 2.01902 26.8107 3 9.99999e-17 -4.10627
4417 1 45.3344 2.01902 26.8107 3 9.99999e-17 -4.10627
4418 1 44.5101 2.01902 24.4793 3 3.02923e-28 -4.10627
4419 1 46.9829 2.01902 24.4793 3 3.99999e-16 -4.10627
4420 1 46.1586 2.01902 22.1479 3 9.99999e-17 -4.10627
4421 1 48.6314 2.01902 22.1479 3 9.99999e-17 -4.10627
4422 1 47.8072 2.01902 19.8166 3 3.99999e-16 -4.10627
4423 1 50.2799 2.01902 19.8166 3 2.01948e-28 -4.10627
4424 1 49.4557 2.01902 17.4852 3 9.99999e-17 -4.10627
4425 1 51.9285 2.01902 17.4852 3 1e-16 -4.10627
4426 1 51.1042 2.01902 15.1539 3 9.99999e-17 -4.10627
4427 1 53.577 2.01902 15.1539 3 3.99999e-16 -4.10627
4428 1 52.7527 2.01902 12.8225 3 4.00001e-16 -4.10627
4429 1 55.2255 2.01902 12.8225 3 1e-16 -4.10627
4430 1 54.4012 2.01902 10.4911 3 1e-16 -4.10627
4431 1 56.874 2.01902 10.4911 3 0 -4.10627
4432 1 56.0498 2.01902 8.15977 3 1.26218e-29 -4.10627
4433 1 58.5226 2.01902 8.15977 3 9.99999e-17 -4.10627
4434 1 57.6983 2.01902 5.82841 3 1e-16 -4.10627
4435 1 60.1711 2.01902 5.82841 3 3.99999e-16 -4.10627
4436 1 59.3468 2.01902 3.49704 3 3.99999e-16 -4.10627
4437 1 61.8196 2.01902 3.49704 3 5.77599e-17 -4.10627
4438 1 60.9953 2.01902 1.16568 3 1.0169e-16 -4.10627
4439 1 63.4681 2.01902 1.16568 3 2.473e-17 -4.10627
4440 1 31.3219 0 46.6273 5 12.2293 -3.54465
4441 1 33.7947 0 46.6273 5 12.2293 -3.54465
4442 1 32.9705 0 44.2959 5 12.2293 -3.54465
4443 1 35.4432 0 44.2959 5 12.2293 -3.54465
4444 1 34.619 0 41.9645 5 12.2293 -3.54465
4445 1 37.0918 0 41.9645 5 12.2293 -3.54465
4446 1 36.2675 0 39.6332 5 12.2293 -3.54465
4447 1 38.7403 0 39.6332 5 12.2293 -3.54465
4448 1 37.916 0 37.3018 5 12.2293 -3.54465
4449 1 40.3888 0 37.3018 5 12.2293 -3.54465
4450 1 39.5645 0 34.9704 5 12.2293 -3.54465
4451 1 42.0373 0 34.9704 5 12.2293 -3.54465
4452 1 41.2131 0 32.6391 5 12.2293 -3.54465
4453 1 43.6859 0 32.6391 5 12.2293 -3.54465
4454 1 42.8616 0 30.3077 5 12.2293 -3.54465
4455 1 45.3344 0 30.3077 5 12.2293 -3.54465
4456 1 44.5101 0 27.9764 5 12.2293 -3.54465
4457 1 46.9829 0 27.9764 5 12.2293 -3.54465
4458 1 46.1586 0 25.645 5 12.2293 -3.54465
4459 1 48.6314 0 25.645 5 12.2293 -3.54465
4460 1 47.8072 0 23.3136 5 12.2293 -3.54465
4461 1 50.2799 0 23.3136 5 12.2293 -3.54465
4462 1 49.4557 0 20.9823 5 12.2293 -3.54465
4463 1 51.9285 0 20.9823 5 12.2293 -3.54465
4464 1 51.1042 0 18.6509 5 12.2293 -3.54465
4465 1 53.577 0 18.6509 5 12.2293 -3.54465
4466 1 52.7527 0 16.3195 5 12.2293 -3.54465
4467 1 55.2255 0 16.3195 5 12.2293 -3.54465
4468 1 54.4012 0 13.9882 5 12.2293 -3.54465
4469 1 56.874 0 13.9882 5 12.2293 -3.54465
4470 1 56.0498 0 11.6568 5 12.2293 -3.54465
4471 1 58.5226 0 11.6568 5 12.2293 -3.54465
4472 1 57.6983 0 9.32545 5 12.2293 -3.54465
4473 1 60.1711 0 9.32545 5 12.2293 -3.54465
4474 1 59.3468 0 6.99409 5 12.2293 -3.54465
4475 1 61.8196 0 6.99409 5 12.2293 -3.54465
4476 1 60.9953 0 4.66273 5 12.2293 -3.54465
4477 1 63.4681 0 4.66273 5 12.2293 -3.54465
4478 1 62.6439 0 2.33136 5 12.2293 -3.54465
4479 1 0.836204 30.4855 47.7919 3 0.000105686 -4.11957
4480 1 1.97769e-11 30.4855 45.4616 3 0.000105291 -4.11957
4481 1 2.50858 30.4855 45.4584 3 0.000108707 -4.11953
4482 1 1.6724 30.4855 43.1281 3 0.000106788 -4.11955
4483 1 4.18088 30.4855 43.1248 3 0.00011515 -4.11946
4484 1 3.34474 30.4855 40.7946 3 0.000111484 -4.1195
4485 1 5.85301 30.4855 40.7912 3 0.00012591 -4.11935
4486 1 5.01696 30.4855 38.461 3 0.000119916 -4.11941
4487 1 7.52491 30.4854 38.4574 3 0.00014236 -4.11919
4488 1 6.68899 30.4855 36.1273 3 0.000133238 -4.11928
4489 1 9.19651 30.485 36.1235 3 0.000166986 -4.11899
4490 1 8.36075 30.4852 33.7935 3 0.000153492 -4.1191
4491 1 10.8677 30.4843 33.7894 3 0.000205009 -4.11871
4492 1 10.0321 30.4847 31.4595 3 0.000184032 -4.11886
4493 1 12.5383 30.483 31.455 3 0.000264672 -4.11835
4494 1 11.7031 30.4837 29.1252 3 0.000230689 -4.11855
4495 1 14.2083 30.481 29.1202 3 0.000360429 -4.11788
4496 1 13.3734 30.4821 26.7906 3 0.000307261 -4.11813
4497 1 15.8772 30.478 26.7848 3 0.000536516 -4.11718
4498 1 15.0428 30.4796 24.4555 3 0.00043741 -4.11755
4499 1 17.5448 30.4737 24.4486 3 0.000873927 -4.11615
4500 1 16.7113 30.476 22.1198 3 0.000663448 -4.11678
4501 1 19.211 30.4677 22.1112 3 0.00152376 -4.11468
4502 1 18.378 30.4709 19.7831 3 0.00115263 -4.11545
4503 1 20.8736 30.4599 19.772 3 0.00325419 -4.11174
4504 1 20.0425 30.4641 17.4448 3 0.00225363 -4.11327
4505 1 22.5319 30.4496 17.4295 3 0.00806511 -4.10618
4506 1 21.7047 30.455 15.1041 3 0.00467582 -4.10997
4507 1 24.1862 30.4356 15.0816 3 0.0215462 -4.09544
4508 1 23.3589 30.4432 12.7598 3 0.0130334 -4.10166
4509 1 25.8204 30.414 12.722 3 0.0954364 -4.05808
4510 1 25.0033 30.4266 10.4072 3 0.0487191 -4.07866
4511 1 27.4243 30.3474 10.3325 3 5.11537 -4.00147
4512 1 26.6376 30.3951 8.03351 3 0.167103 -4.03237
4513 1 29.0294 30.3016 7.95574 5 4.50623 -3.98757
4514 1 28.2191 30.3187 5.63936 5 4.75702 -3.99009
4515 1 30.6006 30.2568 5.66601 5 3.81688 -3.93471
4516 1 29.8153 30.2835 3.30297 5 4.18412 -3.97113
4517 1 32.1462 30.2028 3.49704 5 3.25055 -3.87684
4518 1 31.4004 30.2303 1.06335 5 3.42045 -3.89887
4519 1 33.6918 30.2568 1.32808 5 3.81688 -3.93471
4520 1 1.6665 28.4603 46.624 3 8.89242e-05 -4.12033
4521 1 4.16598 28.4603 46.619 3 0.00010083 -4.12026
4522 1 3.33288 28.4603 44.2893 3 9.55617e-05 -4.12029
4523 1 5.83193 28.4601 44.2842 3 0.0001163 -4.12018
4524 1 4.999 28.4602 41.9546 3 0.000107615 -4.12022
4525 1 7.49742 28.4599 41.9492 3 0.000140466 -4.12007
4526 1 6.66474 28.46 39.6197 3 0.000127086 -4.12013
4527 1 9.16228 28.4593 39.6141 3 0.000177766 -4.11992
4528 1 8.32994 28.4596 37.2846 3 0.000157242 -4.12
4529 1 10.8263 28.4583 37.2786 3 0.000235341 -4.11973
4530 1 9.99441 28.4589 34.9493 3 0.000203071 -4.11983
4531 1 12.4893 28.4568 34.9427 3 0.000324049 -4.1195
4532 1 11.6579 28.4577 32.6137 3 0.000274991 -4.11962
4533 1 14.1508 28.4544 32.6063 3 0.000468853 -4.11918
4534 1 13.3203 28.4557 30.2775 3 0.000389026 -4.11935
4535 1 15.8107 28.4509 30.2692 3 0.00070721 -4.1188
4536 1 14.981 28.4528 27.9408 3 0.000568438 -4.119
4537 1 17.4683 28.4459 27.9313 3 0.00108856 -4.11827
4538 1 16.6397 28.4486 25.6033 3 0.000876386 -4.11854
4539 1 19.1227 28.4391 25.592 3 0.00177465 -4.11755
4540 1 18.296 28.4428 23.2648 3 0.00140198 -4.11796
4541 1 20.7736 28.4297 23.251 3 0.00297164 -4.11672
4542 1 19.9489 28.4347 20.9248 3 0.00224084 -4.11713
4543 1 22.4195 28.4167 20.908 3 0.00483509 -4.11549
4544 1 21.5969 28.4237 18.5828 3 0.00380236 -4.11608
4545 1 24.0575 28.3979 18.562 3 0.00848892 -4.1156
4546 1 23.2399 28.4085 16.2381 3 0.00657172 -4.11542
4547 1 25.6893 28.3672 16.2137 3 0.0118046 -4.12298
4548 1 24.875 28.3848 13.8911 3 0.0101215 -4.1172
4549 1 27.3116 28.3192 13.8721 3 0.0126047 -4.12069
4550 1 26.4984 28.342 11.5464 3 0.0117188 -4.12211
4551 1 28.9306 28.2612 11.5388 3 0.0139267 -4.11512
4552 1 28.1253 28.2912 9.20325 3 0.0108747 -4.11667
4553 1 30.543 28.2101 9.24889 3 0.0163236 -4.11343
4554 1 29.7378 28.2337 6.89119 3 0.0161729 -4.11454
4555 1 32.1462 28.1701 6.99409 3 0.0485463 -4.09016
4556 1 31.3394 28.1809 4.62557 3 0.0322406 -4.09783
4557 1 33.7494 28.2101 4.73929 3 0.0163236 -4.11343
4558 1 32.9529 28.1809 2.36852 3 0.0322406 -4.09783
4559 1 35.3618 28.2612 2.44942 3 0.0139267 -4.11512
4560 1 34.5546 28.2337 0.102897 3 0.0161729 -4.11454
4561 1 36.9807 28.3192 0.116078 3 0.0126047 -4.12069
4562 1 3.3226 26.4315 47.7847 3 7.11953e-05 -4.12078
4563 1 5.81382 26.4311 47.7784 3 9.31828e-05 -4.12071
4564 1 4.98352 26.4313 45.4491 3 8.41623e-05 -4.12073
4565 1 7.47397 26.4306 45.4426 3 0.000117893 -4.12064
4566 1 6.64398 26.4309 43.1134 3 0.000104313 -4.12068
4567 1 9.13339 26.4297 43.1066 3 0.000154012 -4.12056
4568 1 8.30379 26.4302 40.7776 3 0.000134239 -4.1206
4569 1 10.7919 26.4283 40.7704 3 0.000205992 -4.12045
4570 1 9.96276 26.4291 38.4415 3 0.000177741 -4.12051
4571 1 12.4492 26.4263 38.4339 3 0.000280837 -4.12034
4572 1 11.6207 26.4274 36.1051 3 0.000240231 -4.1204
4573 1 14.105 26.4232 36.097 3 0.000387257 -4.12021
4574 1 13.2773 26.4249 33.7684 3 0.000328903 -4.12028
4575 1 15.759 26.4189 33.7596 3 0.000535789 -4.12007
4576 1 14.9323 26.4212 31.4313 3 0.000455557 -4.12015
4577 1 17.411 26.4129 31.4217 3 0.000743912 -4.11996
4578 1 16.5853 26.4161 29.0937 3 0.000632901 -4.12001
4579 1 19.0603 26.4047 29.0833 3 0.00102489 -4.11984
4580 1 18.236 26.4091 26.7555 3 0.000872325 -4.11987
4581 1 20.7065 26.3934 26.7444 3 0.00138945 -4.11976
4582 1 19.8839 26.3995 24.4168 3 0.00119292 -4.11984
4583 1 22.3494 26.378 24.4053 3 0.00186971 -4.12017
4584 1 21.5285 26.3863 22.0778 3 0.00161523 -4.11988
4585 1 23.988 26.356 22.0674 3 0.00242576 -4.12132
4586 1 23.169 26.3679 19.7391 3 0.00221009 -4.12044
4587 1 25.6217 26.3231 19.7338 3 0.00253655 -4.12157
4588 1 24.8057 26.3415 17.4026 3 0.00249975 -4.12221
4589 1 27.2545 26.2828 17.4041 3 0.00270402 -4.12349
4590 1 26.4385 26.3041 15.0711 3 0.00259635 -4.12219
4591 1 28.8844 26.2327 15.0864 3 0.00356947 -4.12193
4592 1 28.0687 26.2585 12.7469 3 0.00322313 -4.12373
4593 1 30.5129 26.1844 12.7856 3 0.00816207 -4.11663
4594 1 29.6995 26.2083 10.436 3 0.00443349 -4.12078
4595 1 32.1462 26.1677 10.4911 3 0.0089096 -4.11296
4596 1 31.3291 26.1714 8.14168 3 0.00960164 -4.11429
4597 1 33.7795 26.1844 8.19671 3 0.00816207 -4.11663
4598 1 32.9633 26.1714 5.8465 3 0.00960164 -4.11429
4599 1 35.4079 26.2327 5.89591 3 0.00356947 -4.12193
4600 1 34.5928 26.2083 3.55221 3 0.00443349 -4.12078
4601 1 37.0379 26.2828 3.57814 3 0.00270402 -4.12349
4602 1 36.2237 26.2585 1.24125 3 0.00322313 -4.12373
4603 1 38.6707 26.3231 1.24844 3 0.00253655 -4.12157
4604 1 6.62737 24.3987 46.6088 3 7.36744e-05 -4.12099
4605 1 9.11066 24.3971 46.6016 3 0.000109773 -4.12094
4606 1 8.28308 24.3978 44.2727 3 9.58963e-05 -4.12096
4607 1 10.7652 24.3953 44.2653 3 0.000144175 -4.1209
4608 1 9.93802 24.3963 41.9364 3 0.000125794 -4.12092
4609 1 12.4186 24.3927 41.9289 3 0.000188817 -4.12087
4610 1 11.592 24.3941 39.6 3 0.000165048 -4.12088
4611 1 14.0708 24.3891 39.5923 3 0.000245271 -4.12085
4612 1 13.2449 24.391 37.2635 3 0.000215508 -4.12085
4613 1 15.7216 24.3841 37.2557 3 0.000315312 -4.12084
4614 1 14.8964 24.3868 34.9269 3 0.000278721 -4.12084
4615 1 17.3707 24.3772 34.919 3 0.000400063 -4.12086
4616 1 16.5463 24.3809 32.5903 3 0.00035533 -4.12085
4617 1 19.0179 24.368 32.5826 3 0.00049893 -4.12096
4618 1 18.1945 24.373 30.2537 3 0.000447393 -4.12091
4619 1 20.663 24.3557 30.2468 3 0.000623091 -4.12114
4620 1 19.8407 24.3623 27.9176 3 0.000559055 -4.12101
4621 1 22.3058 24.339 27.9124 3 0.000793814 -4.12154
4622 1 21.4848 24.348 25.5823 3 0.000697935 -4.12134
4623 1 23.9465 24.3164 25.5806 3 0.000884572 -4.12224
4624 1 23.1265 24.3286 23.2491 3 0.000852825 -4.12188
4625 1 25.5851 24.2866 23.2528 3 0.000942039 -4.12252
4626 1 24.7657 24.302 20.9193 3 0.000915784 -4.12218
4627 1 27.2228 24.2502 20.9297 3 0.000954188 -4.12313
4628 1 26.4042 24.2694 18.5933 3 0.000890561 -4.12299
4629 1 28.8614 24.2108 18.6124 3 0.00127742 -4.12238
4630 1 28.042 24.2304 16.2733 3 0.00103223 -4.12292
4631 1 30.5022 24.1766 16.2999 3 0.00310541 -4.11892
4632 1 29.6811 24.1912 13.9591 3 0.00230359 -4.1201
4633 1 32.1462 24.1639 13.9882 3 0.00353295 -4.11927
4634 1 31.3242 24.1672 11.6466 3 0.00347281 -4.11881
4635 1 33.7902 24.1766 11.6765 3 0.00310541 -4.11892
4636 1 32.9682 24.1672 9.33567 3 0.00347281 -4.11881
4637 1 35.4309 24.2108 9.36391 3 0.00127742 -4.12238
4638 1 34.6113 24.1912 7.02319 3 0.00230359 -4.1201
4639 1 37.0696 24.2502 7.0467 3 0.000954188 -4.12313
4640 1 36.2504 24.2304 4.70896 3 0.00103223 -4.12292
4641 1 38.7073 24.2866 4.72359 3 0.000942039 -4.12252
4642 1 37.8882 24.2694 2.38899 3 0.000890561 -4.12299
4643 1 40.3459 24.3164 2.39574 3 0.000884572 -4.12224
4644 1 39.5267 24.302 0.0629607 3 0.000915784 -4.12218
4645 1 41.9866 24.339 0.0639305 3 0.000793814 -4.12154
4646 1 8.26748 22.3631 47.7697 3 6.03627e-05 -4.12115
4647 1 10.7454 22.3602 47.7628 3 8.81848e-05 -4.12115
4648 1 9.91959 22.3613 45.4337 3 7.79472e-05 -4.12115
4649 1 12.3963 22.3572 45.4269 3 0.000111557 -4.12116
4650 1 11.5709 22.3588 43.0978 3 9.93764e-05 -4.12115
4651 1 14.0463 22.3532 43.0912 3 0.000139139 -4.12119
4652 1 13.2214 22.3554 40.762 3 0.000124819 -4.12117
4653 1 15.6952 22.3478 40.7558 3 0.000170843 -4.12124
4654 1 14.8709 22.3507 38.4264 3 0.000154376 -4.12121
4655 1 17.343 22.3405 38.4208 3 0.000207491 -4.12133
4656 1 16.5192 22.3444 36.0912 3 0.000188621 -4.12127
4657 1 18.9894 22.3309 36.0866 3 0.000252583 -4.12146
4658 1 18.1664 22.3361 33.7565 3 0.000228489 -4.12139
4659 1 20.6346 22.3183 33.7535 3 0.000309049 -4.1217
4660 1 19.8122 22.325 31.4228 3 0.000278697 -4.12156
4661 1 22.2785 22.3016 31.4224 3 0.000368054 -4.12203
4662 1 21.4567 22.3105 29.0907 3 0.000344028 -4.12184
4663 1 23.9211 22.28 29.094 3 0.000399913 -4.12228
4664 1 23.1 22.2915 26.7608 3 0.000385065 -4.12223
4665 1 25.5635 22.2537 26.7684 3 0.000376991 -4.12269
4666 1 24.7423 22.2675 24.4338 3 0.000400036 -4.12247
4667 1 27.206 22.2233 24.4461 3 0.000407281 -4.12259
4668 1 26.3845 22.2388 22.1099 3 0.000390738 -4.12272
4669 1 28.85 22.1924 22.126 3 0.000773009 -4.12162
4670 1 28.0278 22.2077 19.7887 3 0.000487495 -4.12235
4671 1 30.4971 22.169 19.8058 3 0.00130375 -4.12073
4672 1 29.6732 22.1794 17.469 3 0.00104397 -4.12115
4673 1 32.1462 22.1599 17.4852 3 0.00169982 -4.12037
4674 1 31.3214 22.1623 15.1485 3 0.00155395 -4.12055
4675 1 33.7953 22.169 15.1647 3 0.00130375 -4.12073
4676 1 32.971 22.1623 12.8278 3 0.00155395 -4.12055
4677 1 35.4424 22.1924 12.8444 3 0.000773009 -4.12162
4678 1 34.6192 22.1794 10.5074 3 0.00104397 -4.12115
4679 1 37.0864 22.2233 10.5244 3 0.000407281 -4.12259
4680 1 36.2646 22.2077 8.18766 3 0.000487495 -4.12235
4681 1 38.7289 22.2537 8.20203 3 0.000376991 -4.12269
4682 1 37.9079 22.2388 5.86646 3 0.000390738 -4.12272
4683 1 40.3713 22.28 5.87642 3 0.000399913 -4.12228
4684 1 39.5501 22.2675 3.54257 3 0.000400036 -4.12247
4685 1 42.0139 22.3016 3.54801 3 0.000368054 -4.12203
4686 1 41.1924 22.2915 1.21557 3 0.000385065 -4.12223
4687 1 43.6578 22.3183 1.2169 3 0.000309049 -4.1217
4688 1 11.5559 20.3222 46.5976 3 5.71186e-05 -4.12129
4689 1 14.0291 20.3164 46.5924 3 7.78494e-05 -4.12137
4690 1 13.2049 20.3186 44.2627 3 7.04686e-05 -4.12134
4691 1 15.677 20.3109 44.2582 3 9.4415e-05 -4.12145
4692 1 14.8532 20.3138 41.9282 3 8.58048e-05 -4.1214
4693 1 17.3242 20.3036 41.9248 3 0.000114314 -4.12156
4694 1 16.5007 20.3075 39.5943 3 0.000103818 -4.1215
4695 1 18.9705 20.2942 39.5924 3 0.000139213 -4.12171
4696 1 18.1474 20.2992 37.2614 3 0.000126253 -4.12162
4697 1 20.6161 20.2819 37.2613 3 0.000168778 -4.12192
4698 1 19.7934 20.2884 34.9296 3 0.000153538 -4.12181
4699 1 22.2611 20.2663 34.9321 3 0.000189371 -4.12217
4700 1 21.4387 20.2746 32.5994 3 0.000180503 -4.12205
4701 1 23.9058 20.247 32.605 3 0.000195126 -4.12237
4702 1 23.0835 20.2571 30.2713 3 0.000195796 -4.12225
4703 1 25.5507 20.2244 30.2798 3 0.000190202 -4.12249
4704 1 24.7283 20.2361 27.9451 3 0.000187607 -4.12248
4705 1 27.1967 20.1999 27.956 3 0.000227087 -4.12234
4706 1 26.3736 20.2123 25.6207 3 0.000196318 -4.12245
4707 1 28.8445 20.1769 25.6324 3 0.000414603 -4.1218
4708 1 28.0203 20.1879 23.2973 3 0.000315416 -4.12203
4709 1 30.4945 20.1601 23.3079 3 0.000651847 -4.12146
4710 1 29.6693 20.1674 20.9732 3 0.000529118 -4.12161
4711 1 32.1462 20.1539 20.9823 3 0.000780966 -4.12122
4712 1 31.3203 20.1554 18.6481 3 0.000753447 -4.12126
4713 1 33.7979 20.1601 18.6566 3 0.000651847 -4.12146
4714 1 32.9721 20.1554 16.3223 3 0.000753447 -4.12126
4715 1 35.4479 20.1769 16.3321 3 0.000414603 -4.1218
4716 1 34.6231 20.1674 13.9972 3 0.000529118 -4.12161
4717 1 37.0957 20.1999 14.0086 3 0.000227087 -4.12234
4718 1 36.2721 20.1879 11.6732 3 0.000315416 -4.12203
4719 1 38.7416 20.2244 11.6848 3 0.000190202 -4.12249
4720 1 37.9188 20.2123 9.34973 3 0.000196318 -4.12245
4721 1 40.3865 20.247 9.35958 3 0.000195126 -4.12237
4722 1 39.5641 20.2361 7.02537 3 0.000187607 -4.12248
4723 1 42.0312 20.2663 7.03242 3 0.000189371 -4.12217
4724 1 41.2089 20.2571 4.69919 3 0.000195796 -4.12225
4725 1 43.6763 20.2819 4.7032 3 0.000168778 -4.12192
4726 1 42.8537 20.2746 2.37102 3 0.000180503 -4.12205
4727 1 45.3219 20.2942 2.37219 3 0.000139213 -4.12171
4728 1 44.499 20.2884 0.0408543 3 0.000153538 -4.12181
4729 1 46.9682 20.3036 0.0397608 3 0.000114314 -4.12156
4730 1 13.1936 18.2813 47.7645 3 4.14974e-05 -4.12143
4731 1 15.6648 18.2738 47.7617 3 5.62216e-05 -4.12156
4732 1 14.8411 18.2766 45.4311 3 5.08623e-05 -4.12151
4733 1 17.3117 18.2669 45.4295 3 6.88321e-05 -4.12169
4734 1 16.4883 18.2706 43.0984 3 6.21674e-05 -4.12162
4735 1 18.9582 18.2581 43.0983 3 8.36506e-05 -4.12184
4736 1 18.135 18.2628 40.7667 3 7.59839e-05 -4.12176
4737 1 20.6043 18.2469 40.7685 3 9.79354e-05 -4.12203
4738 1 19.7813 18.2528 38.4362 3 9.14508e-05 -4.12193
4739 1 22.2504 18.233 38.4401 3 0.000106757 -4.1222
4740 1 21.4274 18.2403 36.1071 3 0.000103086 -4.12212
4741 1 23.8967 18.2165 36.1131 3 0.00010563 -4.12236
4742 1 23.0735 18.2251 33.7794 3 0.000107346 -4.12228
4743 1 25.5436 18.1979 33.7871 3 0.00010988 -4.12237
4744 1 24.72 18.2074 31.453 3 0.00010684 -4.12238
4745 1 27.1918 18.1787 31.4615 3 0.000151304 -4.1222
4746 1 26.3675 18.1883 29.1273 3 0.000121646 -4.12232
4747 1 28.8417 18.1616 29.1353 3 0.000235322 -4.12196
4748 1 28.0165 18.1698 26.8015 3 0.000188657 -4.12208
4749 1 30.4934 18.1496 26.8078 3 0.000338463 -4.12175
4750 1 29.6674 18.1548 24.4746 3 0.000289045 -4.12185
4751 1 32.1462 18.1452 24.4793 3 0.000380854 -4.12167
4752 1 31.3197 18.1464 22.1466 3 0.000368049 -4.1217
4753 1 33.799 18.1496 22.1508 3 0.000338463 -4.12175
4754 1 32.9727 18.1464 19.818 3 0.000368049 -4.1217
4755 1 35.4506 18.1616 19.8234 3 0.000235322 -4.12196
4756 1 34.625 18.1548 17.4899 3 0.000289045 -4.12185
4757 1 37.1006 18.1787 17.4971 3 0.000151304 -4.1222
4758 1 36.2758 18.1698 15.1631 3 0.000188657 -4.12208
4759 1 38.7488 18.1979 15.1715 3 0.00010988 -4.12237
4760 1 37.9249 18.1883 12.8372 3 0.000121646 -4.12232
4761 1 40.3957 18.2165 12.8455 3 0.00010563 -4.12236
4762 1 39.5724 18.2074 10.5115 3 0.00010684 -4.12238
4763 1 42.042 18.233 10.5185 3 0.000106757 -4.1222
4764 1 41.2189 18.2251 8.18515 3 0.000107346 -4.12228
4765 1 43.688 18.2469 8.19015 3 9.79354e-05 -4.12203
4766 1 42.865 18.2403 5.85748 3 0.000103086 -4.12212
4767 1 45.3342 18.2581 5.8603 3 8.36506e-05 -4.12184
4768 1 44.5111 18.2528 3.52835 3 9.14508e-05 -4.12193
4769 1 46.9807 18.2669 3.52914 3 6.88321e-05 -4.12169
4770 1 46.1574 18.2628 1.19783 3 7.59839e-05 -4.12176
4771 1 48.6276 18.2738 1.19692 3 5.62216e-05 -4.12156
4772 1 16.4803 16.234 46.6025 3 4.08175e-05 -4.1217
4773 1 18.9504 16.2229 46.6035 3 5.43021e-05 -4.12192
4774 1 18.1271 16.227 44.2716 3 4.97277e-05 -4.12184
4775 1 20.5972 16.2131 44.2742 3 6.19556e-05 -4.12208
4776 1 19.7738 16.2182 41.9417 3 5.84032e-05 -4.122
4777 1 22.2441 16.2014 41.9459 3 6.61208e-05 -4.12222
4778 1 21.4206 16.2075 39.6129 3 6.4717e-05 -4.12215
4779 1 23.8915 16.1879 39.6185 3 6.79042e-05 -4.12231
4780 1 23.0677 16.1948 37.2851 3 6.66786e-05 -4.12228
4781 1 25.5399 16.1732 37.2914 3 7.42338e-05 -4.12231
4782 1 24.7156 16.1806 34.9579 3 6.95989e-05 -4.12233
4783 1 27.1895 16.1587 34.9641 3 9.78802e-05 -4.12221
4784 1 26.3645 16.1658 32.6308 3 8.44593e-05 -4.12226
4785 1 28.8405 16.1461 32.6359 3 0.000136356 -4.12207
4786 1 28.0148 16.152 30.3031 3 0.000115383 -4.12214
4787 1 30.493 16.1375 30.3065 3 0.000172908 -4.12195
4788 1 29.6666 16.1412 27.9743 3 0.000156902 -4.122
4789 1 32.1462 16.1345 27.9764 3 0.000187554 -4.12191
4790 1 31.3195 16.1352 25.6445 3 0.000184305 -4.12191
4791 1 33.7994 16.1375 25.6462 3 0.000172908 -4.12195
4792 1 32.9729 16.1352 23.3142 3 0.000184305 -4.12191
4793 1 35.4518 16.1461 23.3168 3 0.000136356 -4.12207
4794 1 34.6258 16.1412 20.9843 3 0.000156902 -4.122
4795 1 37.1029 16.1587 20.9886 3 9.78802e-05 -4.12221
4796 1 36.2776 16.152 18.6555 3 0.000115383 -4.12214
4797 1 38.7525 16.1732 18.6613 3 7.42338e-05 -4.12231
4798 1 37.9279 16.1658 16.3278 3 8.44593e-05 -4.12226
4799 1 40.4009 16.1879 16.3342 3 6.79042e-05 -4.12231
4800 1 39.5768 16.1806 14.0007 3 6.95989e-05 -4.12233
4801 1 42.0483 16.2014 14.0068 3 6.61208e-05 -4.12222
4802 1 41.2247 16.1948 11.6735 3 6.66786e-05 -4.12228
4803 1 43.6952 16.2131 11.6785 3 6.19556e-05 -4.12208
4804 1 42.8718 16.2075 9.3457 3 6.4717e-05 -4.12215
4805 1 45.3419 16.2229 9.34917 3 5.43021e-05 -4.12192
4806 1 44.5186 16.2182 7.01692 3 5.84032e-05 -4.122
4807 1 46.9887 16.2307 7.01878 3 4.51344e-05 -4.12177
4808 1 46.1653 16.227 4.68706 3 4.97277e-05 -4.12184
4809 1 48.6355 16.2369 4.6874 3 3.6764e-05 -4.12164
4810 1 47.8121 16.234 2.35616 3 4.08175e-05 -4.1217
4811 1 50.2826 16.2417 2.3552 3 2.96514e-05 -4.12153
4812 1 49.459 16.2394 0.024353 3 3.3033e-05 -4.12158
4813 1 51.93 16.2454 0.0223147 3 2.38271e-05 -4.12145
4814 1 18.1227 14.1918 47.7755 3 3.54186e-05 -4.12189
4815 1 20.5934 14.1805 47.7783 3 4.35488e-05 -4.1221
4816 1 19.7697 14.1846 45.4458 3 4.11553e-05 -4.12204
4817 1 22.241 14.1712 45.4497 3 4.67426e-05 -4.12223
4818 1 21.4171 14.176 43.1169 3 4.5344e-05 -4.12217
4819 1 23.8892 14.1607 43.1216 3 4.93307e-05 -4.12229
4820 1 23.065 14.166 40.7886 3 4.80863e-05 -4.12227
4821 1 25.5384 14.1496 40.7934 3 5.45391e-05 -4.12229
4822 1 24.7137 14.1551 38.4605 3 5.12515e-05 -4.1223
4823 1 27.1888 14.1389 38.4647 3 6.4013e-05 -4.12223
4824 1 26.3634 14.1441 36.1321 3 5.86761e-05 -4.12227
4825 1 28.8403 14.13 36.1351 3 7.68747e-05 -4.12214
4826 1 28.0144 14.1342 33.803 3 7.04226e-05 -4.12219
4827 1 30.493 14.124 33.8046 3 8.6905e-05 -4.12207
4828 1 29.6665 14.1265 31.4729 3 8.24054e-05 -4.1221
4829 1 32.1462 14.1218 31.4734 3 9.05667e-05 -4.12205
4830 1 31.3195 14.1224 29.142 3 8.95175e-05 -4.12205
4831 1 33.7994 14.124 29.1422 3 8.6905e-05 -4.12207
4832 1 32.9728 14.1224 26.8107 3 8.95175e-05 -4.12205
4833 1 35.452 14.13 26.8117 3 7.68747e-05 -4.12214
4834 1 34.6258 14.1265 24.4798 3 8.24054e-05 -4.1221
4835 1 37.1036 14.1389 24.4821 3 6.4013e-05 -4.12223
4836 1 36.278 14.1342 22.1497 3 7.04226e-05 -4.12219
4837 1 38.754 14.1496 22.1534 3 5.45391e-05 -4.12229
4838 1 37.929 14.1441 19.8206 3 5.86761e-05 -4.12227
4839 1 40.4032 14.1607 19.8252 3 4.93307e-05 -4.12229
4840 1 39.5787 14.1551 17.4922 3 5.12515e-05 -4.1223
4841 1 42.0514 14.1712 17.4971 3 4.67426e-05 -4.12223
4842 1 41.2274 14.166 15.1641 3 4.80863e-05 -4.12227
4843 1 43.699 14.1805 15.1685 3 4.35488e-05 -4.1221
4844 1 42.8753 14.176 12.8358 3 4.5344e-05 -4.12217
4845 1 45.3462 14.1884 12.8392 3 3.83868e-05 -4.12196
4846 1 44.5226 14.1846 10.5069 3 4.11553e-05 -4.12204
4847 1 46.9932 14.1949 10.5092 3 3.23328e-05 -4.12182
4848 1 46.1697 14.1918 8.17726 3 3.54186e-05 -4.12189
4849 1 48.6401 14.2001 8.1783 3 2.63636e-05 -4.12169
4850 1 47.8167 14.1977 5.84679 3 2.92764e-05 -4.12175
4851 1 50.2871 14.2042 5.8467 3 2.11522e-05 -4.12158
4852 1 49.4636 14.2023 3.51554 3 2.36476e-05 -4.12163
4853 1 51.9343 14.2074 3.51446 3 1.67473e-05 -4.12149
4854 1 51.1107 14.2059 1.18361 3 1.88353e-05 -4.12153
4855 1 53.5816 14.2099 1.18169 3 1.30888e-05 -4.12141
4856 1 21.4163 12.1454 46.6191 3 3.65501e-05 -4.12218
4857 1 23.8891 12.1343 46.6227 3 3.99465e-05 -4.12229
4858 1 23.0646 12.1381 44.2901 3 3.90209e-05 -4.12227
4859 1 25.5387 12.1265 44.2935 3 4.13515e-05 -4.1223
4860 1 24.7138 12.1304 41.9611 3 4.0753e-05 -4.1223
4861 1 27.1893 12.1192 41.9638 3 4.21966e-05 -4.12227
4862 1 26.3639 12.1227 39.6317 3 4.18121e-05 -4.12229
4863 1 28.8409 12.1131 39.6333 3 4.21562e-05 -4.12221
4864 1 28.015 12.1159 37.3016 3 4.23375e-05 -4.12224
4865 1 30.4933 12.1091 37.3021 3 4.129e-05 -4.12217
4866 1 29.667 12.1108 34.9708 3 4.17801e-05 -4.12219
4867 1 32.1462 12.1077 34.9704 3 4.0718e-05 -4.12215
4868 1 31.3197 12.1081 32.6393 3 4.08755e-05 -4.12215
4869 1 33.7991 12.1091 32.6388 3 4.129e-05 -4.12217
4870 1 32.9727 12.1081 30.3075 3 4.08755e-05 -4.12215
4871 1 35.4515 12.1131 30.3075 3 4.21562e-05 -4.12221
4872 1 34.6254 12.1108 27.976 3 4.17801e-05 -4.12219
4873 1 37.1031 12.1192 27.9771 3 4.21966e-05 -4.12227
4874 1 36.2774 12.1159 25.6452 3 4.23375e-05 -4.12224
4875 1 38.7537 12.1265 25.6474 3 4.13515e-05 -4.1223
4876 1 37.9285 12.1227 23.3151 3 4.18121e-05 -4.12229
4877 1 40.4033 12.1343 23.3182 3 3.99465e-05 -4.12229
4878 1 39.5786 12.1304 20.9857 3 4.0753e-05 -4.1223
4879 1 42.052 12.1419 20.9892 3 3.79539e-05 -4.12223
4880 1 41.2278 12.1381 18.6567 3 3.90209e-05 -4.12227
4881 1 43.7001 12.1488 18.6601 3 3.4873e-05 -4.12212
4882 1 42.8761 12.1454 16.3277 3 3.65501e-05 -4.12218
4883 1 45.3476 12.1547 16.3306 3 3.06999e-05 -4.12199
4884 1 44.5239 12.1519 13.9984 3 3.2903e-05 -4.12206
4885 1 46.9949 12.1597 14.0006 3 2.59688e-05 -4.12185
4886 1 46.1713 12.1573 11.6686 3 2.83747e-05 -4.12192
4887 1 48.642 12.1637 11.6699 3 2.12196e-05 -4.12172
4888 1 47.8184 12.1618 9.33824 3 2.35533e-05 -4.12178
4889 1 50.2891 12.167 9.33861 3 1.696e-05 -4.1216
4890 1 49.4655 12.1654 7.00726 3 1.90293e-05 -4.12166
4891 1 51.9362 12.1695 7.00681 3 1.32864e-05 -4.12151
4892 1 51.1126 12.1683 4.67573 3 1.50383e-05 -4.12155
4893 1 53.5834 12.1715 4.67456 3 1.0204e-05 -4.12143
4894 1 52.7597 12.1705 2.34369 3 1.16842e-05 -4.12147
4895 1 55.2306 12.173 2.34194 3 7.64719e-06 -4.12137
4896 1 54.407 12.1723 0.0112503 3 8.86561e-06 -4.1214
4897 1 56.878 12.1741 0.00902422 3 5.54986e-06 -4.12132
4898 1 23.0665 10.1109 47.7901 3 3.64631e-05 -4.12226
4899 1 25.5407 10.1036 47.7922 3 3.42984e-05 -4.12232
4900 1 24.7157 10.106 45.4602 3 3.56476e-05 -4.12231
4901 1 27.1911 10.0991 45.4618 3 2.99467e-05 -4.12231
4902 1 26.3658 10.1013 43.1301 3 3.23597e-05 -4.12232
4903 1 28.8423 10.0955 43.1308 3 2.43617e-05 -4.12228
4904 1 28.0166 10.0972 40.7993 3 2.71846e-05 -4.1223
4905 1 30.4941 10.0931 40.7993 3 1.95249e-05 -4.12226
4906 1 29.6681 10.0941 38.4681 3 2.16891e-05 -4.12227
4907 1 32.1462 10.0923 38.4675 3 1.75892e-05 -4.12225
4908 1 31.3201 10.0925 36.1364 3 1.80722e-05 -4.12225
4909 1 33.7983 10.0931 36.1357 3 1.95249e-05 -4.12226
4910 1 32.9723 10.0925 33.8045 3 1.80722e-05 -4.12225
4911 1 35.4501 10.0955 33.8042 3 2.43617e-05 -4.12228
4912 1 34.6243 10.0941 31.4728 3 2.16891e-05 -4.12227
4913 1 37.1013 10.0991 31.4732 3 2.99467e-05 -4.12231
4914 1 36.2758 10.0972 29.1415 3 2.71846e-05 -4.1223
4915 1 38.7517 10.1036 29.1427 3 3.42984e-05 -4.12232
4916 1 37.9266 10.1013 26.8108 3 3.23597e-05 -4.12232
4917 1 40.4014 10.1084 26.8127 3 3.64192e-05 -4.12229
4918 1 39.5766 10.106 24.4807 3 3.56475e-05 -4.12231
4919 1 42.0503 10.1133 24.483 3 3.59659e-05 -4.12223
4920 1 41.2259 10.1109 22.1508 3 3.64632e-05 -4.12226
4921 1 43.6985 10.1177 22.1532 3 3.34479e-05 -4.12212
4922 1 42.8745 10.1155 19.8211 3 3.49544e-05 -4.12218
4923 1 45.3464 10.1216 19.8232 3 2.94988e-05 -4.122
4924 1 44.5225 10.1197 17.4912 3 3.15915e-05 -4.12206
4925 1 46.9939 10.125 17.4929 3 2.48652e-05 -4.12186
4926 1 46.1702 10.1234 15.1611 3 2.72156e-05 -4.12193
4927 1 48.6413 10.1277 15.1621 3 2.02669e-05 -4.12173
4928 1 47.8176 10.1264 12.8305 3 2.25344e-05 -4.1218
4929 1 50.2886 10.1299 12.831 3 1.60209e-05 -4.12162
4930 1 49.4649 10.1289 10.4996 3 1.80734e-05 -4.12167
4931 1 51.9359 10.1317 10.4995 3 1.23825e-05 -4.12152
4932 1 51.1122 10.1309 8.16822 3 1.41216e-05 -4.12157
4933 1 53.5832 10.1331 8.16759 3 9.30771e-06 -4.12144
4934 1 52.7595 10.1324 5.83652 3 1.07709e-05 -4.12148
4935 1 55.2306 10.1341 5.83545 3 6.83214e-06 -4.12137
4936 1 54.4069 10.1336 3.50451 3 8.00336e-06 -4.1214
4937 1 56.8781 10.1349 3.50308 3 4.85968e-06 -4.12132
4938 1 56.0543 10.1346 1.17225 3 5.78122e-06 -4.12135
4939 1 58.5256 10.1355 1.17055 3 3.34687e-06 -4.12129
4940 1 26.3695 8.0795 46.6274 3 3.52893e-05 -4.12258
4941 1 28.8448 8.07688 46.6277 3 2.23158e-05 -4.12249
4942 1 28.0196 8.07764 44.2963 3 2.65645e-05 -4.12252
4943 1 30.4954 8.07582 44.2962 3 1.57327e-05 -4.12245
4944 1 29.67 8.07627 41.9649 3 1.86093e-05 -4.12247
4945 1 32.1462 8.07545 41.9645 3 1.32918e-05 -4.12244
4946 1 31.3208 8.07554 39.6333 3 1.39194e-05 -4.12244
4947 1 33.797 8.07582 39.6329 3 1.57327e-05 -4.12245
4948 1 32.9716 8.07554 37.3016 3 1.39194e-05 -4.12244
4949 1 35.4476 8.07688 37.3014 3 2.23158e-05 -4.12249
4950 1 34.6224 8.07627 34.97 3 1.86093e-05 -4.12247
4951 1 37.0979 8.07852 34.9701 3 3.09872e-05 -4.12255
4952 1 36.2728 8.07764 32.6386 3 2.65645e-05 -4.12252
4953 1 38.7477 8.08055 32.6392 3 3.91003e-05 -4.12261
4954 1 37.9228 8.0795 30.3076 3 3.52892e-05 -4.12258
4955 1 40.3969 8.08279 30.3085 3 4.43185e-05 -4.12265
4956 1 39.5724 8.08166 27.9767 3 4.21417e-05 -4.12263
4957 1 42.0457 8.08504 27.9779 3 4.55676e-05 -4.12266
4958 1 41.2214 8.08392 25.6461 3 4.54804e-05 -4.12266
4959 1 43.6942 8.08717 25.6474 3 4.30692e-05 -4.12264
4960 1 42.87 8.08613 23.3156 3 4.47111e-05 -4.12265
4961 1 45.3423 8.08907 23.3167 3 3.79166e-05 -4.12261
4962 1 44.5182 8.08815 20.985 3 4.07387e-05 -4.12263
4963 1 46.9902 8.09072 20.986 3 3.15332e-05 -4.12255
4964 1 46.1662 8.08993 18.6543 3 3.48085e-05 -4.12258
4965 1 48.6379 8.0921 18.655 3 2.50478e-05 -4.1225
4966 1 47.8141 8.09145 16.3234 3 2.82377e-05 -4.12253
4967 1 50.2857 8.09323 16.3237 3 1.91851e-05 -4.12245
4968 1 49.4618 8.0927 13.9923 3 2.20015e-05 -4.12247
4969 1 51.9334 8.09415 13.9923 3 1.42821e-05 -4.1224
4970 1 51.1095 8.09372 11.661 3 1.66182e-05 -4.12242
4971 1 53.5811 8.09487 11.6607 3 1.03948e-05 -4.12236
4972 1 52.7572 8.09453 9.32951 3 1.22123e-05 -4.12238
4973 1 55.2289 8.09543 9.329 3 7.39866e-06 -4.12233
4974 1 54.405 8.09517 6.99784 3 8.78578e-06 -4.12235
4975 1 56.8767 8.09587 6.99714 3 5.17388e-06 -4.12231
4976 1 56.0528 8.09567 4.66604 3 6.20256e-06 -4.12232
4977 1 58.5246 8.09619 4.66519 3 3.58431e-06 -4.12229
4978 1 57.7006 8.09604 2.33413 3 4.31279e-06 -4.1223
4979 1 60.1725 8.09642 2.33317 3 2.50178e-06 -4.12228
4980 1 59.3485 8.09632 0.00214054 3 2.9817e-06 -4.12229
4981 1 61.8204 8.09656 0.00110231 3 1.82514e-06 -4.12227
4982 1 28.0249 6.05706 47.7929 3 6.36484e-05 -4.12207
4983 1 30.4977 6.05706 47.7929 3 1.32761e-05 -4.12205
4984 1 29.6734 6.05706 45.4616 3 2.55494e-05 -4.12205
4985 1 32.1462 6.05706 45.4616 3 3.3144e-06 -4.12204
4986 1 31.3219 6.05706 43.1302 3 5.81593e-06 -4.12204
4987 1 33.7947 6.05706 43.1302 3 1.3276e-05 -4.12205
4988 1 32.9705 6.05706 40.7989 3 5.81592e-06 -4.12204
4989 1 35.4432 6.05706 40.7989 3 4.24253e-05 -4.12206
4990 1 34.619 6.05706 38.4675 3 2.55496e-05 -4.12205
4991 1 37.0918 6.05706 38.4675 3 8.89403e-05 -4.12208
4992 1 36.2675 6.05706 36.1361 3 6.36482e-05 -4.12207
4993 1 38.7403 6.05706 36.1361 3 0.000150565 -4.12211
4994 1 37.916 6.05706 33.8048 3 0.000118019 -4.1221
4995 1 40.3888 6.05706 33.8048 3 0.000224709 -4.12215
4996 1 39.5645 6.05706 31.4734 3 0.000186264 -4.12213
4997 1 42.0373 6.05706 31.4734 3 0.000307778 -4.12218
4998 1 41.2131 6.05706 29.142 3 0.000265394 -4.12217
4999 1 43.6859 6.05706 29.142 3 0.000394982 -4.12221
5000 1 42.8616 6.05706 26.8107 3 0.000351215 -4.12219
5001 1 45.3344 6.05706 26.8107 3 0.000480835 -4.12222
5002 1 44.5101 6.05706 24.4793 3 0.000438416 -4.12221
5003 1 46.9829 6.05706 24.4793 3 0.000560309 -4.12222
5004 1 46.1586 6.05706 22.1479 3 0.000521624 -4.12222
5005 1 48.6314 6.05706 22.1479 3 0.000629864 -4.12221
5006 1 47.8072 6.05706 19.8166 3 0.000596471 -4.12222
5007 1 50.2799 6.05706 19.8166 3 0.000687853 -4.1222
5008 1 49.4557 6.05706 17.4852 3 0.000660325 -4.1222
5009 1 51.9285 6.05706 17.4852 3 0.000734204 -4.12218
5010 1 51.1042 6.05706 15.1539 3 0.000712434 -4.12219
5011 1 53.577 6.05706 15.1539 3 0.000769854 -4.12216
5012 1 52.7527 6.05706 12.8225 3 0.000753276 -4.12217
5013 1 55.2255 6.05706 12.8225 3 0.000796409 -4.12214
5014 1 54.4012 6.05706 10.4911 3 0.00078416 -4.12215
5015 1 56.874 6.05706 10.4911 3 0.000815526 -4.12212
5016 1 56.0498 6.05706 8.15977 3 0.000806795 -4.12213
5017 1 58.5226 6.05706 8.15977 3 0.00082881 -4.1221
5018 1 57.6983 6.05706 5.82841 3 0.0008228 -4.12211
5019 1 60.1711 6.05706 5.82841 3 0.000837583 -4.12209
5020 1 59.3468 6.05706 3.49704 3 0.00083369 -4.1221
5021 1 61.8196 6.05706 3.49704 3 0.000842842 -4.12208
5022 1 60.9953 6.05706 1.16568 3 0.000840622 -4.12209
5023 1 63.4681 6.05706 1.16568 3 0.000845304 -4.12208
5024 1 31.3219 4.03804 46.6273 3 1.69002e-18 -4.12244
5025 1 33.7947 4.03804 46.6273 3 4.01691e-16 -4.12243
5026 1 32.9705 4.03804 44.2959 3 9.99999e-17 -4.12244
5027 1 35.4432 4.03804 44.2959 3 1e-16 -4.12238
5028 1 34.619 4.03804 41.9645 3 4e-16 -4.12241
5029 1 37.0918 4.03804 41.9645 3 0 -4.1223
5030 1 36.2675 4.03804 39.6332 3 1e-16 -4.12234
5031 1 38.7403 4.03804 39.6332 3 1e-16 -4.12219
5032 1 37.916 4.03804 37.3018 3 8.07794e-28 -4.12225
5033 1 40.3888 4.03804 37.3018 3 3.99999e-16 -4.12208
5034 1 39.5645 4.03804 34.9704 3 1e-16 -4.12214
5035 1 42.0373 4.03804 34.9704 3 1e-16 -4.12197
5036 1 41.2131 4.03804 32.6391 3 4.00001e-16 -4.12203
5037 1 43.6859 4.03804 32.6391 3 4.03897e-28 -4.12186
5038 1 42.8616 4.03804 30.3077 3 9.99999e-17 -4.12192
5039 1 45.3344 4.03804 30.3077 3 9.99999e-17 -4.12177
5040 1 44.5101 4.03804 27.9764 3 3.5341e-28 -4.12181
5041 1 46.9829 4.03804 27.9764 3 3.99999e-16 -4.12168
5042 1 46.1586 4.03804 25.645 3 9.99999e-17 -4.12172
5043 1 48.6314 4.03804 25.645 3 9.99999e-17 -4.12161
5044 1 47.8072 4.03804 23.3136 3 3.99999e-16 -4.12165
5045 1 50.2799 4.03804 23.3136 3 2.01948e-28 -4.12156
5046 1 49.4557 4.03804 20.9823 3 9.99999e-17 -4.12158
5047 1 51.9285 4.03804 20.9823 3 1e-16 -4.12151
5048 1 51.1042 4.03804 18.6509 3 9.99999e-17 -4.12153
5049 1 53.577 4.03804 18.6509 3 3.99999e-16 -4.12147
5050 1 52.7527 4.03804 16.3195 3 4.00001e-16 -4.12149
5051 1 55.2255 4.03804 16.3195 3 1e-16 -4.12144
5052 1 54.4012 4.03804 13.9882 3 1e-16 -4.12146
5053 1 56.874 4.03804 13.9882 3 2.52435e-29 -4.12142
5054 1 56.0498 4.03804 11.6568 3 0 -4.12143
5055 1 58.5226 4.03804 11.6568 3 9.99999e-17 -4.1214
5056 1 57.6983 4.03804 9.32545 3 1e-16 -4.12141
5057 1 60.1711 4.03804 9.32545 3 3.99999e-16 -4.12139
5058 1 59.3468 4.03804 6.99409 3 3.99999e-16 -4.1214
5059 1 61.8196 4.03804 6.99409 3 5.77599e-17 -4.12138
5060 1 60.9953 4.03804 4.66273 3 9.99999e-17 -4.12139
5061 1 63.4681 4.03804 4.66273 3 2.304e-17 -4.12138
5062 1 62.6439 4.03804 2.33136 3 5.76e-18 -4.12138
5063 1 32.9705 2.01902 47.7929 3 1.0507e-16 -4.10627
5064 1 35.4432 2.01902 47.7929 3 1.0507e-16 -4.10627
5065 1 34.619 2.01902 45.4616 3 4e-16 -4.10627
5066 1 37.0918 2.01902 45.4616 3 0 -4.10627
5067 1 36.2675 2.01902 43.1302 3 1e-16 -4.10627
5068 1 38.7403 2.01902 43.1302 3 1e-16 -4.10627
5069 1 37.916 2.01902 40.7989 3 1.41364e-27 -4.10627
5070 1 40.3888 2.01902 40.7989 3 3.99999e-16 -4.10627
5071 1 39.5645 2.01902 38.4675 3 1e-16 -4.10627
5072 1 42.0373 2.01902 38.4675 3 1e-16 -4.10627
5073 1 41.2131 2.01902 36.1361 3 4.00001e-16 -4.10627
5074 1 43.6859 2.01902 36.1361 3 8.07794e-28 -4.10627
5075 1 42.8616 2.01902 33.8048 3 9.99999e-17 -4.10627
5076 1 45.3344 2.01902 33.8048 3 9.99999e-17 -4.10627
5077 1 44.5101 2.01902 31.4734 3 2.52435e-28 -4.10627
5078 1 46.9829 2.01902 31.4734 3 3.99999e-16 -4.10627
5079 1 46.1586 2.01902 29.142 3 9.99999e-17 -4.10627
5080 1 48.6314 2.01902 29.142 3 9.99999e-17 -4.10627
5081 1 47.8072 2.01902 26.8107 3 3.99999e-16 -4.10627
5082 1 50.2799 2.01902 26.8107 3 2.01948e-28 -4.10627
5083 1 49.4557 2.01902 24.4793 3 9.99999e-17 -4.10627
5084 1 51.9285 2.01902 24.4793 3 1e-16 -4.10627
5085 1 51.1042 2.01902 22.1479 3 9.99999e-17 -4.10627
5086 1 53.577 2.01902 22.1479 3 3.99999e-16 -4.10627
5087 1 52.7527 2.01902 19.8166 3 4.00001e-16 -4.10627
5088 1 55.2255 2.01902 19.8166 3 1e-16 -4.10627
5089 1 54.4012 2.01902 17.4852 3 1e-16 -4.10627
5090 1 56.874 2.01902 17.4852 3 1.00974e-28 -4.10627
5091 1 56.0498 2.01902 15.1539 3 0 -4.10627
5092 1 58.5226 2.01902 15.1539 3 9.99999e-17 -4.10627
5093 1 57.6983 2.01902 12.8225 3 1e-16 -4.10627
5094 1 60.1711 2.01902 12.8225 3 3.99999e-16 -4.10627
5095 1 59.3468 2.01902 10.4911 3 3.99999e-16 -4.10627
5096 1 61.8196 2.01902 10.4911 3 5.77599e-17 -4.10627
5097 1 60.9953 2.01902 8.15977 3 9.99999e-17 -4.10627
5098 1 63.4681 2.01902 8.15977 3 2.304e-17 -4.10627
5099 1 62.6439 2.01902 5.82841 3 5.76e-18 -4.10627
5100 1 36.2675 0 46.6273 5 12.2293 -3.54465
5101 1 38.7403 0 46.6273 5 12.2293 -3.54465
5102 1 37.916 0 44.2959 5 12.2293 -3.54465
5103 1 40.3888 0 44.2959 5 12.2293 -3.54465
5104 1 39.5645 0 41.9645 5 12.2293 -3.54465
5105 1 42.0373 0 41.9645 5 12.2293 -3.54465
5106 1 41.2131 0 39.6332 5 12.2293 -3.54465
5107 1 43.6859 0 39.6332 5 12.2293 -3.54465
5108 1 42.8616 0 37.3018 5 12.2293 -3.54465
5109 1 45.3344 0 37.3018 5 12.2293 -3.54465
5110 1 44.5101 0 34.9704 5 12.2293 -3.54465
5111 1 46.9829 0 34.9704 5 12.2293 -3.54465
5112 1 46.1586 0 32.6391 5 12.2293 -3.54465
5113 1 48.6314 0 32.6391 5 12.2293 -3.54465
5114 1 47.8072 0 30.3077 5 12.2293 -3.54465
5115 1 50.2799 0 30.3077 5 12.2293 -3.54465
5116 1 49.4557 0 27.9764 5 12.2293 -3.54465
5117 1 51.9285 0 27.9764 5 12.2293 -3.54465
5118 1 51.1042 0 25.645 5 12.2293 -3.54465
5119 1 53.577 0 25.645 5 12.2293 -3.54465
5120 1 52.7527 0 23.3136 5 12.2293 -3.54465
5121 1 55.2255 0 23.3136 5 12.2293 -3.54465
5122 1 54.4012 0 20.9823 5 12.2293 -3.54465
5123 1 56.874 0 20.9823 5 12.2293 -3.54465
5124 1 56.0498 0 18.6509 5 12.2293 -3.54465
5125 1 58.5226 0 18.6509 5 12.2293 -3.54465
5126 1 57.6983 0 16.3195 5 12.2293 -3.54465
5127 1 60.1711 0 16.3195 5 12.2293 -3.54465
5128 1 59.3468 0 13.9882 5 12.2293 -3.54465
5129 1 61.8196 0 13.9882 5 12.2293 -3.54465
5130 1 60.9953 0 11.6568 5 12.2293 -3.54465
5131 1 63.4681 0 11.6568 5 12.2293 -3.54465
5132 1 62.6439 0 9.32545 5 12.2293 -3.54465
5133 1 3.34474 30.4855 47.7886 3 0.000111484 -4.1195
5134 1 5.85301 30.4855 47.7853 3 0.00012591 -4.11935
5135 1 5.01696 30.4855 45.4551 3 0.000119916 -4.11941
5136 1 7.52491 30.4854 45.4515 3 0.00014236 -4.11919
5137 1 6.68899 30.4855 43.1214 3 0.000133238 -4.11928
5138 1 9.19651 30.485 43.1176 3 0.000166986 -4.11899
5139 1 8.36075 30.4852 40.7876 3 0.000153492 -4.1191
5140 1 10.8677 30.4843 40.7835 3 0.000205009 -4.11871
5141 1 10.0321 30.4847 38.4536 3 0.000184032 -4.11886
5142 1 12.5383 30.483 38.4491 3 0.000264672 -4.11835
5143 1 11.7031 30.4837 36.1193 3 0.000230689 -4.11855
5144 1 14.2083 30.481 36.1143 3 0.000360429 -4.11788
5145 1 13.3734 30.4821 33.7847 3 0.000307261 -4.11813
5146 1 15.8772 30.478 33.7789 3 0.000536516 -4.11718
5147 1 15.0428 30.4796 31.4496 3 0.00043741 -4.11755
5148 1 17.5448 30.4737 31.4427 3 0.000873927 -4.11615
5149 1 16.7113 30.476 29.1139 3 0.000663448 -4.11678
5150 1 19.211 30.4677 29.1053 3 0.00152376 -4.11468
5151 1 18.378 30.4709 26.7772 3 0.00115263 -4.11545
5152 1 20.8736 30.4599 26.7661 3 0.00325419 -4.11174
5153 1 20.0425 30.4641 24.4389 3 0.00225363 -4.11327
5154 1 22.5319 30.4496 24.4236 3 0.00806511 -4.10618
5155 1 21.7047 30.455 22.0982 3 0.00467582 -4.10997
5156 1 24.1862 30.4356 22.0757 3 0.0215462 -4.09544
5157 1 23.3589 30.4432 19.7539 3 0.0130334 -4.10166
5158 1 25.8204 30.414 19.7161 3 0.0954364 -4.05808
5159 1 25.0033 30.4266 17.4013 3 0.0487191 -4.07866
5160 1 27.4243 30.3474 17.3266 3 5.11537 -4.00147
5161 1 26.6376 30.3951 15.0276 3 0.167103 -4.03237
5162 1 29.0294 30.3016 14.9498 5 4.50623 -3.98757
5163 1 28.2191 30.3187 12.6334 5 4.75702 -3.99009
5164 1 30.6006 30.2568 12.6601 5 3.81688 -3.93471
5165 1 29.8153 30.2835 10.2971 5 4.18412 -3.97113
5166 1 32.1462 30.2028 10.4911 5 3.25055 -3.87684
5167 1 31.4004 30.2303 8.05744 5 3.42045 -3.89887
5168 1 33.6918 30.2568 8.32217 5 3.81688 -3.93471
5169 1 32.892 30.2303 5.93074 5 3.42045 -3.89887
5170 1 35.263 30.3016 6.03244 5 4.50623 -3.98757
5171 1 34.4771 30.2835 3.69112 5 4.18412 -3.97113
5172 1 36.868 30.3474 3.65564 3 5.11537 -4.00147
5173 1 36.0733 30.3187 1.35473 5 4.75702 -3.99009
5174 1 38.472 30.414 1.26621 3 0.0954364 -4.05808
5175 1 6.66474 28.46 46.6138 3 0.000127086 -4.12013
5176 1 9.16228 28.4593 46.6081 3 0.000177766 -4.11992
5177 1 8.32994 28.4596 44.2787 3 0.000157242 -4.12
5178 1 10.8263 28.4583 44.2727 3 0.000235341 -4.11973
5179 1 9.99441 28.4589 41.9434 3 0.000203071 -4.11983
5180 1 12.4893 28.4568 41.9368 3 0.000324049 -4.1195
5181 1 11.6579 28.4577 39.6077 3 0.000274991 -4.11962
5182 1 14.1508 28.4544 39.6004 3 0.000468853 -4.11918
5183 1 13.3203 28.4557 37.2716 3 0.000389026 -4.11935
5184 1 15.8107 28.4509 37.2633 3 0.00070721 -4.1188
5185 1 14.981 28.4528 34.9349 3 0.000568438 -4.119
5186 1 17.4683 28.4459 34.9253 3 0.00108856 -4.11827
5187 1 16.6397 28.4486 32.5974 3 0.000876386 -4.11854
5188 1 19.1227 28.4391 32.5861 3 0.00177465 -4.11755
5189 1 18.296 28.4428 30.2588 3 0.00140198 -4.11796
5190 1 20.7736 28.4297 30.2451 3 0.00297164 -4.11672
5191 1 19.9489 28.4347 27.9189 3 0.00224084 -4.11713
5192 1 22.4195 28.4167 27.9021 3 0.00483509 -4.11549
5193 1 21.5969 28.4237 25.5769 3 0.00380236 -4.11608
5194 1 24.0575 28.3979 25.5561 3 0.00848892 -4.1156
5195 1 23.2399 28.4085 23.2322 3 0.00657172 -4.11542
5196 1 25.6893 28.3672 23.2078 3 0.0118046 -4.12298
5197 1 24.875 28.3848 20.8852 3 0.0101215 -4.1172
5198 1 27.3116 28.3192 20.8662 3 0.0126047 -4.12069
5199 1 26.4984 28.342 18.5405 3 0.0117188 -4.12211
5200 1 28.9306 28.2612 18.5328 3 0.0139267 -4.11512
5201 1 28.1253 28.2912 16.1973 3 0.0108747 -4.11667
5202 1 30.543 28.2101 16.243 3 0.0163236 -4.11343
5203 1 29.7378 28.2337 13.8853 3 0.0161729 -4.11454
5204 1 32.1462 28.1701 13.9882 3 0.0485463 -4.09016
5205 1 31.3394 28.1809 11.6197 3 0.0322406 -4.09783
5206 1 33.7494 28.2101 11.7334 3 0.0163236 -4.11343
5207 1 32.9529 28.1809 9.36261 3 0.0322406 -4.09783
5208 1 35.3618 28.2612 9.44351 3 0.0139267 -4.11512
5209 1 34.5546 28.2337 7.09699 3 0.0161729 -4.11454
5210 1 36.9807 28.3192 7.11017 3 0.0126047 -4.12069
5211 1 36.1671 28.2912 4.78492 3 0.0108747 -4.11667
5212 1 38.6031 28.3672 4.76856 3 0.0118046 -4.12298
5213 1 37.794 28.342 2.44177 3 0.0117188 -4.12211
5214 1 40.2349 28.3979 2.42026 3 0.00848892 -4.1156
5215 1 39.4174 28.3848 0.0971129 3 0.0101215 -4.1172
5216 1 41.8729 28.4167 0.0743066 3 0.00483509 -4.11549
5217 1 8.30379 26.4302 47.7717 3 0.000134239 -4.1206
5218 1 10.7919 26.4283 47.7645 3 0.000205992 -4.12045
5219 1 9.96276 26.4291 45.4356 3 0.000177741 -4.12051
5220 1 12.4492 26.4263 45.428 3 0.000280837 -4.12034
5221 1 11.6207 26.4274 43.0992 3 0.000240231 -4.1204
5222 1 14.105 26.4232 43.0911 3 0.000387257 -4.12021
5223 1 13.2773 26.4249 40.7625 3 0.000328903 -4.12028
5224 1 15.759 26.4189 40.7537 3 0.000535789 -4.12007
5225 1 14.9323 26.4212 38.4254 3 0.000455557 -4.12015
5226 1 17.411 26.4129 38.4158 3 0.000743912 -4.11996
5227 1 16.5853 26.4161 36.0878 3 0.000632901 -4.12001
5228 1 19.0603 26.4047 36.0774 3 0.00102489 -4.11984
5229 1 18.236 26.4091 33.7496 3 0.000872325 -4.11987
5230 1 20.7065 26.3934 33.7385 3 0.00138945 -4.11976
5231 1 19.8839 26.3995 31.4109 3 0.00119292 -4.11984
5232 1 22.3494 26.378 31.3994 3 0.00186971 -4.12017
5233 1 21.5285 26.3863 29.0719 3 0.00161523 -4.11988
5234 1 23.988 26.356 29.0615 3 0.00242576 -4.12132
5235 1 23.169 26.3679 26.7332 3 0.00221009 -4.12044
5236 1 25.6217 26.3231 26.7279 3 0.00253655 -4.12157
5237 1 24.8057 26.3415 24.3967 3 0.00249975 -4.12221
5238 1 27.2545 26.2828 24.3982 3 0.00270402 -4.12349
5239 1 26.4385 26.3041 22.0652 3 0.00259635 -4.12219
5240 1 28.8844 26.2327 22.0804 3 0.00356947 -4.12193
5241 1 28.0687 26.2585 19.741 3 0.00322313 -4.12373
5242 1 30.5129 26.1844 19.7796 3 0.00816207 -4.11663
5243 1 29.6995 26.2083 17.4301 3 0.00443349 -4.12078
5244 1 32.1462 26.1677 17.4852 3 0.0089096 -4.11296
5245 1 31.3291 26.1714 15.1358 3 0.00960164 -4.11429
5246 1 33.7795 26.1844 15.1908 3 0.00816207 -4.11663
5247 1 32.9633 26.1714 12.8406 3 0.00960164 -4.11429
5248 1 35.4079 26.2327 12.89 3 0.00356947 -4.12193
5249 1 34.5928 26.2083 10.5463 3 0.00443349 -4.12078
5250 1 37.0379 26.2828 10.5722 3 0.00270402 -4.12349
5251 1 36.2237 26.2585 8.23533 3 0.00322313 -4.12373
5252 1 38.6707 26.3231 8.24253 3 0.00253655 -4.12157
5253 1 37.8538 26.3041 5.91116 3 0.00259635 -4.12219
5254 1 40.3044 26.356 5.90893 3 0.00242576 -4.12132
5255 1 39.4867 26.3415 3.57966 3 0.00249975 -4.12221
5256 1 41.943 26.378 3.57107 3 0.00186971 -4.12017
5257 1 41.1234 26.3679 1.24317 3 0.00221009 -4.12044
5258 1 43.5858 26.3934 1.23199 3 0.00138945 -4.11976
5259 1 11.592 24.3941 46.5941 3 0.000165048 -4.12088
5260 1 14.0708 24.3891 46.5864 3 0.000245271 -4.12085
5261 1 13.2449 24.391 44.2576 3 0.000215508 -4.12085
5262 1 15.7216 24.3841 44.2498 3 0.000315312 -4.12084
5263 1 14.8964 24.3868 41.921 3 0.000278721 -4.12084
5264 1 17.3707 24.3772 41.9131 3 0.000400063 -4.12086
5265 1 16.5463 24.3809 39.5844 3 0.00035533 -4.12085
5266 1 19.0179 24.368 39.5767 3 0.00049893 -4.12096
5267 1 18.1945 24.373 37.2478 3 0.000447393 -4.12091
5268 1 20.663 24.3557 37.2409 3 0.000623091 -4.12114
5269 1 19.8407 24.3623 34.9117 3 0.000559055 -4.12101
5270 1 22.3058 24.339 34.9065 3 0.000793814 -4.12154
5271 1 21.4848 24.348 32.5764 3 0.000697935 -4.12134
5272 1 23.9465 24.3164 32.5747 3 0.000884572 -4.12224
5273 1 23.1265 24.3286 30.2431 3 0.000852825 -4.12188
5274 1 25.5851 24.2866 30.2469 3 0.000942039 -4.12252
5275 1 24.7657 24.302 27.9134 3 0.000915784 -4.12218
5276 1 27.2228 24.2502 27.9237 3 0.000954188 -4.12313
5277 1 26.4042 24.2694 25.5874 3 0.000890561 -4.12299
5278 1 28.8614 24.2108 25.6065 3 0.00127742 -4.12238
5279 1 28.042 24.2304 23.2674 3 0.00103223 -4.12292
5280 1 30.5022 24.1766 23.294 3 0.00310541 -4.11892
5281 1 29.6811 24.1912 20.9532 3 0.00230359 -4.1201
5282 1 32.1462 24.1639 20.9823 3 0.00353295 -4.11927
5283 1 31.3242 24.1672 18.6407 3 0.00347281 -4.11881
5284 1 33.7902 24.1766 18.6706 3 0.00310541 -4.11892
5285 1 32.9682 24.1672 16.3298 3 0.00347281 -4.11881
5286 1 35.4309 24.2108 16.358 3 0.00127742 -4.12238
5287 1 34.6113 24.1912 14.0173 3 0.00230359 -4.1201
5288 1 37.0696 24.2502 14.0408 3 0.000954188 -4.12313
5289 1 36.2504 24.2304 11.703 3 0.00103223 -4.12292
5290 1 38.7073 24.2866 11.7177 3 0.000942039 -4.12252
5291 1 37.8882 24.2694 9.38307 3 0.000890561 -4.12299
5292 1 40.3459 24.3164 9.38983 3 0.000884572 -4.12224
5293 1 39.5267 24.302 7.05705 3 0.000915784 -4.12218
5294 1 41.9866 24.339 7.05802 3 0.000793814 -4.12154
5295 1 41.1659 24.3286 4.72731 3 0.000852825 -4.12188
5296 1 43.6293 24.3557 4.72362 3 0.000623091 -4.12114
5297 1 42.8076 24.348 2.39404 3 0.000697935 -4.12134
5298 1 45.2745 24.368 2.38782 3 0.00049893 -4.12096
5299 1 44.4517 24.3623 0.058775 3 0.000559055 -4.12101
5300 1 46.9217 24.3772 0.0514022 3 0.000400063 -4.12086
5301 1 13.2214 22.3554 47.7561 3 0.000124819 -4.12117
5302 1 15.6952 22.3478 47.7499 3 0.000170843 -4.12124
5303 1 14.8709 22.3507 45.4205 3 0.000154376 -4.12121
5304 1 17.343 22.3405 45.4149 3 0.000207491 -4.12133
5305 1 16.5192 22.3444 43.0852 3 0.000188621 -4.12127
5306 1 18.9894 22.3309 43.0807 3 0.000252583 -4.12146
5307 1 18.1664 22.3361 40.7506 3 0.000228489 -4.12139
5308 1 20.6346 22.3183 40.7476 3 0.000309049 -4.1217
5309 1 19.8122 22.325 38.4169 3 0.000278697 -4.12156
5310 1 22.2785 22.3016 38.4165 3 0.000368054 -4.12203
5311 1 21.4567 22.3105 36.0848 3 0.000344028 -4.12184
5312 1 23.9211 22.28 36.0881 3 0.000399913 -4.12228
5313 1 23.1 22.2915 33.7549 3 0.000385065 -4.12223
5314 1 25.5635 22.2537 33.7625 3 0.000376991 -4.12269
5315 1 24.7423 22.2675 31.4279 3 0.000400036 -4.12247
5316 1 27.206 22.2233 31.4402 3 0.000407281 -4.12259
5317 1 26.3845 22.2388 29.104 3 0.000390738 -4.12272
5318 1 28.85 22.1924 29.1201 3 0.000773009 -4.12162
5319 1 28.0278 22.2077 26.7828 3 0.000487495 -4.12235
5320 1 30.4971 22.169 26.7999 3 0.00130375 -4.12073
5321 1 29.6732 22.1794 24.4631 3 0.00104397 -4.12115
5322 1 32.1462 22.1599 24.4793 3 0.00169982 -4.12037
5323 1 31.3214 22.1623 22.1426 3 0.00155395 -4.12055
5324 1 33.7953 22.169 22.1587 3 0.00130375 -4.12073
5325 1 32.971 22.1623 19.8219 3 0.00155395 -4.12055
5326 1 35.4424 22.1924 19.8385 3 0.000773009 -4.12162
5327 1 34.6192 22.1794 17.5015 3 0.00104397 -4.12115
5328 1 37.0864 22.2233 17.5185 3 0.000407281 -4.12259
5329 1 36.2646 22.2077 15.1817 3 0.000487495 -4.12235
5330 1 38.7289 22.2537 15.1961 3 0.000376991 -4.12269
5331 1 37.9079 22.2388 12.8606 3 0.000390738 -4.12272
5332 1 40.3713 22.28 12.8705 3 0.000399913 -4.12228
5333 1 39.5501 22.2675 10.5367 3 0.000400036 -4.12247
5334 1 42.0139 22.3016 10.5421 3 0.000368054 -4.12203
5335 1 41.1924 22.2915 8.20966 3 0.000385065 -4.12223
5336 1 43.6578 22.3183 8.21099 3 0.000309049 -4.1217
5337 1 42.8357 22.3105 5.87977 3 0.000344028 -4.12184
5338 1 45.3029 22.3309 5.87797 3 0.000252583 -4.12146
5339 1 44.4802 22.325 3.54763 3 0.000278697 -4.12156
5340 1 46.9494 22.3405 3.54375 3 0.000207491 -4.12133
5341 1 46.126 22.3361 1.21394 3 0.000228489 -4.12139
5342 1 48.5972 22.3478 1.20877 3 0.000170843 -4.12124
5343 1 16.5007 20.3075 46.5884 3 0.000103818 -4.1215
5344 1 18.9705 20.2942 46.5864 3 0.000139213 -4.12171
5345 1 18.1474 20.2992 44.2555 3 0.000126253 -4.12162
5346 1 20.6161 20.2819 44.2554 3 0.000168778 -4.12192
5347 1 19.7934 20.2884 41.9237 3 0.000153538 -4.12181
5348 1 22.2611 20.2663 41.9262 3 0.000189371 -4.12217
5349 1 21.4387 20.2746 39.5935 3 0.000180503 -4.12205
5350 1 23.9058 20.247 39.599 3 0.000195126 -4.12237
5351 1 23.0835 20.2571 37.2653 3 0.000195796 -4.12225
5352 1 25.5507 20.2244 37.2739 3 0.000190202 -4.12249
5353 1 24.7283 20.2361 34.9392 3 0.000187607 -4.12248
5354 1 27.1967 20.1999 34.9501 3 0.000227087 -4.12234
5355 1 26.3736 20.2123 32.6148 3 0.000196318 -4.12245
5356 1 28.8445 20.1769 32.6265 3 0.000414603 -4.1218
5357 1 28.0203 20.1879 30.2914 3 0.000315416 -4.12203
5358 1 30.4945 20.1601 30.302 3 0.000651847 -4.12146
5359 1 29.6693 20.1674 27.9673 3 0.000529118 -4.12161
5360 1 32.1462 20.1539 27.9764 3 0.000780966 -4.12122
5361 1 31.3203 20.1554 25.6422 3 0.000753447 -4.12126
5362 1 33.7979 20.1601 25.6507 3 0.000651847 -4.12146
5363 1 32.9721 20.1554 23.3164 3 0.000753447 -4.12126
5364 1 35.4479 20.1769 23.3262 3 0.000414603 -4.1218
5365 1 34.6231 20.1674 20.9913 3 0.000529118 -4.12161
5366 1 37.0957 20.1999 21.0026 3 0.000227087 -4.12234
5367 1 36.2721 20.1879 18.6673 3 0.000315416 -4.12203
5368 1 38.7416 20.2244 18.6788 3 0.000190202 -4.12249
5369 1 37.9188 20.2123 16.3438 3 0.000196318 -4.12245
5370 1 40.3865 20.247 16.3537 3 0.000195126 -4.12237
5371 1 39.5641 20.2361 14.0195 3 0.000187607 -4.12248
5372 1 42.0312 20.2663 14.0265 3 0.000189371 -4.12217
5373 1 41.2089 20.2571 11.6933 3 0.000195796 -4.12225
5374 1 43.6763 20.2819 11.6973 3 0.000168778 -4.12192
5375 1 42.8537 20.2746 9.36511 3 0.000180503 -4.12205
5376 1 45.3219 20.2942 9.36627 3 0.000139213 -4.12171
5377 1 44.499 20.2884 7.03494 3 0.000153538 -4.12181
5378 1 46.9682 20.3036 7.03385 3 0.000114314 -4.12156
5379 1 46.1449 20.2992 4.70316 3 0.000126253 -4.12162
5380 1 48.6154 20.3109 4.7004 3 9.4415e-05 -4.12145
5381 1 47.7917 20.3075 2.37019 3 0.000103818 -4.1215
5382 1 50.2633 20.3164 2.36622 3 7.78494e-05 -4.12137
5383 1 49.4392 20.3138 0.0363421 3 8.58048e-05 -4.1214
5384 1 51.9119 20.3205 0.0315196 3 6.35758e-05 -4.12131
5385 1 18.135 18.2628 47.7608 3 7.59839e-05 -4.12176
5386 1 20.6043 18.2469 47.7626 3 9.79354e-05 -4.12203
5387 1 19.7813 18.2528 45.4303 3 9.14508e-05 -4.12193
5388 1 22.2504 18.233 45.4342 3 0.000106757 -4.1222
5389 1 21.4274 18.2403 43.1011 3 0.000103086 -4.12212
5390 1 23.8967 18.2165 43.1072 3 0.00010563 -4.12236
5391 1 23.0735 18.2251 40.7735 3 0.000107346 -4.12228
5392 1 25.5436 18.1979 40.7812 3 0.00010988 -4.12237
5393 1 24.72 18.2074 38.4471 3 0.00010684 -4.12238
5394 1 27.1918 18.1787 38.4556 3 0.000151304 -4.1222
5395 1 26.3675 18.1883 36.1214 3 0.000121646 -4.12232
5396 1 28.8417 18.1616 36.1293 3 0.000235322 -4.12196
5397 1 28.0165 18.1698 33.7956 3 0.000188657 -4.12208
5398 1 30.4934 18.1496 33.8019 3 0.000338463 -4.12175
5399 1 29.6674 18.1548 31.4687 3 0.000289045 -4.12185
5400 1 32.1462 18.1452 31.4734 3 0.000380854 -4.12167
5401 1 31.3197 18.1464 29.1407 3 0.000368049 -4.1217
5402 1 33.799 18.1496 29.1449 3 0.000338463 -4.12175
5403 1 32.9727 18.1464 26.812 3 0.000368049 -4.1217
5404 1 35.4506 18.1616 26.8175 3 0.000235322 -4.12196
5405 1 34.625 18.1548 24.484 3 0.000289045 -4.12185
5406 1 37.1006 18.1787 24.4912 3 0.000151304 -4.1222
5407 1 36.2758 18.1698 22.1571 3 0.000188657 -4.12208
5408 1 38.7488 18.1979 22.1656 3 0.00010988 -4.12237
5409 1 37.9249 18.1883 19.8313 3 0.000121646 -4.12232
5410 1 40.3957 18.2165 19.8396 3 0.00010563 -4.12236
5411 1 39.5724 18.2074 17.5056 3 0.00010684 -4.12238
5412 1 42.042 18.233 17.5126 3 0.000106757 -4.1222
5413 1 41.2189 18.2251 15.1792 3 0.000107346 -4.12228
5414 1 43.688 18.2469 15.1842 3 9.79354e-05 -4.12203
5415 1 42.865 18.2403 12.8516 3 0.000103086 -4.12212
5416 1 45.3342 18.2581 12.8544 3 8.36506e-05 -4.12184
5417 1 44.5111 18.2528 10.5224 3 9.14508e-05 -4.12193
5418 1 46.9807 18.2669 10.5232 3 6.88321e-05 -4.12169
5419 1 46.1574 18.2628 8.19192 3 7.59839e-05 -4.12176
5420 1 48.6276 18.2738 8.19101 3 5.62216e-05 -4.12156
5421 1 47.8041 18.2706 5.8602 3 6.21674e-05 -4.12162
5422 1 50.275 18.2791 5.85794 3 4.59492e-05 -4.12147
5423 1 49.4512 18.2766 3.52752 3 5.08623e-05 -4.12151
5424 1 51.9228 18.2831 3.52422 3 3.74029e-05 -4.1214
5425 1 51.0988 18.2813 1.19411 3 4.14974e-05 -4.12143
5426 1 53.571 18.2862 1.19 3 3.00528e-05 -4.12135
5427 1 21.4206 16.2075 46.607 3 6.4717e-05 -4.12215
5428 1 23.8915 16.1879 46.6126 3 6.79042e-05 -4.12231
5429 1 23.0677 16.1948 44.2792 3 6.66786e-05 -4.12228
5430 1 25.5399 16.1732 44.2855 3 7.42338e-05 -4.12231
5431 1 24.7156 16.1806 41.952 3 6.95989e-05 -4.12233
5432 1 27.1895 16.1587 41.9582 3 9.78802e-05 -4.12221
5433 1 26.3645 16.1658 39.6249 3 8.44593e-05 -4.12226
5434 1 28.8405 16.1461 39.63 3 0.000136356 -4.12207
5435 1 28.0148 16.152 37.2972 3 0.000115383 -4.12214
5436 1 30.493 16.1375 37.3006 3 0.000172908 -4.12195
5437 1 29.6666 16.1412 34.9684 3 0.000156902 -4.122
5438 1 32.1462 16.1345 34.9704 3 0.000187554 -4.12191
5439 1 31.3195 16.1352 32.6385 3 0.000184305 -4.12191
5440 1 33.7994 16.1375 32.6403 3 0.000172908 -4.12195
5441 1 32.9729 16.1352 30.3083 3 0.000184305 -4.12191
5442 1 35.4518 16.1461 30.3109 3 0.000136356 -4.12207
5443 1 34.6258 16.1412 27.9784 3 0.000156902 -4.122
5444 1 37.1029 16.1587 27.9827 3 9.78802e-05 -4.12221
5445 1 36.2776 16.152 25.6496 3 0.000115383 -4.12214
5446 1 38.7525 16.1732 25.6554 3 7.42338e-05 -4.12231
5447 1 37.9279 16.1658 23.3219 3 8.44593e-05 -4.12226
5448 1 40.4009 16.1879 23.3283 3 6.79042e-05 -4.12231
5449 1 39.5768 16.1806 20.9948 3 6.95989e-05 -4.12233
5450 1 42.0483 16.2014 21.0009 3 6.61208e-05 -4.12222
5451 1 41.2247 16.1948 18.6676 3 6.66786e-05 -4.12228
5452 1 43.6952 16.2131 18.6726 3 6.19556e-05 -4.12208
5453 1 42.8718 16.2075 16.3398 3 6.4717e-05 -4.12215
5454 1 45.3419 16.2229 16.3433 3 5.43021e-05 -4.12192
5455 1 44.5186 16.2182 14.011 3 5.84032e-05 -4.122
5456 1 46.9887 16.2307 14.0129 3 4.51344e-05 -4.12177
5457 1 46.1653 16.227 11.6811 3 4.97277e-05 -4.12184
5458 1 48.6355 16.2369 11.6815 3 3.6764e-05 -4.12164
5459 1 47.8121 16.234 9.35025 3 4.08175e-05 -4.1217
5460 1 50.2826 16.2417 9.34929 3 2.96514e-05 -4.12153
5461 1 49.459 16.2394 7.01844 3 3.3033e-05 -4.12158
5462 1 51.93 16.2454 7.0164 3 2.38271e-05 -4.12145
5463 1 51.1063 16.2436 4.68588 3 2.66114e-05 -4.12149
5464 1 53.5776 16.2482 4.68297 3 1.89217e-05 -4.12139
5465 1 52.7537 16.2469 2.3527 3 2.12736e-05 -4.12142
5466 1 55.2255 16.2503 2.34911 3 1.47552e-05 -4.12134
5467 1 54.4015 16.2493 0.0190403 3 1.67508e-05 -4.12136
5468 1 56.8736 16.2519 0.0149127 3 1.12736e-05 -4.1213
5469 1 23.065 14.166 47.7827 3 4.80863e-05 -4.12227
5470 1 25.5384 14.1496 47.7875 3 5.45391e-05 -4.12229
5471 1 24.7137 14.1551 45.4546 3 5.12515e-05 -4.1223
5472 1 27.1888 14.1389 45.4588 3 6.4013e-05 -4.12223
5473 1 26.3634 14.1441 43.1262 3 5.86761e-05 -4.12227
5474 1 28.8403 14.13 43.1292 3 7.68747e-05 -4.12214
5475 1 28.0144 14.1342 40.7971 3 7.04226e-05 -4.12219
5476 1 30.493 14.124 40.7987 3 8.6905e-05 -4.12207
5477 1 29.6665 14.1265 38.467 3 8.24054e-05 -4.1221
5478 1 32.1462 14.1218 38.4675 3 9.05667e-05 -4.12205
5479 1 31.3195 14.1224 36.1361 3 8.95175e-05 -4.12205
5480 1 33.7994 14.124 36.1363 3 8.6905e-05 -4.12207
5481 1 32.9728 14.1224 33.8048 3 8.95175e-05 -4.12205
5482 1 35.452 14.13 33.8058 3 7.68747e-05 -4.12214
5483 1 34.6258 14.1265 31.4739 3 8.24054e-05 -4.1221
5484 1 37.1036 14.1389 31.4762 3 6.4013e-05 -4.12223
5485 1 36.278 14.1342 29.1438 3 7.04226e-05 -4.12219
5486 1 38.754 14.1496 29.1475 3 5.45391e-05 -4.12229
5487 1 37.929 14.1441 26.8147 3 5.86761e-05 -4.12227
5488 1 40.4032 14.1607 26.8193 3 4.93307e-05 -4.12229
5489 1 39.5787 14.1551 24.4863 3 5.12515e-05 -4.1223
5490 1 42.0514 14.1712 24.4912 3 4.67426e-05 -4.12223
5491 1 41.2274 14.166 22.1582 3 4.80863e-05 -4.12227
5492 1 43.699 14.1805 22.1626 3 4.35488e-05 -4.1221
5493 1 42.8753 14.176 19.8299 3 4.5344e-05 -4.12217
5494 1 45.3462 14.1884 19.8333 3 3.83868e-05 -4.12196
5495 1 44.5226 14.1846 17.501 3 4.11553e-05 -4.12204
5496 1 46.9932 14.1949 17.5033 3 3.23328e-05 -4.12182
5497 1 46.1697 14.1918 15.1714 3 3.54186e-05 -4.12189
5498 1 48.6401 14.2001 15.1724 3 2.63636e-05 -4.12169
5499 1 47.8167 14.1977 12.8409 3 2.92764e-05 -4.12175
5500 1 50.2871 14.2042 12.8408 3 2.11522e-05 -4.12158
5501 1 49.4636 14.2023 10.5096 3 2.36476e-05 -4.12163
5502 1 51.9343 14.2074 10.5085 3 1.67473e-05 -4.12149
5503 1 51.1107 14.2059 8.17769 3 1.88353e-05 -4.12153
5504 1 53.5816 14.2099 8.17578 3 1.30888e-05 -4.12141
5505 1 52.7579 14.2087 5.84518 3 1.48334e-05 -4.12145
5506 1 55.229 14.2117 5.84258 3 1.00079e-05 -4.12135
5507 1 54.4053 14.2109 3.51218 3 1.14808e-05 -4.12138
5508 1 56.8766 14.2131 3.50905 3 7.47029e-06 -4.12131
5509 1 56.0528 14.2125 1.17881 3 8.67982e-06 -4.12133
5510 1 58.5244 14.2141 1.17527 3 5.39305e-06 -4.12128
5511 1 26.3639 12.1227 46.6258 3 4.18121e-05 -4.12229
5512 1 28.8409 12.1131 46.6274 3 4.21562e-05 -4.12221
5513 1 28.015 12.1159 44.2957 3 4.23375e-05 -4.12224
5514 1 30.4933 12.1091 44.2962 3 4.129e-05 -4.12217
5515 1 29.667 12.1108 41.9649 3 4.17801e-05 -4.12219
5516 1 32.1462 12.1077 41.9645 3 4.0718e-05 -4.12215
5517 1 31.3197 12.1081 39.6334 3 4.08755e-05 -4.12215
5518 1 33.7991 12.1091 39.6329 3 4.129e-05 -4.12217
5519 1 32.9727 12.1081 37.3016 3 4.08755e-05 -4.12215
5520 1 35.4515 12.1131 37.3016 3 4.21562e-05 -4.12221
5521 1 34.6254 12.1108 34.9701 3 4.17801e-05 -4.12219
5522 1 37.1031 12.1192 34.9712 3 4.21966e-05 -4.12227
5523 1 36.2774 12.1159 32.6393 3 4.23375e-05 -4.12224
5524 1 38.7537 12.1265 32.6415 3 4.13515e-05 -4.1223
5525 1 37.9285 12.1227 30.3092 3 4.18121e-05 -4.12229
5526 1 40.4033 12.1343 30.3123 3 3.99465e-05 -4.12229
5527 1 39.5786 12.1304 27.9798 3 4.0753e-05 -4.1223
5528 1 42.052 12.1419 27.9833 3 3.79539e-05 -4.12223
5529 1 41.2278 12.1381 25.6508 3 3.90209e-05 -4.12227
5530 1 43.7001 12.1488 25.6542 3 3.4873e-05 -4.12212
5531 1 42.8761 12.1454 23.3218 3 3.65501e-05 -4.12218
5532 1 45.3476 12.1547 23.3247 3 3.06999e-05 -4.12199
5533 1 44.5239 12.1519 20.9925 3 3.2903e-05 -4.12206
5534 1 46.9949 12.1597 20.9946 3 2.59688e-05 -4.12185
5535 1 46.1713 12.1573 18.6627 3 2.83747e-05 -4.12192
5536 1 48.642 12.1637 18.664 3 2.12196e-05 -4.12172
5537 1 47.8184 12.1618 16.3323 3 2.35533e-05 -4.12178
5538 1 50.2891 12.167 16.3327 3 1.696e-05 -4.1216
5539 1 49.4655 12.1654 14.0014 3 1.90293e-05 -4.12166
5540 1 51.9362 12.1695 14.0009 3 1.32864e-05 -4.12151
5541 1 51.1126 12.1683 11.6698 3 1.50383e-05 -4.12155
5542 1 53.5834 12.1715 11.6687 3 1.0204e-05 -4.12143
5543 1 52.7597 12.1705 9.33778 3 1.16842e-05 -4.12147
5544 1 55.2306 12.173 9.33603 3 7.64719e-06 -4.12137
5545 1 54.407 12.1723 7.00534 3 8.86561e-06 -4.1214
5546 1 56.878 12.1741 7.00311 3 5.54986e-06 -4.12132
5547 1 56.0543 12.1736 4.67256 3 6.53893e-06 -4.12134
5548 1 58.5255 12.1749 4.66997 3 3.88782e-06 -4.12128
5549 1 57.7018 12.1745 2.33952 3 4.66645e-06 -4.1213
5550 1 60.1731 12.1755 2.33665 3 2.63711e-06 -4.12126
5551 1 59.3493 12.1752 0.0062801 3 3.21513e-06 -4.12127
5552 1 61.8208 12.1759 0.00321552 3 1.80395e-06 -4.12124
5553 1 28.0166 10.0972 47.7934 3 2.71846e-05 -4.1223
5554 1 30.4941 10.0931 47.7934 3 1.95249e-05 -4.12226
5555 1 29.6681 10.0941 45.4622 3 2.16891e-05 -4.12227
5556 1 32.1462 10.0923 45.4616 3 1.75892e-05 -4.12225
5557 1 31.3201 10.0925 43.1305 3 1.80722e-05 -4.12225
5558 1 33.7983 10.0931 43.1298 3 1.95249e-05 -4.12226
5559 1 32.9723 10.0925 40.7986 3 1.80722e-05 -4.12225
5560 1 35.4501 10.0955 40.7982 3 2.43617e-05 -4.12228
5561 1 34.6243 10.0941 38.4669 3 2.16891e-05 -4.12227
5562 1 37.1013 10.0991 38.4673 3 2.99467e-05 -4.12231
5563 1 36.2758 10.0972 36.1356 3 2.71846e-05 -4.1223
5564 1 38.7517 10.1036 36.1368 3 3.42984e-05 -4.12232
5565 1 37.9266 10.1013 33.8049 3 3.23597e-05 -4.12232
5566 1 40.4014 10.1084 33.8068 3 3.64192e-05 -4.12229
5567 1 39.5766 10.106 31.4747 3 3.56475e-05 -4.12231
5568 1 42.0503 10.1133 31.4771 3 3.59659e-05 -4.12223
5569 1 41.2259 10.1109 29.1449 3 3.64632e-05 -4.12226
5570 1 43.6985 10.1177 29.1473 3 3.34479e-05 -4.12212
5571 1 42.8745 10.1155 26.8152 3 3.49544e-05 -4.12218
5572 1 45.3464 10.1216 26.8173 3 2.94988e-05 -4.122
5573 1 44.5225 10.1197 24.4853 3 3.15915e-05 -4.12206
5574 1 46.9939 10.125 24.487 3 2.48652e-05 -4.12186
5575 1 46.1702 10.1234 22.1551 3 2.72156e-05 -4.12193
5576 1 48.6413 10.1277 22.1562 3 2.02669e-05 -4.12173
5577 1 47.8176 10.1264 19.8246 3 2.25344e-05 -4.1218
5578 1 50.2886 10.1299 19.8251 3 1.60209e-05 -4.12162
5579 1 49.4649 10.1289 17.4937 3 1.80734e-05 -4.12167
5580 1 51.9359 10.1317 17.4935 3 1.23825e-05 -4.12152
5581 1 51.1122 10.1309 15.1623 3 1.41216e-05 -4.12157
5582 1 53.5832 10.1331 15.1617 3 9.30771e-06 -4.12144
5583 1 52.7595 10.1324 12.8306 3 1.07709e-05 -4.12148
5584 1 55.2306 10.1341 12.8295 3 6.83214e-06 -4.12137
5585 1 54.4069 10.1336 10.4986 3 8.00336e-06 -4.1214
5586 1 56.8781 10.1349 10.4972 3 4.85968e-06 -4.12132
5587 1 56.0543 10.1346 8.16633 3 5.78122e-06 -4.12135
5588 1 58.5256 10.1355 8.16463 3 3.34687e-06 -4.12129
5589 1 57.7018 10.1353 5.83388 3 4.052e-06 -4.12131
5590 1 60.1732 10.136 5.83197 3 2.24957e-06 -4.12126
5591 1 59.3494 10.1358 3.50127 3 2.74922e-06 -4.12127
5592 1 61.8209 10.1362 3.49921 3 1.53108e-06 -4.12125
5593 1 60.997 10.1361 1.16855 3 1.8446e-06 -4.12125
5594 1 63.4685 10.1364 1.16641 3 1.17498e-06 -4.12124
5595 1 31.3208 8.07554 46.6274 3 1.39194e-05 -4.12244
5596 1 33.797 8.07582 46.627 3 1.57327e-05 -4.12245
5597 1 32.9716 8.07554 44.2957 3 1.39194e-05 -4.12244
5598 1 35.4476 8.07688 44.2954 3 2.23158e-05 -4.12249
5599 1 34.6224 8.07627 41.9641 3 1.86093e-05 -4.12247
5600 1 37.0979 8.07852 41.9642 3 3.09872e-05 -4.12255
5601 1 36.2728 8.07764 39.6327 3 2.65645e-05 -4.12252
5602 1 38.7477 8.08055 39.6333 3 3.91003e-05 -4.12261
5603 1 37.9228 8.0795 37.3016 3 3.52892e-05 -4.12258
5604 1 40.3969 8.08279 37.3026 3 4.43185e-05 -4.12265
5605 1 39.5724 8.08166 34.9708 3 4.21417e-05 -4.12263
5606 1 42.0457 8.08504 34.972 3 4.55676e-05 -4.12266
5607 1 41.2214 8.08392 32.6402 3 4.54804e-05 -4.12266
5608 1 43.6942 8.08717 32.6415 3 4.30692e-05 -4.12264
5609 1 42.87 8.08613 30.3097 3 4.47111e-05 -4.12265
5610 1 45.3423 8.08907 30.3108 3 3.79166e-05 -4.12261
5611 1 44.5182 8.08815 27.9791 3 4.07387e-05 -4.12263
5612 1 46.9902 8.09072 27.98 3 3.15332e-05 -4.12255
5613 1 46.1662 8.08993 25.6484 3 3.48085e-05 -4.12258
5614 1 48.6379 8.0921 25.649 3 2.50478e-05 -4.1225
5615 1 47.8141 8.09145 23.3175 3 2.82377e-05 -4.12253
5616 1 50.2857 8.09323 23.3178 3 1.91851e-05 -4.12245
5617 1 49.4618 8.0927 20.9864 3 2.20015e-05 -4.12247
5618 1 51.9334 8.09415 20.9864 3 1.42821e-05 -4.1224
5619 1 51.1095 8.09372 18.6551 3 1.66182e-05 -4.12242
5620 1 53.5811 8.09487 18.6548 3 1.03948e-05 -4.12236
5621 1 52.7572 8.09453 16.3236 3 1.22123e-05 -4.12238
5622 1 55.2289 8.09543 16.3231 3 7.39866e-06 -4.12233
5623 1 54.405 8.09517 13.9919 3 8.78578e-06 -4.12235
5624 1 56.8767 8.09587 13.9912 3 5.17388e-06 -4.12231
5625 1 56.0528 8.09567 11.6601 3 6.20256e-06 -4.12232
5626 1 58.5246 8.09619 11.6593 3 3.58431e-06 -4.12229
5627 1 57.7006 8.09604 9.32822 3 4.31279e-06 -4.1223
5628 1 60.1725 8.09642 9.32726 3 2.50178e-06 -4.12228
5629 1 59.3485 8.09632 6.99623 3 2.9817e-06 -4.12229
5630 1 61.8204 8.09656 6.99519 3 1.82514e-06 -4.12227
5631 1 60.9965 8.0965 4.66418 3 2.11595e-06 -4.12228
5632 1 63.4684 8.09664 4.6631 3 1.50246e-06 -4.12227
5633 1 62.6444 8.09661 2.3321 3 1.6245e-06 -4.12227
5634 1 32.9705 6.05706 47.7929 3 5.81592e-06 -4.12204
5635 1 35.4432 6.05706 47.7929 3 4.24253e-05 -4.12206
5636 1 34.619 6.05706 45.4616 3 2.55496e-05 -4.12205
5637 1 37.0918 6.05706 45.4616 3 8.89403e-05 -4.12208
5638 1 36.2675 6.05706 43.1302 3 6.36482e-05 -4.12207
5639 1 38.7403 6.05706 43.1302 3 0.000150565 -4.12211
5640 1 37.916 6.05706 40.7989 3 0.000118019 -4.1221
5641 1 40.3888 6.05706 40.7989 3 0.000224709 -4.12215
5642 1 39.5645 6.05706 38.4675 3 0.000186264 -4.12213
5643 1 42.0373 6.05706 38.4675 3 0.000307778 -4.12218
5644 1 41.2131 6.05706 36.1361 3 0.000265394 -4.12217
5645 1 43.6859 6.05706 36.1361 3 0.000394982 -4.12221
5646 1 42.8616 6.05706 33.8048 3 0.000351215 -4.12219
5647 1 45.3344 6.05706 33.8048 3 0.000480835 -4.12222
5648 1 44.5101 6.05706 31.4734 3 0.000438416 -4.12221
5649 1 46.9829 6.05706 31.4734 3 0.000560309 -4.12222
5650 1 46.1586 6.05706 29.142 3 0.000521624 -4.12222
5651 1 48.6314 6.05706 29.142 3 0.000629864 -4.12221
5652 1 47.8072 6.05706 26.8107 3 0.000596471 -4.12222
5653 1 50.2799 6.05706 26.8107 3 0.000687853 -4.1222
5654 1 49.4557 6.05706 24.4793 3 0.000660325 -4.1222
5655 1 51.9285 6.05706 24.4793 3 0.000734204 -4.12218
5656 1 51.1042 6.05706 22.1479 3 0.000712434 -4.12219
5657 1 53.577 6.05706 22.1479 3 0.000769854 -4.12216
5658 1 52.7527 6.05706 19.8166 3 0.000753276 -4.12217
5659 1 55.2255 6.05706 19.8166 3 0.000796409 -4.12214
5660 1 54.4012 6.05706 17.4852 3 0.00078416 -4.12215
5661 1 56.874 6.05706 17.4852 3 0.000815526 -4.12212
5662 1 56.0498 6.05706 15.1539 3 0.000806795 -4.12213
5663 1 58.5226 6.05706 15.1539 3 0.00082881 -4.1221
5664 1 57.6983 6.05706 12.8225 3 0.0008228 -4.12211
5665 1 60.1711 6.05706 12.8225 3 0.000837583 -4.12209
5666 1 59.3468 6.05706 10.4911 3 0.00083369 -4.1221
5667 1 61.8196 6.05706 10.4911 3 0.000842842 -4.12208
5668 1 60.9953 6.05706 8.15977 3 0.000840622 -4.12209
5669 1 63.4681 6.05706 8.15977 3 0.000845304 -4.12208
5670 1 62.6439 6.05706 5.82841 3 0.000844393 -4.12208
5671 1 36.2675 4.03804 46.6273 3 1.0169e-16 -4.12234
5672 1 38.7403 4.03804 46.6273 3 1.0169e-16 -4.12219
5673 1 37.916 4.03804 44.2959 3 8.07794e-28 -4.12225
5674 1 40.3888 4.03804 44.2959 3 3.99999e-16 -4.12208
5675 1 39.5645 4.03804 41.9645 3 1e-16 -4.12214
5676 1 42.0373 4.03804 41.9645 3 1e-16 -4.12197
5677 1 41.2131 4.03804 39.6332 3 4.00001e-16 -4.12203
5678 1 43.6859 4.03804 39.6332 3 2.01948e-28 -4.12186
5679 1 42.8616 4.03804 37.3018 3 9.99999e-17 -4.12192
5680 1 45.3344 4.03804 37.3018 3 9.99999e-17 -4.12177
5681 1 44.5101 4.03804 34.9704 3 4.03897e-28 -4.12181
5682 1 46.9829 4.03804 34.9704 3 3.99999e-16 -4.12168
5683 1 46.1586 4.03804 32.6391 3 9.99999e-17 -4.12172
5684 1 48.6314 4.03804 32.6391 3 9.99999e-17 -4.12161
5685 1 47.8072 4.03804 30.3077 3 3.99999e-16 -4.12165
5686 1 50.2799 4.03804 30.3077 3 2.01948e-28 -4.12156
5687 1 49.4557 4.03804 27.9764 3 9.99999e-17 -4.12158
5688 1 51.9285 4.03804 27.9764 3 1e-16 -4.12151
5689 1 51.1042 4.03804 25.645 3 9.99999e-17 -4.12153
5690 1 53.577 4.03804 25.645 3 3.99999e-16 -4.12147
5691 1 52.7527 4.03804 23.3136 3 4.00001e-16 -4.12149
5692 1 55.2255 4.03804 23.3136 3 1e-16 -4.12144
5693 1 54.4012 4.03804 20.9823 3 1e-16 -4.12146
5694 1 56.874 4.03804 20.9823 3 0 -4.12142
5695 1 56.0498 4.03804 18.6509 3 0 -4.12143
5696 1 58.5226 4.03804 18.6509 3 9.99999e-17 -4.1214
5697 1 57.6983 4.03804 16.3195 3 1e-16 -4.12141
5698 1 60.1711 4.03804 16.3195 3 3.99999e-16 -4.12139
5699 1 59.3468 4.03804 13.9882 3 3.99999e-16 -4.1214
5700 1 61.8196 4.03804 13.9882 3 5.77599e-17 -4.12138
5701 1 60.9953 4.03804 11.6568 3 9.99999e-17 -4.12139
5702 1 63.4681 4.03804 11.6568 3 2.304e-17 -4.12138
5703 1 62.6439 4.03804 9.32545 3 5.76e-18 -4.12138
5704 1 37.916 2.01902 47.7929 3 5.06996e-18 -4.10627
5705 1 40.3888 2.01902 47.7929 3 4.05069e-16 -4.10627
5706 1 39.5645 2.01902 45.4616 3 1e-16 -4.10627
5707 1 42.0373 2.01902 45.4616 3 1e-16 -4.10627
5708 1 41.2131 2.01902 43.1302 3 4.00001e-16 -4.10627
5709 1 43.6859 2.01902 43.1302 3 8.07794e-28 -4.10627
5710 1 42.8616 2.01902 40.7989 3 9.99999e-17 -4.10627
5711 1 45.3344 2.01902 40.7989 3 9.99999e-17 -4.10627
5712 1 44.5101 2.01902 38.4675 3 2.01948e-28 -4.10627
5713 1 46.9829 2.01902 38.4675 3 3.99999e-16 -4.10627
5714 1 46.1586 2.01902 36.1361 3 9.99999e-17 -4.10627
5715 1 48.6314 2.01902 36.1361 3 9.99999e-17 -4.10627
5716 1 47.8072 2.01902 33.8048 3 3.99999e-16 -4.10627
5717 1 50.2799 2.01902 33.8048 3 2.01948e-28 -4.10627
5718 1 49.4557 2.01902 31.4734 3 9.99999e-17 -4.10627
5719 1 51.9285 2.01902 31.4734 3 1e-16 -4.10627
5720 1 51.1042 2.01902 29.142 3 9.99999e-17 -4.10627
5721 1 53.577 2.01902 29.142 3 3.99999e-16 -4.10627
5722 1 52.7527 2.01902 26.8107 3 4.00001e-16 -4.10627
5723 1 55.2255 2.01902 26.8107 3 1e-16 -4.10627
5724 1 54.4012 2.01902 24.4793 3 1e-16 -4.10627
5725 1 56.874 2.01902 24.4793 3 1.00974e-28 -4.10627
5726 1 56.0498 2.01902 22.1479 3 0 -4.10627
5727 1 58.5226 2.01902 22.1479 3 9.99999e-17 -4.10627
5728 1 57.6983 2.01902 19.8166 3 1e-16 -4.10627
5729 1 60.1711 2.01902 19.8166 3 3.99999e-16 -4.10627
5730 1 59.3468 2.01902 17.4852 3 3.99999e-16 -4.10627
5731 1 61.8196 2.01902 17.4852 3 5.77599e-17 -4.10627
5732 1 60.9953 2.01902 15.1539 3 9.99999e-17 -4.10627
5733 1 63.4681 2.01902 15.1539 3 2.304e-17 -4.10627
5734 1 62.6439 2.01902 12.8225 3 5.76e-18 -4.10627
5735 1 41.2131 0 46.6273 5 12.2293 -3.54465
5736 1 43.6859 0 46.6273 5 12.2293 -3.54465
5737 1 42.8616 0 44.2959 5 12.2293 -3.54465
5738 1 45.3344 0 44.2959 5 12.2293 -3.54465
5739 1 44.5101 0 41.9645 5 12.2293 -3.54465
5740 1 46.9829 0 41.9645 5 12.2293 -3.54465
5741 1 46.1586 0 39.6332 5 12.2293 -3.54465
5742 1 48.6314 0 39.6332 5 12.2293 -3.54465
5743 1 47.8072 0 37.3018 5 12.2293 -3.54465
5744 1 50.2799 0 37.3018 5 12.2293 -3.54465
5745 1 49.4557 0 34.9704 5 12.2293 -3.54465
5746 1 51.9285 0 34.9704 5 12.2293 -3.54465
5747 1 51.1042 0 32.6391 5 12.2293 -3.54465
5748 1 53.577 0 32.6391 5 12.2293 -3.54465
5749 1 52.7527 0 30.3077 5 12.2293 -3.54465
5750 1 55.2255 0 30.3077 5 12.2293 -3.54465
5751 1 54.4012 0 27.9764 5 12.2293 -3.54465
5752 1 56.874 0 27.9764 5 12.2293 -3.54465
5753 1 56.0498 0 25.645 5 12.2293 -3.54465
5754 1 58.5226 0 25.645 5 12.2293 -3.54465
5755 1 57.6983 0 23.3136 5 12.2293 -3.54465
5756 1 60.1711 0 23.3136 5 12.2293 -3.54465
5757 1 59.3468 0 20.9823 5 12.2293 -3.54465
5758 1 61.8196 0 20.9823 5 12.2293 -3.54465
5759 1 60.9953 0 18.6509 5 12.2293 -3.54465
5760 1 63.4681 0 18.6509 5 12.2293 -3.54465
5761 1 62.6439 0 16.3195 5 12.2293 -3.54465
5762 1 8.36075 30.4852 47.7816 3 0.000153492 -4.1191
5763 1 10.8677 30.4843 47.7776 3 0.000205009 -4.11871
5764 1 10.0321 30.4847 45.4476 3 0.000184032 -4.11886
5765 1 12.5383 30.483 45.4432 3 0.000264672 -4.11835
5766 1 11.7031 30.4837 43.1134 3 0.000230689 -4.11855
5767 1 14.2083 30.481 43.1084 3 0.000360429 -4.11788
5768 1 13.3734 30.4821 40.7788 3 0.000307261 -4.11813
5769 1 15.8772 30.478 40.773 3 0.000536516 -4.11718
5770 1 15.0428 30.4796 38.4437 3 0.00043741 -4.11755
5771 1 17.5448 30.4737 38.4368 3 0.000873927 -4.11615
5772 1 16.7113 30.476 36.108 3 0.000663448 -4.11678
5773 1 19.211 30.4677 36.0994 3 0.00152376 -4.11468
5774 1 18.378 30.4709 33.7713 3 0.00115263 -4.11545
5775 1 20.8736 30.4599 33.7602 3 0.00325419 -4.11174
5776 1 20.0425 30.4641 31.433 3 0.00225363 -4.11327
5777 1 22.5319 30.4496 31.4177 3 0.00806511 -4.10618
5778 1 21.7047 30.455 29.0922 3 0.00467582 -4.10997
5779 1 24.1862 30.4356 29.0698 3 0.0215462 -4.09544
5780 1 23.3589 30.4432 26.748 3 0.0130334 -4.10166
5781 1 25.8204 30.414 26.7101 3 0.0954364 -4.05808
5782 1 25.0033 30.4266 24.3954 3 0.0487191 -4.07866
5783 1 27.4243 30.3474 24.3207 3 5.11537 -4.00147
5784 1 26.6376 30.3951 22.0217 3 0.167103 -4.03237
5785 1 29.0294 30.3016 21.9439 5 4.50623 -3.98757
5786 1 28.2191 30.3187 19.6275 5 4.75702 -3.99009
5787 1 30.6006 30.2568 19.6542 5 3.81688 -3.93471
5788 1 29.8153 30.2835 17.2911 5 4.18412 -3.97113
5789 1 32.1462 30.2028 17.4852 5 3.25055 -3.87684
5790 1 31.4004 30.2303 15.0515 5 3.42045 -3.89887
5791 1 33.6918 30.2568 15.3163 5 3.81688 -3.93471
5792 1 32.892 30.2303 12.9248 5 3.42045 -3.89887
5793 1 35.263 30.3016 13.0265 5 4.50623 -3.98757
5794 1 34.4771 30.2835 10.6852 5 4.18412 -3.97113
5795 1 36.868 30.3474 10.6497 3 5.11537 -4.00147
5796 1 36.0733 30.3187 8.34882 5 4.75702 -3.99009
5797 1 38.472 30.414 8.2603 3 0.0954364 -4.05808
5798 1 37.6547 30.3951 5.95466 3 0.167103 -4.03237
5799 1 40.1062 30.4356 5.90067 3 0.0215462 -4.09544
5800 1 39.2891 30.4266 3.581 3 0.0487191 -4.07866
5801 1 41.7604 30.4496 3.55278 3 0.00806511 -4.10618
5802 1 40.9335 30.4432 1.22839 3 0.0130334 -4.10166
5803 1 43.4188 30.4599 1.21029 3 0.00325419 -4.11174
5804 1 11.6579 28.4577 46.6018 3 0.000274991 -4.11962
5805 1 14.1508 28.4544 46.5945 3 0.000468853 -4.11918
5806 1 13.3203 28.4557 44.2657 3 0.000389026 -4.11935
5807 1 15.8107 28.4509 44.2574 3 0.00070721 -4.1188
5808 1 14.981 28.4528 41.929 3 0.000568438 -4.119
5809 1 17.4683 28.4459 41.9194 3 0.00108856 -4.11827
5810 1 16.6397 28.4486 39.5915 3 0.000876386 -4.11854
5811 1 19.1227 28.4391 39.5802 3 0.00177465 -4.11755
5812 1 18.296 28.4428 37.2529 3 0.00140198 -4.11796
5813 1 20.7736 28.4297 37.2392 3 0.00297164 -4.11672
5814 1 19.9489 28.4347 34.9129 3 0.00224084 -4.11713
5815 1 22.4195 28.4167 34.8961 3 0.00483509 -4.11549
5816 1 21.5969 28.4237 32.571 3 0.00380236 -4.11608
5817 1 24.0575 28.3979 32.5502 3 0.00848892 -4.1156
5818 1 23.2399 28.4085 30.2263 3 0.00657172 -4.11542
5819 1 25.6893 28.3672 30.2019 3 0.0118046 -4.12298
5820 1 24.875 28.3848 27.8792 3 0.0101215 -4.1172
5821 1 27.3116 28.3192 27.8603 3 0.0126047 -4.12069
5822 1 26.4984 28.342 25.5346 3 0.0117188 -4.12211
5823 1 28.9306 28.2612 25.5269 3 0.0139267 -4.11512
5824 1 28.1253 28.2912 23.1914 3 0.0108747 -4.11667
5825 1 30.543 28.2101 23.2371 3 0.0163236 -4.11343
5826 1 29.7378 28.2337 20.8794 3 0.0161729 -4.11454
5827 1 32.1462 28.1701 20.9823 3 0.0485463 -4.09016
5828 1 31.3394 28.1809 18.6137 3 0.0322406 -4.09783
5829 1 33.7494 28.2101 18.7275 3 0.0163236 -4.11343
5830 1 32.9529 28.1809 16.3567 3 0.0322406 -4.09783
5831 1 35.3618 28.2612 16.4376 3 0.0139267 -4.11512
5832 1 34.5546 28.2337 14.0911 3 0.0161729 -4.11454
5833 1 36.9807 28.3192 14.1043 3 0.0126047 -4.12069
5834 1 36.1671 28.2912 11.779 3 0.0108747 -4.11667
5835 1 38.6031 28.3672 11.7627 3 0.0118046 -4.12298
5836 1 37.794 28.342 9.43586 3 0.0117188 -4.12211
5837 1 40.2349 28.3979 9.41434 3 0.00848892 -4.1156
5838 1 39.4174 28.3848 7.0912 3 0.0101215 -4.1172
5839 1 41.8729 28.4167 7.0684 3 0.00483509 -4.11549
5840 1 41.0525 28.4085 4.74414 3 0.00657172 -4.11542
5841 1 43.5187 28.4297 4.72531 3 0.00297164 -4.11672
5842 1 42.6955 28.4237 2.39944 3 0.00380236 -4.11608
5843 1 45.1697 28.4391 2.38432 3 0.00177465 -4.11755
5844 1 44.3435 28.4347 0.0575038 3 0.00224084 -4.11713
5845 1 46.8241 28.4459 0.0450992 3 0.00108856 -4.11827
5846 1 13.2773 26.4249 47.7566 3 0.000328903 -4.12028
5847 1 15.759 26.4189 47.7478 3 0.000535789 -4.12007
5848 1 14.9323 26.4212 45.4195 3 0.000455557 -4.12015
5849 1 17.411 26.4129 45.4099 3 0.000743912 -4.11996
5850 1 16.5853 26.4161 43.0819 3 0.000632901 -4.12001
5851 1 19.0603 26.4047 43.0715 3 0.00102489 -4.11984
5852 1 18.236 26.4091 40.7437 3 0.000872325 -4.11987
5853 1 20.7065 26.3934 40.7325 3 0.00138945 -4.11976
5854 1 19.8839 26.3995 38.405 3 0.00119292 -4.11984
5855 1 22.3494 26.378 38.3935 3 0.00186971 -4.12017
5856 1 21.5285 26.3863 36.0659 3 0.00161523 -4.11988
5857 1 23.988 26.356 36.0556 3 0.00242576 -4.12132
5858 1 23.169 26.3679 33.7273 3 0.00221009 -4.12044
5859 1 25.6217 26.3231 33.722 3 0.00253655 -4.12157
5860 1 24.8057 26.3415 31.3908 3 0.00249975 -4.12221
5861 1 27.2545 26.2828 31.3923 3 0.00270402 -4.12349
5862 1 26.4385 26.3041 29.0593 3 0.00259635 -4.12219
5863 1 28.8844 26.2327 29.0745 3 0.00356947 -4.12193
5864 1 28.0687 26.2585 26.7351 3 0.00322313 -4.12373
5865 1 30.5129 26.1844 26.7737 3 0.00816207 -4.11663
5866 1 29.6995 26.2083 24.4241 3 0.00443349 -4.12078
5867 1 32.1462 26.1677 24.4793 3 0.0089096 -4.11296
5868 1 31.3291 26.1714 22.1299 3 0.00960164 -4.11429
5869 1 33.7795 26.1844 22.1849 3 0.00816207 -4.11663
5870 1 32.9633 26.1714 19.8347 3 0.00960164 -4.11429
5871 1 35.4079 26.2327 19.8841 3 0.00356947 -4.12193
5872 1 34.5928 26.2083 17.5404 3 0.00443349 -4.12078
5873 1 37.0379 26.2828 17.5663 3 0.00270402 -4.12349
5874 1 36.2237 26.2585 15.2294 3 0.00322313 -4.12373
5875 1 38.6707 26.3231 15.2366 3 0.00253655 -4.12157
5876 1 37.8538 26.3041 12.9052 3 0.00259635 -4.12219
5877 1 40.3044 26.356 12.903 3 0.00242576 -4.12132
5878 1 39.4867 26.3415 10.5738 3 0.00249975 -4.12221
5879 1 41.943 26.378 10.5652 3 0.00186971 -4.12017
5880 1 41.1234 26.3679 8.23726 3 0.00221009 -4.12044
5881 1 43.5858 26.3934 8.22608 3 0.00138945 -4.11976
5882 1 42.7639 26.3863 5.89859 3 0.00161523 -4.11988
5883 1 45.2321 26.4047 5.88717 3 0.00102489 -4.11984
5884 1 44.4085 26.3995 3.55955 3 0.00119292 -4.11984
5885 1 46.8814 26.4129 3.54873 3 0.000743912 -4.11996
5886 1 46.0564 26.4091 1.22083 3 0.000872325 -4.11987
5887 1 48.5333 26.4189 1.21083 3 0.000535789 -4.12007
5888 1 16.5463 24.3809 46.5785 3 0.00035533 -4.12085
5889 1 19.0179 24.368 46.5708 3 0.00049893 -4.12096
5890 1 18.1945 24.373 44.2419 3 0.000447393 -4.12091
5891 1 20.663 24.3557 44.235 3 0.000623091 -4.12114
5892 1 19.8407 24.3623 41.9058 3 0.000559055 -4.12101
5893 1 22.3058 24.339 41.9006 3 0.000793814 -4.12154
5894 1 21.4848 24.348 39.5705 3 0.000697935 -4.12134
5895 1 23.9465 24.3164 39.5688 3 0.000884572 -4.12224
5896 1 23.1265 24.3286 37.2372 3 0.000852825 -4.12188
5897 1 25.5851 24.2866 37.2409 3 0.000942039 -4.12252
5898 1 24.7657 24.302 34.9075 3 0.000915784 -4.12218
5899 1 27.2228 24.2502 34.9178 3 0.000954188 -4.12313
5900 1 26.4042 24.2694 32.5815 3 0.000890561 -4.12299
5901 1 28.8614 24.2108 32.6006 3 0.00127742 -4.12238
5902 1 28.042 24.2304 30.2615 3 0.00103223 -4.12292
5903 1 30.5022 24.1766 30.288 3 0.00310541 -4.11892
5904 1 29.6811 24.1912 27.9473 3 0.00230359 -4.1201
5905 1 32.1462 24.1639 27.9764 3 0.00353295 -4.11927
5906 1 31.3242 24.1672 25.6348 3 0.00347281 -4.11881
5907 1 33.7902 24.1766 25.6647 3 0.00310541 -4.11892
5908 1 32.9682 24.1672 23.3238 3 0.00347281 -4.11881
5909 1 35.4309 24.2108 23.3521 3 0.00127742 -4.12238
5910 1 34.6113 24.1912 21.0114 3 0.00230359 -4.1201
5911 1 37.0696 24.2502 21.0349 3 0.000954188 -4.12313
5912 1 36.2504 24.2304 18.6971 3 0.00103223 -4.12292
5913 1 38.7073 24.2866 18.7118 3 0.000942039 -4.12252
5914 1 37.8882 24.2694 16.3772 3 0.000890561 -4.12299
5915 1 40.3459 24.3164 16.3839 3 0.000884572 -4.12224
5916 1 39.5267 24.302 14.0511 3 0.000915784 -4.12218
5917 1 41.9866 24.339 14.0521 3 0.000793814 -4.12154
5918 1 41.1659 24.3286 11.7214 3 0.000852825 -4.12188
5919 1 43.6293 24.3557 11.7177 3 0.000623091 -4.12114
5920 1 42.8076 24.348 9.38813 3 0.000697935 -4.12134
5921 1 45.2745 24.368 9.38191 3 0.00049893 -4.12096
5922 1 44.4517 24.3623 7.05286 3 0.000559055 -4.12101
5923 1 46.9217 24.3772 7.04549 3 0.000400063 -4.12086
5924 1 46.0979 24.373 4.7167 3 0.000447393 -4.12091
5925 1 48.5708 24.3841 4.70887 3 0.000315312 -4.12084
5926 1 47.7461 24.3809 2.38015 3 0.00035533 -4.12085
5927 1 50.2216 24.3891 2.37224 3 0.000245271 -4.12085
5928 1 49.396 24.3868 0.0435031 3 0.000278721 -4.12084
5929 1 51.8738 24.3927 0.0356833 3 0.000188817 -4.12087
5930 1 18.1664 22.3361 47.7447 3 0.000228489 -4.12139
5931 1 20.6346 22.3183 47.7417 3 0.000309049 -4.1217
5932 1 19.8122 22.325 45.411 3 0.000278697 -4.12156
5933 1 22.2785 22.3016 45.4106 3 0.000368054 -4.12203
5934 1 21.4567 22.3105 43.0789 3 0.000344028 -4.12184
5935 1 23.9211 22.28 43.0822 3 0.000399913 -4.12228
5936 1 23.1 22.2915 40.749 3 0.000385065 -4.12223
5937 1 25.5635 22.2537 40.7566 3 0.000376991 -4.12269
5938 1 24.7423 22.2675 38.422 3 0.000400036 -4.12247
5939 1 27.206 22.2233 38.4343 3 0.000407281 -4.12259
5940 1 26.3845 22.2388 36.0981 3 0.000390738 -4.12272
5941 1 28.85 22.1924 36.1142 3 0.000773009 -4.12162
5942 1 28.0278 22.2077 33.7769 3 0.000487495 -4.12235
5943 1 30.4971 22.169 33.794 3 0.00130375 -4.12073
5944 1 29.6732 22.1794 31.4572 3 0.00104397 -4.12115
5945 1 32.1462 22.1599 31.4734 3 0.00169982 -4.12037
5946 1 31.3214 22.1623 29.1367 3 0.00155395 -4.12055
5947 1 33.7953 22.169 29.1528 3 0.00130375 -4.12073
5948 1 32.971 22.1623 26.816 3 0.00155395 -4.12055
5949 1 35.4424 22.1924 26.8326 3 0.000773009 -4.12162
5950 1 34.6192 22.1794 24.4955 3 0.00104397 -4.12115
5951 1 37.0864 22.2233 24.5125 3 0.000407281 -4.12259
5952 1 36.2646 22.2077 22.1758 3 0.000487495 -4.12235
5953 1 38.7289 22.2537 22.1902 3 0.000376991 -4.12269
5954 1 37.9079 22.2388 19.8546 3 0.000390738 -4.12272
5955 1 40.3713 22.28 19.8646 3 0.000399913 -4.12228
5956 1 39.5501 22.2675 17.5307 3 0.000400036 -4.12247
5957 1 42.0139 22.3016 17.5362 3 0.000368054 -4.12203
5958 1 41.1924 22.2915 15.2037 3 0.000385065 -4.12223
5959 1 43.6578 22.3183 15.2051 3 0.000309049 -4.1217
5960 1 42.8357 22.3105 12.8739 3 0.000344028 -4.12184
5961 1 45.3029 22.3309 12.8721 3 0.000252583 -4.12146
5962 1 44.4802 22.325 10.5417 3 0.000278697 -4.12156
5963 1 46.9494 22.3405 10.5378 3 0.000207491 -4.12133
5964 1 46.126 22.3361 8.20803 3 0.000228489 -4.12139
5965 1 48.5972 22.3478 8.20286 3 0.000170843 -4.12124
5966 1 47.7732 22.3444 5.87338 3 0.000188621 -4.12127
5967 1 50.2461 22.3532 5.86742 3 0.000139139 -4.12119
5968 1 49.4215 22.3507 3.53814 3 0.000154376 -4.12121
5969 1 51.8961 22.3572 3.5317 3 0.000111557 -4.12116
5970 1 51.071 22.3554 1.20254 3 0.000124819 -4.12117
5971 1 53.547 22.3602 1.19584 3 8.81848e-05 -4.12115
5972 1 21.4387 20.2746 46.5876 3 0.000180503 -4.12205
5973 1 23.9058 20.247 46.5931 3 0.000195126 -4.12237
5974 1 23.0835 20.2571 44.2594 3 0.000195796 -4.12225
5975 1 25.5507 20.2244 44.268 3 0.000190202 -4.12249
5976 1 24.7283 20.2361 41.9333 3 0.000187607 -4.12248
5977 1 27.1967 20.1999 41.9442 3 0.000227087 -4.12234
5978 1 26.3736 20.2123 39.6089 3 0.000196318 -4.12245
5979 1 28.8445 20.1769 39.6206 3 0.000414603 -4.1218
5980 1 28.0203 20.1879 37.2855 3 0.000315416 -4.12203
5981 1 30.4945 20.1601 37.2961 3 0.000651847 -4.12146
5982 1 29.6693 20.1674 34.9614 3 0.000529118 -4.12161
5983 1 32.1462 20.1539 34.9704 3 0.000780966 -4.12122
5984 1 31.3203 20.1554 32.6363 3 0.000753447 -4.12126
5985 1 33.7979 20.1601 32.6448 3 0.000651847 -4.12146
5986 1 32.9721 20.1554 30.3105 3 0.000753447 -4.12126
5987 1 35.4479 20.1769 30.3203 3 0.000414603 -4.1218
5988 1 34.6231 20.1674 27.9854 3 0.000529118 -4.12161
5989 1 37.0957 20.1999 27.9967 3 0.000227087 -4.12234
5990 1 36.2721 20.1879 25.6613 3 0.000315416 -4.12203
5991 1 38.7416 20.2244 25.6729 3 0.000190202 -4.12249
5992 1 37.9188 20.2123 23.3379 3 0.000196318 -4.12245
5993 1 40.3865 20.247 23.3478 3 0.000195126 -4.12237
5994 1 39.5641 20.2361 21.0136 3 0.000187607 -4.12248
5995 1 42.0312 20.2663 21.0206 3 0.000189371 -4.12217
5996 1 41.2089 20.2571 18.6874 3 0.000195796 -4.12225
5997 1 43.6763 20.2819 18.6914 3 0.000168778 -4.12192
5998 1 42.8537 20.2746 16.3592 3 0.000180503 -4.12205
5999 1 45.3219 20.2942 16.3604 3 0.000139213 -4.12171
6000 1 44.499 20.2884 14.029 3 0.000153538 -4.12181
6001 1 46.9682 20.3036 14.0279 3 0.000114314 -4.12156
6002 1 46.1449 20.2992 11.6973 3 0.000126253 -4.12162
6003 1 48.6154 20.3109 11.6945 3 9.4415e-05 -4.12145
6004 1 47.7917 20.3075 9.36428 3 0.000103818 -4.1215
6005 1 50.2633 20.3164 9.36031 3 7.78494e-05 -4.12137
6006 1 49.4392 20.3138 7.03043 3 8.58048e-05 -4.1214
6007 1 51.9119 20.3205 7.02561 3 6.35758e-05 -4.12131
6008 1 51.0875 20.3186 4.69597 3 7.04686e-05 -4.12134
6009 1 53.5612 20.3236 4.69054 3 5.11013e-05 -4.12128
6010 1 52.7365 20.3222 2.36107 3 5.71186e-05 -4.12129
6011 1 55.2111 20.3259 2.35521 3 4.03573e-05 -4.12125
6012 1 54.3861 20.3248 0.0258567 3 4.55093e-05 -4.12126
6013 1 56.8615 20.3275 0.0197012 3 3.13502e-05 -4.12124
6014 1 23.0735 18.2251 47.7676 3 0.000107346 -4.12228
6015 1 25.5436 18.1979 47.7753 3 0.00010988 -4.12237
6016 1 24.72 18.2074 45.4412 3 0.00010684 -4.12238
6017 1 27.1918 18.1787 45.4497 3 0.000151304 -4.1222
6018 1 26.3675 18.1883 43.1155 3 0.000121646 -4.12232
6019 1 28.8417 18.1616 43.1234 3 0.000235322 -4.12196
6020 1 28.0165 18.1698 40.7897 3 0.000188657 -4.12208
6021 1 30.4934 18.1496 40.796 3 0.000338463 -4.12175
6022 1 29.6674 18.1548 38.4628 3 0.000289045 -4.12185
6023 1 32.1462 18.1452 38.4675 3 0.000380854 -4.12167
6024 1 31.3197 18.1464 36.1348 3 0.000368049 -4.1217
6025 1 33.799 18.1496 36.139 3 0.000338463 -4.12175
6026 1 32.9727 18.1464 33.8061 3 0.000368049 -4.1217
6027 1 35.4506 18.1616 33.8115 3 0.000235322 -4.12196
6028 1 34.625 18.1548 31.4781 3 0.000289045 -4.12185
6029 1 37.1006 18.1787 31.4853 3 0.000151304 -4.1222
6030 1 36.2758 18.1698 29.1512 3 0.000188657 -4.12208
6031 1 38.7488 18.1979 29.1597 3 0.00010988 -4.12237
6032 1 37.9249 18.1883 26.8254 3 0.000121646 -4.12232
6033 1 40.3957 18.2165 26.8337 3 0.00010563 -4.12236
6034 1 39.5724 18.2074 24.4997 3 0.00010684 -4.12238
6035 1 42.042 18.233 24.5067 3 0.000106757 -4.1222
6036 1 41.2189 18.2251 22.1733 3 0.000107346 -4.12228
6037 1 43.688 18.2469 22.1783 3 9.79354e-05 -4.12203
6038 1 42.865 18.2403 19.8457 3 0.000103086 -4.12212
6039 1 45.3342 18.2581 19.8485 3 8.36506e-05 -4.12184
6040 1 44.5111 18.2528 17.5165 3 9.14508e-05 -4.12193
6041 1 46.9807 18.2669 17.5173 3 6.88321e-05 -4.12169
6042 1 46.1574 18.2628 15.186 3 7.59839e-05 -4.12176
6043 1 48.6276 18.2738 15.1851 3 5.62216e-05 -4.12156
6044 1 47.8041 18.2706 12.8543 3 6.21674e-05 -4.12162
6045 1 50.275 18.2791 12.852 3 4.59492e-05 -4.12147
6046 1 49.4512 18.2766 10.5216 3 5.08623e-05 -4.12151
6047 1 51.9228 18.2831 10.5183 3 3.74029e-05 -4.1214
6048 1 51.0988 18.2813 8.18819 3 4.14974e-05 -4.12143
6049 1 53.571 18.2862 8.18408 3 3.00528e-05 -4.12135
6050 1 52.7469 18.2848 5.8542 3 3.35796e-05 -4.12137
6051 1 55.2197 18.2884 5.84949 3 2.37711e-05 -4.12131
6052 1 54.3953 18.2874 3.51978 3 2.67886e-05 -4.12133
6053 1 56.8688 18.2901 3.51462 3 1.84107e-05 -4.12128
6054 1 56.0442 18.2893 1.18504 3 2.09722e-05 -4.12129
6055 1 58.5181 18.2913 1.17953 3 1.40407e-05 -4.12126
6056 1 26.3645 16.1658 46.619 3 8.44593e-05 -4.12226
6057 1 28.8405 16.1461 46.6241 3 0.000136356 -4.12207
6058 1 28.0148 16.152 44.2913 3 0.000115383 -4.12214
6059 1 30.493 16.1375 44.2947 3 0.000172908 -4.12195
6060 1 29.6666 16.1412 41.9625 3 0.000156902 -4.122
6061 1 32.1462 16.1345 41.9645 3 0.000187554 -4.12191
6062 1 31.3195 16.1352 39.6326 3 0.000184305 -4.12191
6063 1 33.7994 16.1375 39.6344 3 0.000172908 -4.12195
6064 1 32.9729 16.1352 37.3023 3 0.000184305 -4.12191
6065 1 35.4518 16.1461 37.305 3 0.000136356 -4.12207
6066 1 34.6258 16.1412 34.9725 3 0.000156902 -4.122
6067 1 37.1029 16.1587 34.9768 3 9.78802e-05 -4.12221
6068 1 36.2776 16.152 32.6437 3 0.000115383 -4.12214
6069 1 38.7525 16.1732 32.6494 3 7.42338e-05 -4.12231
6070 1 37.9279 16.1658 30.316 3 8.44593e-05 -4.12226
6071 1 40.4009 16.1879 30.3224 3 6.79042e-05 -4.12231
6072 1 39.5768 16.1806 27.9889 3 6.95989e-05 -4.12233
6073 1 42.0483 16.2014 27.9949 3 6.61208e-05 -4.12222
6074 1 41.2247 16.1948 25.6617 3 6.66786e-05 -4.12228
6075 1 43.6952 16.2131 25.6667 3 6.19556e-05 -4.12208
6076 1 42.8718 16.2075 23.3339 3 6.4717e-05 -4.12215
6077 1 45.3419 16.2229 23.3373 3 5.43021e-05 -4.12192
6078 1 44.5186 16.2182 21.0051 3 5.84032e-05 -4.122
6079 1 46.9887 16.2307 21.007 3 4.51344e-05 -4.12177
6080 1 46.1653 16.227 18.6752 3 4.97277e-05 -4.12184
6081 1 48.6355 16.2369 18.6756 3 3.6764e-05 -4.12164
6082 1 47.8121 16.234 16.3443 3 4.08175e-05 -4.1217
6083 1 50.2826 16.2417 16.3434 3 2.96514e-05 -4.12153
6084 1 49.459 16.2394 14.0125 3 3.3033e-05 -4.12158
6085 1 51.93 16.2454 14.0105 3 2.38271e-05 -4.12145
6086 1 51.1063 16.2436 11.68 3 2.66114e-05 -4.12149
6087 1 53.5776 16.2482 11.6771 3 1.89217e-05 -4.12139
6088 1 52.7537 16.2469 9.34679 3 2.12736e-05 -4.12142
6089 1 55.2255 16.2503 9.3432 3 1.47552e-05 -4.12134
6090 1 54.4015 16.2493 7.01313 3 1.67508e-05 -4.12136
6091 1 56.8736 16.2519 7.009 3 1.12736e-05 -4.1213
6092 1 56.0495 16.2512 4.67909 3 1.29271e-05 -4.12132
6093 1 58.522 16.253 4.67456 3 8.44024e-06 -4.12128
6094 1 57.6978 16.2525 2.34476 3 9.78719e-06 -4.12129
6095 1 60.1705 16.2538 2.33994 3 6.22844e-06 -4.12126
6096 1 59.3463 16.2534 0.0102227 3 7.24539e-06 -4.12126
6097 1 61.8192 16.2543 0.0051905 3 4.73587e-06 -4.12125
6098 1 28.0144 14.1342 47.7912 3 7.04226e-05 -4.12219
6099 1 30.493 14.124 47.7928 3 8.6905e-05 -4.12207
6100 1 29.6665 14.1265 45.4611 3 8.24054e-05 -4.1221
6101 1 32.1462 14.1218 45.4616 3 9.05667e-05 -4.12205
6102 1 31.3195 14.1224 43.1302 3 8.95175e-05 -4.12205
6103 1 33.7994 14.124 43.1304 3 8.6905e-05 -4.12207
6104 1 32.9728 14.1224 40.7989 3 8.95175e-05 -4.12205
6105 1 35.452 14.13 40.7999 3 7.68747e-05 -4.12214
6106 1 34.6258 14.1265 38.468 3 8.24054e-05 -4.1221
6107 1 37.1036 14.1389 38.4703 3 6.4013e-05 -4.12223
6108 1 36.278 14.1342 36.1379 3 7.04226e-05 -4.12219
6109 1 38.754 14.1496 36.1416 3 5.45391e-05 -4.12229
6110 1 37.929 14.1441 33.8088 3 5.86761e-05 -4.12227
6111 1 40.4032 14.1607 33.8134 3 4.93307e-05 -4.12229
6112 1 39.5787 14.1551 31.4804 3 5.12515e-05 -4.1223
6113 1 42.0514 14.1712 31.4852 3 4.67426e-05 -4.12223
6114 1 41.2274 14.166 29.1523 3 4.80863e-05 -4.12227
6115 1 43.699 14.1805 29.1567 3 4.35488e-05 -4.1221
6116 1 42.8753 14.176 26.824 3 4.5344e-05 -4.12217
6117 1 45.3462 14.1884 26.8274 3 3.83868e-05 -4.12196
6118 1 44.5226 14.1846 24.4951 3 4.11553e-05 -4.12204
6119 1 46.9932 14.1949 24.4974 3 3.23328e-05 -4.12182
6120 1 46.1697 14.1918 22.1654 3 3.54186e-05 -4.12189
6121 1 48.6401 14.2001 22.1665 3 2.63636e-05 -4.12169
6122 1 47.8167 14.1977 19.835 3 2.92764e-05 -4.12175
6123 1 50.2871 14.2042 19.8349 3 2.11522e-05 -4.12158
6124 1 49.4636 14.2023 17.5037 3 2.36476e-05 -4.12163
6125 1 51.9343 14.2074 17.5026 3 1.67473e-05 -4.12149
6126 1 51.1107 14.2059 15.1718 3 1.88353e-05 -4.12153
6127 1 53.5816 14.2099 15.1699 3 1.30888e-05 -4.12141
6128 1 52.7579 14.2087 12.8393 3 1.48334e-05 -4.12145
6129 1 55.229 14.2117 12.8367 3 1.00079e-05 -4.12135
6130 1 54.4053 14.2109 10.5063 3 1.14808e-05 -4.12138
6131 1 56.8766 14.2131 10.5031 3 7.47029e-06 -4.12131
6132 1 56.0528 14.2125 8.1729 3 8.67982e-06 -4.12133
6133 1 58.5244 14.2141 8.16935 3 5.39305e-06 -4.12128
6134 1 57.7005 14.2137 5.83923 3 6.36415e-06 -4.12129
6135 1 60.1723 14.2148 5.83538 3 3.83512e-06 -4.12126
6136 1 59.3483 14.2145 3.50534 3 4.55723e-06 -4.12127
6137 1 61.8203 14.2153 3.50128 3 2.76884e-06 -4.12124
6138 1 60.9963 14.2151 1.1713 3 3.23214e-06 -4.12125
6139 1 63.4683 14.2155 1.1671 3 2.23758e-06 -4.12124
6140 1 31.3197 12.1081 46.6275 3 4.08755e-05 -4.12215
6141 1 33.7991 12.1091 46.6269 3 4.129e-05 -4.12217
6142 1 32.9727 12.1081 44.2957 3 4.08755e-05 -4.12215
6143 1 35.4515 12.1131 44.2957 3 4.21562e-05 -4.12221
6144 1 34.6254 12.1108 41.9642 3 4.17801e-05 -4.12219
6145 1 37.1031 12.1192 41.9653 3 4.21966e-05 -4.12227
6146 1 36.2774 12.1159 39.6333 3 4.23375e-05 -4.12224
6147 1 38.7537 12.1265 39.6355 3 4.13515e-05 -4.1223
6148 1 37.9285 12.1227 37.3033 3 4.18121e-05 -4.12229
6149 1 40.4033 12.1343 37.3064 3 3.99465e-05 -4.12229
6150 1 39.5786 12.1304 34.9739 3 4.0753e-05 -4.1223
6151 1 42.052 12.1419 34.9774 3 3.79539e-05 -4.12223
6152 1 41.2278 12.1381 32.6449 3 3.90209e-05 -4.12227
6153 1 43.7001 12.1488 32.6483 3 3.4873e-05 -4.12212
6154 1 42.8761 12.1454 30.3159 3 3.65501e-05 -4.12218
6155 1 45.3476 12.1547 30.3188 3 3.06999e-05 -4.12199
6156 1 44.5239 12.1519 27.9866 3 3.2903e-05 -4.12206
6157 1 46.9949 12.1597 27.9887 3 2.59688e-05 -4.12185
6158 1 46.1713 12.1573 25.6568 3 2.83747e-05 -4.12192
6159 1 48.642 12.1637 25.6581 3 2.12196e-05 -4.12172
6160 1 47.8184 12.1618 23.3264 3 2.35533e-05 -4.12178
6161 1 50.2891 12.167 23.3268 3 1.696e-05 -4.1216
6162 1 49.4655 12.1654 20.9954 3 1.90293e-05 -4.12166
6163 1 51.9362 12.1695 20.995 3 1.32864e-05 -4.12151
6164 1 51.1126 12.1683 18.6639 3 1.50383e-05 -4.12155
6165 1 53.5834 12.1715 18.6627 3 1.0204e-05 -4.12143
6166 1 52.7597 12.1705 16.3319 3 1.16842e-05 -4.12147
6167 1 55.2306 12.173 16.3301 3 7.64719e-06 -4.12137
6168 1 54.407 12.1723 13.9994 3 8.86561e-06 -4.1214
6169 1 56.878 12.1741 13.9972 3 5.54986e-06 -4.12132
6170 1 56.0543 12.1736 11.6667 3 6.53893e-06 -4.12134
6171 1 58.5255 12.1749 11.6641 3 3.88782e-06 -4.12128
6172 1 57.7018 12.1745 9.33361 3 4.66645e-06 -4.1213
6173 1 60.1731 12.1755 9.33074 3 2.63711e-06 -4.12126
6174 1 59.3493 12.1752 7.00037 3 3.21513e-06 -4.12127
6175 1 61.8208 12.1759 6.9973 3 1.80395e-06 -4.12124
6176 1 60.997 12.1757 4.66699 3 2.16766e-06 -4.12125
6177 1 63.4685 12.176 4.66381 3 1.39442e-06 -4.12123
6178 1 62.6447 12.176 2.33352 3 1.54489e-06 -4.12124
6179 1 32.9723 10.0925 47.7927 3 1.80722e-05 -4.12225
6180 1 35.4501 10.0955 47.7923 3 2.43617e-05 -4.12228
6181 1 34.6243 10.0941 45.461 3 2.16891e-05 -4.12227
6182 1 37.1013 10.0991 45.4613 3 2.99467e-05 -4.12231
6183 1 36.2758 10.0972 43.1297 3 2.71846e-05 -4.1223
6184 1 38.7517 10.1036 43.1309 3 3.42984e-05 -4.12232
6185 1 37.9266 10.1013 40.799 3 3.23597e-05 -4.12232
6186 1 40.4014 10.1084 40.8009 3 3.64192e-05 -4.12229
6187 1 39.5766 10.106 38.4688 3 3.56475e-05 -4.12231
6188 1 42.0503 10.1133 38.4712 3 3.59659e-05 -4.12223
6189 1 41.2259 10.1109 36.139 3 3.64632e-05 -4.12226
6190 1 43.6985 10.1177 36.1414 3 3.34479e-05 -4.12212
6191 1 42.8745 10.1155 33.8092 3 3.49544e-05 -4.12218
6192 1 45.3464 10.1216 33.8114 3 2.94988e-05 -4.122
6193 1 44.5225 10.1197 31.4794 3 3.15915e-05 -4.12206
6194 1 46.9939 10.125 31.4811 3 2.48652e-05 -4.12186
6195 1 46.1702 10.1234 29.1492 3 2.72156e-05 -4.12193
6196 1 48.6413 10.1277 29.1503 3 2.02669e-05 -4.12173
6197 1 47.8176 10.1264 26.8187 3 2.25344e-05 -4.1218
6198 1 50.2886 10.1299 26.8192 3 1.60209e-05 -4.12162
6199 1 49.4649 10.1289 24.4877 3 1.80734e-05 -4.12167
6200 1 51.9359 10.1317 24.4876 3 1.23825e-05 -4.12152
6201 1 51.1122 10.1309 22.1564 3 1.41216e-05 -4.12157
6202 1 53.5832 10.1331 22.1558 3 9.30771e-06 -4.12144
6203 1 52.7595 10.1324 19.8247 3 1.07709e-05 -4.12148
6204 1 55.2306 10.1341 19.8236 3 6.83214e-06 -4.12137
6205 1 54.4069 10.1336 17.4927 3 8.00336e-06 -4.1214
6206 1 56.8781 10.1349 17.4913 3 4.85968e-06 -4.12132
6207 1 56.0543 10.1346 15.1604 3 5.78122e-06 -4.12135
6208 1 58.5256 10.1355 15.1587 3 3.34687e-06 -4.12129
6209 1 57.7018 10.1353 12.828 3 4.052e-06 -4.12131
6210 1 60.1732 10.136 12.8261 3 2.24957e-06 -4.12126
6211 1 59.3494 10.1358 10.4954 3 2.74922e-06 -4.12127
6212 1 61.8209 10.1362 10.4933 3 1.53108e-06 -4.12125
6213 1 60.997 10.1361 8.16264 3 1.8446e-06 -4.12125
6214 1 63.4685 10.1364 8.1605 3 1.17498e-06 -4.12124
6215 1 62.6447 10.1363 5.82986 3 1.30774e-06 -4.12124
6216 1 36.2728 8.07764 46.6268 3 2.65645e-05 -4.12252
6217 1 38.7477 8.08055 46.6273 3 3.91003e-05 -4.12261
6218 1 37.9228 8.0795 44.2957 3 3.52892e-05 -4.12258
6219 1 40.3969 8.08279 44.2966 3 4.43185e-05 -4.12265
6220 1 39.5724 8.08166 41.9649 3 4.21417e-05 -4.12263
6221 1 42.0457 8.08504 41.9661 3 4.55675e-05 -4.12266
6222 1 41.2214 8.08392 39.6343 3 4.54804e-05 -4.12266
6223 1 43.6942 8.08717 39.6356 3 4.30692e-05 -4.12264
6224 1 42.87 8.08613 37.3038 3 4.47111e-05 -4.12265
6225 1 45.3423 8.08907 37.3049 3 3.79166e-05 -4.12261
6226 1 44.5182 8.08815 34.9732 3 4.07387e-05 -4.12263
6227 1 46.9902 8.09072 34.9741 3 3.15332e-05 -4.12255
6228 1 46.1662 8.08993 32.6425 3 3.48085e-05 -4.12258
6229 1 48.6379 8.0921 32.6431 3 2.50478e-05 -4.1225
6230 1 47.8141 8.09145 30.3116 3 2.82377e-05 -4.12253
6231 1 50.2857 8.09323 30.3119 3 1.91851e-05 -4.12245
6232 1 49.4618 8.0927 27.9805 3 2.20015e-05 -4.12247
6233 1 51.9334 8.09415 27.9805 3 1.42821e-05 -4.1224
6234 1 51.1095 8.09372 25.6492 3 1.66182e-05 -4.12242
6235 1 53.5811 8.09487 25.6489 3 1.03948e-05 -4.12236
6236 1 52.7572 8.09453 23.3177 3 1.22123e-05 -4.12238
6237 1 55.2289 8.09543 23.3172 3 7.39866e-06 -4.12233
6238 1 54.405 8.09517 20.986 3 8.78578e-06 -4.12235
6239 1 56.8767 8.09587 20.9853 3 5.17388e-06 -4.12231
6240 1 56.0528 8.09567 18.6542 3 6.20256e-06 -4.12232
6241 1 58.5246 8.09619 18.6534 3 3.58431e-06 -4.12229
6242 1 57.7006 8.09604 16.3223 3 4.31279e-06 -4.1223
6243 1 60.1725 8.09642 16.3213 3 2.50178e-06 -4.12228
6244 1 59.3485 8.09632 13.9903 3 2.9817e-06 -4.12229
6245 1 61.8204 8.09656 13.9893 3 1.82514e-06 -4.12227
6246 1 60.9965 8.0965 11.6583 3 2.11595e-06 -4.12228
6247 1 63.4684 8.09664 11.6572 3 1.50246e-06 -4.12227
6248 1 62.6444 8.09661 9.32619 3 1.6245e-06 -4.12227
6249 1 37.916 6.05706 47.7929 3 0.000118019 -4.1221
6250 1 40.3888 6.05706 47.7929 3 0.000224709 -4.12215
6251 1 39.5645 6.05706 45.4616 3 0.000186264 -4.12213
6252 1 42.0373 6.05706 45.4616 3 0.000307778 -4.12218
6253 1 41.2131 6.05706 43.1302 3 0.000265394 -4.12217
6254 1 43.6859 6.05706 43.1302 3 0.000394982 -4.12221
6255 1 42.8616 6.05706 40.7989 3 0.000351215 -4.12219
6256 1 45.3344 6.05706 40.7989 3 0.000480835 -4.12222
6257 1 44.5101 6.05706 38.4675 3 0.000438416 -4.12221
6258 1 46.9829 6.05706 38.4675 3 0.000560309 -4.12222
6259 1 46.1586 6.05706 36.1361 3 0.000521624 -4.12222
6260 1 48.6314 6.05706 36.1361 3 0.000629864 -4.12221
6261 1 47.8072 6.05706 33.8048 3 0.000596471 -4.12222
6262 1 50.2799 6.05706 33.8048 3 0.000687853 -4.1222
6263 1 49.4557 6.05706 31.4734 3 0.000660325 -4.1222
6264 1 51.9285 6.05706 31.4734 3 0.000734204 -4.12218
6265 1 51.1042 6.05706 29.142 3 0.000712434 -4.12219
6266 1 53.577 6.05706 29.142 3 0.000769854 -4.12216
6267 1 52.7527 6.05706 26.8107 3 0.000753276 -4.12217
6268 1 55.2255 6.05706 26.8107 3 0.000796409 -4.12214
6269 1 54.4012 6.05706 24.4793 3 0.00078416 -4.12215
6270 1 56.874 6.05706 24.4793 3 0.000815526 -4.12212
6271 1 56.0498 6.05706 22.1479 3 0.000806795 -4.12213
6272 1 58.5226 6.05706 22.1479 3 0.00082881 -4.1221
6273 1 57.6983 6.05706 19.8166 3 0.0008228 -4.12211
6274 1 60.1711 6.05706 19.8166 3 0.000837583 -4.12209
6275 1 59.3468 6.05706 17.4852 3 0.00083369 -4.1221
6276 1 61.8196 6.05706 17.4852 3 0.000842842 -4.12208
6277 1 60.9953 6.05706 15.1539 3 0.000840622 -4.12209
6278 1 63.4681 6.05706 15.1539 3 0.000845304 -4.12208
6279 1 62.6439 6.05706 12.8225 3 0.000844393 -4.12208
6280 1 41.2131 4.03804 46.6273 3 4.01691e-16 -4.12203
6281 1 43.6859 4.03804 46.6273 3 1.69002e-18 -4.12186
6282 1 42.8616 4.03804 44.2959 3 9.99999e-17 -4.12192
6283 1 45.3344 4.03804 44.2959 3 9.99999e-17 -4.12177
6284 1 44.5101 4.03804 41.9645 3 2.01948e-28 -4.12181
6285 1 46.9829 4.03804 41.9645 3 3.99999e-16 -4.12168
6286 1 46.1586 4.03804 39.6332 3 9.99999e-17 -4.12172
6287 1 48.6314 4.03804 39.6332 3 9.99999e-17 -4.12161
6288 1 47.8072 4.03804 37.3018 3 3.99999e-16 -4.12165
6289 1 50.2799 4.03804 37.3018 3 2.01948e-28 -4.12156
6290 1 49.4557 4.03804 34.9704 3 9.99999e-17 -4.12158
6291 1 51.9285 4.03804 34.9704 3 1e-16 -4.12151
6292 1 51.1042 4.03804 32.6391 3 9.99999e-17 -4.12153
6293 1 53.577 4.03804 32.6391 3 3.99999e-16 -4.12147
6294 1 52.7527 4.03804 30.3077 3 4.00001e-16 -4.12149
6295 1 55.2255 4.03804 30.3077 3 1e-16 -4.12144
6296 1 54.4012 4.03804 27.9764 3 1e-16 -4.12146
6297 1 56.874 4.03804 27.9764 3 1.51461e-28 -4.12142
6298 1 56.0498 4.03804 25.645 3 1.51461e-28 -4.12143
6299 1 58.5226 4.03804 25.645 3 9.99999e-17 -4.1214
6300 1 57.6983 4.03804 23.3136 3 1e-16 -4.12141
6301 1 60.1711 4.03804 23.3136 3 3.99999e-16 -4.12139
6302 1 59.3468 4.03804 20.9823 3 3.99999e-16 -4.1214
6303 1 61.8196 4.03804 20.9823 3 5.77599e-17 -4.12138
6304 1 60.9953 4.03804 18.6509 3 9.99999e-17 -4.12139
6305 1 63.4681 4.03804 18.6509 3 2.304e-17 -4.12138
6306 1 62.6439 4.03804 16.3195 3 5.76e-18 -4.12138
6307 1 42.8616 2.01902 47.7929 3 1.0507e-16 -4.10627
6308 1 45.3344 2.01902 47.7929 3 1.0507e-16 -4.10627
6309 1 44.5101 2.01902 45.4616 3 2.01948e-28 -4.10627
6310 1 46.9829 2.01902 45.4616 3 3.99999e-16 -4.10627
6311 1 46.1586 2.01902 43.1302 3 9.99999e-17 -4.10627
6312 1 48.6314 2.01902 43.1302 3 9.99999e-17 -4.10627
6313 1 47.8072 2.01902 40.7989 3 3.99999e-16 -4.10627
6314 1 50.2799 2.01902 40.7989 3 8.07794e-28 -4.10627
6315 1 49.4557 2.01902 38.4675 3 9.99999e-17 -4.10627
6316 1 51.9285 2.01902 38.4675 3 1e-16 -4.10627
6317 1 51.1042 2.01902 36.1361 3 9.99999e-17 -4.10627
6318 1 53.577 2.01902 36.1361 3 3.99999e-16 -4.10627
6319 1 52.7527 2.01902 33.8048 3 4.00001e-16 -4.10627
6320 1 55.2255 2.01902 33.8048 3 1e-16 -4.10627
6321 1 54.4012 2.01902 31.4734 3 1e-16 -4.10627
6322 1 56.874 2.01902 31.4734 3 5.04871e-29 -4.10627
6323 1 56.0498 2.01902 29.142 3 1.51461e-28 -4.10627
6324 1 58.5226 2.01902 29.142 3 9.99999e-17 -4.10627
6325 1 57.6983 2.01902 26.8107 3 1e-16 -4.10627
6326 1 60.1711 2.01902 26.8107 3 3.99999e-16 -4.10627
6327 1 59.3468 2.01902 24.4793 3 3.99999e-16 -4.10627
6328 1 61.8196 2.01902 24.4793 3 5.77599e-17 -4.10627
6329 1 60.9953 2.01902 22.1479 3 9.99999e-17 -4.10627
6330 1 63.4681 2.01902 22.1479 3 2.304e-17 -4.10627
6331 1 62.6439 2.01902 19.8166 3 5.76e-18 -4.10627
6332 1 46.1586 0 46.6273 5 12.2293 -3.54465
6333 1 48.6314 0 46.6273 5 12.2293 -3.54465
6334 1 47.8072 0 44.2959 5 12.2293 -3.54465
6335 1 50.2799 0 44.2959 5 12.2293 -3.54465
6336 1 49.4557 0 41.9645 5 12.2293 -3.54465
6337 1 51.9285 0 41.9645 5 12.2293 -3.54465
6338 1 51.1042 0 39.6332 5 12.2293 -3.54465
6339 1 53.577 0 39.6332 5 12.2293 -3.54465
6340 1 52.7527 0 37.3018 5 12.2293 -3.54465
6341 1 55.2255 0 37.3018 5 12.2293 -3.54465
6342 1 54.4012 0 34.9704 5 12.2293 -3.54465
6343 1 56.874 0 34.9704 5 12.2293 -3.54465
6344 1 56.0498 0 32.6391 5 12.2293 -3.54465
6345 1 58.5226 0 32.6391 5 12.2293 -3.54465
6346 1 57.6983 0 30.3077 5 12.2293 -3.54465
6347 1 60.1711 0 30.3077 5 12.2293 -3.54465
6348 1 59.3468 0 27.9764 5 12.2293 -3.54465
6349 1 61.8196 0 27.9764 5 12.2293 -3.54465
6350 1 60.9953 0 25.645 5 12.2293 -3.54465
6351 1 63.4681 0 25.645 5 12.2293 -3.54465
6352 1 62.6439 0 23.3136 5 12.2293 -3.54465
6353 1 13.3734 30.4821 47.7729 3 0.000307261 -4.11813
6354 1 15.8772 30.478 47.7671 3 0.000536516 -4.11718
6355 1 15.0428 30.4796 45.4378 3 0.00043741 -4.11755
6356 1 17.5448 30.4737 45.4309 3 0.000873927 -4.11615
6357 1 16.7113 30.476 43.102 3 0.000663448 -4.11678
6358 1 19.211 30.4677 43.0934 3 0.00152376 -4.11468
6359 1 18.378 30.4709 40.7653 3 0.00115263 -4.11545
6360 1 20.8736 30.4599 40.7542 3 0.00325419 -4.11174
6361 1 20.0425 30.4641 38.4271 3 0.00225363 -4.11327
6362 1 22.5319 30.4496 38.4118 3 0.00806511 -4.10618
6363 1 21.7047 30.455 36.0863 3 0.00467582 -4.10997
6364 1 24.1862 30.4356 36.0639 3 0.0215462 -4.09544
6365 1 23.3589 30.4432 33.7421 3 0.0130334 -4.10166
6366 1 25.8204 30.414 33.7042 3 0.0954364 -4.05808
6367 1 25.0033 30.4266 31.3894 3 0.0487191 -4.07866
6368 1 27.4243 30.3474 31.3148 3 5.11537 -4.00147
6369 1 26.6376 30.3951 29.0158 3 0.167103 -4.03237
6370 1 29.0294 30.3016 28.938 5 4.50623 -3.98757
6371 1 28.2191 30.3187 26.6216 5 4.75702 -3.99009
6372 1 30.6006 30.2568 26.6483 5 3.81688 -3.93471
6373 1 29.8153 30.2835 24.2852 5 4.18412 -3.97113
6374 1 32.1462 30.2028 24.4793 5 3.25055 -3.87684
6375 1 31.4004 30.2303 22.0456 5 3.42045 -3.89887
6376 1 33.6918 30.2568 22.3103 5 3.81688 -3.93471
6377 1 32.892 30.2303 19.9189 5 3.42045 -3.89887
6378 1 35.263 30.3016 20.0206 5 4.50623 -3.98757
6379 1 34.4771 30.2835 17.6793 5 4.18412 -3.97113
6380 1 36.868 30.3474 17.6438 3 5.11537 -4.00147
6381 1 36.0733 30.3187 15.3429 5 4.75702 -3.99009
6382 1 38.472 30.414 15.2544 3 0.0954364 -4.05808
6383 1 37.6547 30.3951 12.9488 3 0.167103 -4.03237
6384 1 40.1062 30.4356 12.8948 3 0.0215462 -4.09544
6385 1 39.2891 30.4266 10.5751 3 0.0487191 -4.07866
6386 1 41.7604 30.4496 10.5469 3 0.00806511 -4.10618
6387 1 40.9335 30.4432 8.22248 3 0.0130334 -4.10166
6388 1 43.4188 30.4599 8.20438 3 0.00325419 -4.11174
6389 1 42.5877 30.455 5.8782 3 0.00467582 -4.10997
6390 1 45.0814 30.4677 5.86518 3 0.00152376 -4.11468
6391 1 44.2499 30.4641 3.53747 3 0.00225363 -4.11327
6392 1 46.7476 30.4737 3.52775 3 0.000873927 -4.11615
6393 1 45.9144 30.4709 1.19919 3 0.00115263 -4.11545
6394 1 48.4152 30.478 1.19154 3 0.000536516 -4.11718
6395 1 16.6397 28.4486 46.5856 3 0.000876386 -4.11854
6396 1 19.1227 28.4391 46.5743 3 0.00177465 -4.11755
6397 1 18.296 28.4428 44.247 3 0.00140198 -4.11796
6398 1 20.7736 28.4297 44.2333 3 0.00297164 -4.11672
6399 1 19.9489 28.4347 41.907 3 0.00224084 -4.11713
6400 1 22.4195 28.4167 41.8902 3 0.00483509 -4.11549
6401 1 21.5969 28.4237 39.5651 3 0.00380236 -4.11608
6402 1 24.0575 28.3979 39.5443 3 0.00848892 -4.1156
6403 1 23.2399 28.4085 37.2204 3 0.00657172 -4.11542
6404 1 25.6893 28.3672 37.196 3 0.0118046 -4.12298
6405 1 24.875 28.3848 34.8733 3 0.0101215 -4.1172
6406 1 27.3116 28.3192 34.8544 3 0.0126047 -4.12069
6407 1 26.4984 28.342 32.5287 3 0.0117188 -4.12211
6408 1 28.9306 28.2612 32.521 3 0.0139267 -4.11512
6409 1 28.1253 28.2912 30.1855 3 0.0108747 -4.11667
6410 1 30.543 28.2101 30.2312 3 0.0163236 -4.11343
6411 1 29.7378 28.2337 27.8735 3 0.0161729 -4.11454
6412 1 32.1462 28.1701 27.9764 3 0.0485463 -4.09016
6413 1 31.3394 28.1809 25.6078 3 0.0322406 -4.09783
6414 1 33.7494 28.2101 25.7216 3 0.0163236 -4.11343
6415 1 32.9529 28.1809 23.3508 3 0.0322406 -4.09783
6416 1 35.3618 28.2612 23.4317 3 0.0139267 -4.11512
6417 1 34.5546 28.2337 21.0852 3 0.0161729 -4.11454
6418 1 36.9807 28.3192 21.0983 3 0.0126047 -4.12069
6419 1 36.1671 28.2912 18.7731 3 0.0108747 -4.11667
6420 1 38.6031 28.3672 18.7567 3 0.0118046 -4.12298
6421 1 37.794 28.342 16.4299 3 0.0117188 -4.12211
6422 1 40.2349 28.3979 16.4084 3 0.00848892 -4.1156
6423 1 39.4174 28.3848 14.0853 3 0.0101215 -4.1172
6424 1 41.8729 28.4167 14.0625 3 0.00483509 -4.11549
6425 1 41.0525 28.4085 11.7382 3 0.00657172 -4.11542
6426 1 43.5187 28.4297 11.7194 3 0.00297164 -4.11672
6427 1 42.6955 28.4237 9.39353 3 0.00380236 -4.11608
6428 1 45.1697 28.4391 9.37841 3 0.00177465 -4.11755
6429 1 44.3435 28.4347 7.05159 3 0.00224084 -4.11713
6430 1 46.8241 28.4459 7.03919 3 0.00108856 -4.11827
6431 1 45.9964 28.4428 4.7116 3 0.00140198 -4.11796
6432 1 48.4817 28.4509 4.70121 3 0.00070721 -4.1188
6433 1 47.6526 28.4486 2.37301 3 0.000876386 -4.11854
6434 1 50.1415 28.4544 2.36412 3 0.000468853 -4.11918
6435 1 49.3113 28.4528 0.0355173 3 0.000568438 -4.119
6436 1 51.8031 28.4568 0.0277387 3 0.000324049 -4.1195
6437 1 18.236 26.4091 47.7378 3 0.000872325 -4.11987
6438 1 20.7065 26.3934 47.7266 3 0.00138945 -4.11976
6439 1 19.8839 26.3995 45.3991 3 0.00119292 -4.11984
6440 1 22.3494 26.378 45.3876 3 0.00186971 -4.12017
6441 1 21.5285 26.3863 43.06 3 0.00161523 -4.11988
6442 1 23.988 26.356 43.0497 3 0.00242576 -4.12132
6443 1 23.169 26.3679 40.7214 3 0.00221009 -4.12044
6444 1 25.6217 26.3231 40.7161 3 0.00253655 -4.12157
6445 1 24.8057 26.3415 38.3849 3 0.00249975 -4.12221
6446 1 27.2545 26.2828 38.3864 3 0.00270402 -4.12349
6447 1 26.4385 26.3041 36.0534 3 0.00259635 -4.12219
6448 1 28.8844 26.2327 36.0686 3 0.00356947 -4.12193
6449 1 28.0687 26.2585 33.7292 3 0.00322313 -4.12373
6450 1 30.5129 26.1844 33.7678 3 0.00816207 -4.11663
6451 1 29.6995 26.2083 31.4182 3 0.00443349 -4.12078
6452 1 32.1462 26.1677 31.4734 3 0.0089096 -4.11296
6453 1 31.3291 26.1714 29.1239 3 0.00960164 -4.11429
6454 1 33.7795 26.1844 29.179 3 0.00816207 -4.11663
6455 1 32.9633 26.1714 26.8288 3 0.00960164 -4.11429
6456 1 35.4079 26.2327 26.8782 3 0.00356947 -4.12193
6457 1 34.5928 26.2083 24.5345 3 0.00443349 -4.12078
6458 1 37.0379 26.2828 24.5604 3 0.00270402 -4.12349
6459 1 36.2237 26.2585 22.2235 3 0.00322313 -4.12373
6460 1 38.6707 26.3231 22.2307 3 0.00253655 -4.12157
6461 1 37.8538 26.3041 19.8993 3 0.00259635 -4.12219
6462 1 40.3044 26.356 19.8971 3 0.00242576 -4.12132
6463 1 39.4867 26.3415 17.5678 3 0.00249975 -4.12221
6464 1 41.943 26.378 17.5592 3 0.00186971 -4.12017
6465 1 41.1234 26.3679 15.2313 3 0.00221009 -4.12044
6466 1 43.5858 26.3934 15.2202 3 0.00138945 -4.11976
6467 1 42.7639 26.3863 12.8927 3 0.00161523 -4.11988
6468 1 45.2321 26.4047 12.8813 3 0.00102489 -4.11984
6469 1 44.4085 26.3995 10.5536 3 0.00119292 -4.11984
6470 1 46.8814 26.4129 10.5428 3 0.000743912 -4.11996
6471 1 46.0564 26.4091 8.21492 3 0.000872325 -4.11987
6472 1 48.5333 26.4189 8.20492 3 0.000535789 -4.12007
6473 1 47.7071 26.4161 5.87675 3 0.000632901 -4.12001
6474 1 50.1874 26.4232 5.86756 3 0.000387257 -4.12021
6475 1 49.3601 26.4212 3.53913 3 0.000455557 -4.12015
6476 1 51.8432 26.4263 3.53065 3 0.000280837 -4.12034
6477 1 51.0151 26.4249 1.202 3 0.000328903 -4.12028
6478 1 53.5005 26.4283 1.19413 3 0.000205992 -4.12045
6479 1 21.4848 24.348 46.5646 3 0.000697935 -4.12134
6480 1 23.9465 24.3164 46.5629 3 0.000884572 -4.12224
6481 1 23.1265 24.3286 44.2313 3 0.000852825 -4.12188
6482 1 25.5851 24.2866 44.235 3 0.000942039 -4.12252
6483 1 24.7657 24.302 41.9016 3 0.000915784 -4.12218
6484 1 27.2228 24.2502 41.9119 3 0.000954188 -4.12313
6485 1 26.4042 24.2694 39.5756 3 0.000890561 -4.12299
6486 1 28.8614 24.2108 39.5947 3 0.00127742 -4.12238
6487 1 28.042 24.2304 37.2556 3 0.00103223 -4.12292
6488 1 30.5022 24.1766 37.2821 3 0.00310541 -4.11892
6489 1 29.6811 24.1912 34.9413 3 0.00230359 -4.1201
6490 1 32.1462 24.1639 34.9704 3 0.00353295 -4.11927
6491 1 31.3242 24.1672 32.6289 3 0.00347281 -4.11881
6492 1 33.7902 24.1766 32.6588 3 0.00310541 -4.11892
6493 1 32.9682 24.1672 30.3179 3 0.00347281 -4.11881
6494 1 35.4309 24.2108 30.3462 3 0.00127742 -4.12238
6495 1 34.6113 24.1912 28.0055 3 0.00230359 -4.1201
6496 1 37.0696 24.2502 28.029 3 0.000954188 -4.12313
6497 1 36.2504 24.2304 25.6912 3 0.00103223 -4.12292
6498 1 38.7073 24.2866 25.7059 3 0.000942039 -4.12252
6499 1 37.8882 24.2694 23.3713 3 0.000890561 -4.12299
6500 1 40.3459 24.3164 23.378 3 0.000884572 -4.12224
6501 1 39.5267 24.302 21.0452 3 0.000915784 -4.12218
6502 1 41.9866 24.339 21.0462 3 0.000793814 -4.12154
6503 1 41.1659 24.3286 18.7155 3 0.000852825 -4.12188
6504 1 43.6293 24.3557 18.7118 3 0.000623091 -4.12114
6505 1 42.8076 24.348 16.3822 3 0.000697935 -4.12134
6506 1 45.2745 24.368 16.376 3 0.00049893 -4.12096
6507 1 44.4517 24.3623 14.047 3 0.000559055 -4.12101
6508 1 46.9217 24.3772 14.0396 3 0.000400063 -4.12086
6509 1 46.0979 24.373 11.7108 3 0.000447393 -4.12091
6510 1 48.5708 24.3841 11.703 3 0.000315312 -4.12084
6511 1 47.7461 24.3809 9.37424 3 0.00035533 -4.12085
6512 1 50.2216 24.3891 9.36633 3 0.000245271 -4.12085
6513 1 49.396 24.3868 7.03759 3 0.000278721 -4.12084
6514 1 51.8738 24.3927 7.02977 3 0.000188817 -4.12087
6515 1 51.0475 24.391 4.70099 3 0.000215508 -4.12085
6516 1 53.5272 24.3953 4.69334 3 0.000144175 -4.1209
6517 1 52.7004 24.3941 2.36449 3 0.000165048 -4.12088
6518 1 55.1817 24.3971 2.35702 3 0.000109773 -4.12094
6519 1 54.3544 24.3963 0.0281181 3 0.000125794 -4.12092
6520 1 56.8371 24.3983 0.0208248 3 8.38841e-05 -4.12097
6521 1 23.1 22.2915 47.7431 3 0.000385065 -4.12223
6522 1 25.5635 22.2537 47.7507 3 0.000376991 -4.12269
6523 1 24.7423 22.2675 45.4161 3 0.000400036 -4.12247
6524 1 27.206 22.2233 45.4283 3 0.000407281 -4.12259
6525 1 26.3845 22.2388 43.0922 3 0.000390738 -4.12272
6526 1 28.85 22.1924 43.1083 3 0.000773009 -4.12162
6527 1 28.0278 22.2077 40.771 3 0.000487495 -4.12235
6528 1 30.4971 22.169 40.7881 3 0.00130375 -4.12073
6529 1 29.6732 22.1794 38.4513 3 0.00104397 -4.12115
6530 1 32.1462 22.1599 38.4675 3 0.00169982 -4.12037
6531 1 31.3214 22.1623 36.1308 3 0.00155395 -4.12055
6532 1 33.7953 22.169 36.1469 3 0.00130375 -4.12073
6533 1 32.971 22.1623 33.8101 3 0.00155395 -4.12055
6534 1 35.4424 22.1924 33.8267 3 0.000773009 -4.12162
6535 1 34.6192 22.1794 31.4896 3 0.00104397 -4.12115
6536 1 37.0864 22.2233 31.5066 3 0.000407281 -4.12259
6537 1 36.2646 22.2077 29.1699 3 0.000487495 -4.12235
6538 1 38.7289 22.2537 29.1843 3 0.000376991 -4.12269
6539 1 37.9079 22.2388 26.8487 3 0.000390738 -4.12272
6540 1 40.3713 22.28 26.8587 3 0.000399913 -4.12228
6541 1 39.5501 22.2675 24.5248 3 0.000400036 -4.12247
6542 1 42.0139 22.3016 24.5303 3 0.000368054 -4.12203
6543 1 41.1924 22.2915 22.1978 3 0.000385065 -4.12223
6544 1 43.6578 22.3183 22.1992 3 0.000309049 -4.1217
6545 1 42.8357 22.3105 19.8679 3 0.000344028 -4.12184
6546 1 45.3029 22.3309 19.8662 3 0.000252583 -4.12146
6547 1 44.4802 22.325 17.5358 3 0.000278697 -4.12156
6548 1 46.9494 22.3405 17.5319 3 0.000207491 -4.12133
6549 1 46.126 22.3361 15.2021 3 0.000228489 -4.12139
6550 1 48.5972 22.3478 15.1969 3 0.000170843 -4.12124
6551 1 47.7732 22.3444 12.8675 3 0.000188621 -4.12127
6552 1 50.2461 22.3532 12.8615 3 0.000139139 -4.12119
6553 1 49.4215 22.3507 10.5322 3 0.000154376 -4.12121
6554 1 51.8961 22.3572 10.5258 3 0.000111557 -4.12116
6555 1 51.071 22.3554 8.19663 3 0.000124819 -4.12117
6556 1 53.547 22.3602 8.18992 3 8.81848e-05 -4.12115
6557 1 52.7214 22.3588 5.86083 3 9.93764e-05 -4.12115
6558 1 55.1988 22.3623 5.85397 3 6.86729e-05 -4.12115
6559 1 54.3728 22.3613 3.52491 3 7.79472e-05 -4.12115
6560 1 56.8512 22.3637 3.51798 3 5.29814e-05 -4.12115
6561 1 56.0249 22.3631 1.18893 3 6.03627e-05 -4.12115
6562 1 58.5042 22.3647 1.18196 3 4.08571e-05 -4.12116
6563 1 26.3736 20.2123 46.603 3 0.000196318 -4.12245
6564 1 28.8445 20.1769 46.6147 3 0.000414603 -4.1218
6565 1 28.0203 20.1879 44.2796 3 0.000315416 -4.12203
6566 1 30.4945 20.1601 44.2902 3 0.000651847 -4.12146
6567 1 29.6693 20.1674 41.9555 3 0.000529118 -4.12161
6568 1 32.1462 20.1539 41.9645 3 0.000780966 -4.12122
6569 1 31.3203 20.1554 39.6304 3 0.000753447 -4.12126
6570 1 33.7979 20.1601 39.6389 3 0.000651847 -4.12146
6571 1 32.9721 20.1554 37.3046 3 0.000753447 -4.12126
6572 1 35.4479 20.1769 37.3144 3 0.000414603 -4.1218
6573 1 34.6231 20.1674 34.9795 3 0.000529118 -4.12161
6574 1 37.0957 20.1999 34.9908 3 0.000227087 -4.12234
6575 1 36.2721 20.1879 32.6554 3 0.000315416 -4.12203
6576 1 38.7416 20.2244 32.667 3 0.000190202 -4.12249
6577 1 37.9188 20.2123 30.332 3 0.000196318 -4.12245
6578 1 40.3865 20.247 30.3418 3 0.000195126 -4.12237
6579 1 39.5641 20.2361 28.0076 3 0.000187607 -4.12248
6580 1 42.0312 20.2663 28.0147 3 0.000189371 -4.12217
6581 1 41.2089 20.2571 25.6815 3 0.000195796 -4.12225
6582 1 43.6763 20.2819 25.6855 3 0.000168778 -4.12192
6583 1 42.8537 20.2746 23.3533 3 0.000180503 -4.12205
6584 1 45.3219 20.2942 23.3545 3 0.000139213 -4.12171
6585 1 44.499 20.2884 21.0231 3 0.000153538 -4.12181
6586 1 46.9682 20.3036 21.022 3 0.000114314 -4.12156
6587 1 46.1449 20.2992 18.6913 3 0.000126253 -4.12162
6588 1 48.6154 20.3109 18.6886 3 9.4415e-05 -4.12145
6589 1 47.7917 20.3075 16.3584 3 0.000103818 -4.1215
6590 1 50.2633 20.3164 16.3544 3 7.78494e-05 -4.12137
6591 1 49.4392 20.3138 14.0245 3 8.58048e-05 -4.1214
6592 1 51.9119 20.3205 14.0197 3 6.35758e-05 -4.12131
6593 1 51.0875 20.3186 11.6901 3 7.04686e-05 -4.12134
6594 1 53.5612 20.3236 11.6846 3 5.11013e-05 -4.12128
6595 1 52.7365 20.3222 9.35516 3 5.71186e-05 -4.12129
6596 1 55.2111 20.3259 9.3493 3 4.03573e-05 -4.12125
6597 1 54.3861 20.3248 7.01995 3 4.55093e-05 -4.12126
6598 1 56.8615 20.3275 7.01379 3 3.13502e-05 -4.12124
6599 1 56.0362 20.3268 4.68452 3 3.5656e-05 -4.12125
6600 1 58.5124 20.3286 4.67816 3 2.40917e-05 -4.12123
6601 1 57.6869 20.3281 2.34894 3 2.74791e-05 -4.12124
6602 1 60.1635 20.3294 2.34244 3 1.86231e-05 -4.12123
6603 1 59.3379 20.329 0.01326 3 2.11354e-05 -4.12123
6604 1 61.815 20.3298 0.00666454 3 1.49752e-05 -4.12123
6605 1 28.0165 18.1698 47.7838 3 0.000188657 -4.12208
6606 1 30.4934 18.1496 47.79 3 0.000338463 -4.12175
6607 1 29.6674 18.1548 45.4569 3 0.000289045 -4.12185
6608 1 32.1462 18.1452 45.4616 3 0.000380854 -4.12167
6609 1 31.3197 18.1464 43.1288 3 0.000368049 -4.1217
6610 1 33.799 18.1496 43.1331 3 0.000338463 -4.12175
6611 1 32.9727 18.1464 40.8002 3 0.000368049 -4.1217
6612 1 35.4506 18.1616 40.8056 3 0.000235322 -4.12196
6613 1 34.625 18.1548 38.4722 3 0.000289045 -4.12185
6614 1 37.1006 18.1787 38.4794 3 0.000151304 -4.1222
6615 1 36.2758 18.1698 36.1453 3 0.000188657 -4.12208
6616 1 38.7488 18.1979 36.1537 3 0.00010988 -4.12237
6617 1 37.9249 18.1883 33.8195 3 0.000121646 -4.12232
6618 1 40.3957 18.2165 33.8278 3 0.00010563 -4.12236
6619 1 39.5724 18.2074 31.4938 3 0.00010684 -4.12238
6620 1 42.042 18.233 31.5008 3 0.000106757 -4.1222
6621 1 41.2189 18.2251 29.1674 3 0.000107346 -4.12228
6622 1 43.688 18.2469 29.1724 3 9.79354e-05 -4.12203
6623 1 42.865 18.2403 26.8397 3 0.000103086 -4.12212
6624 1 45.3342 18.2581 26.8426 3 8.36506e-05 -4.12184
6625 1 44.5111 18.2528 24.5106 3 9.14508e-05 -4.12193
6626 1 46.9807 18.2669 24.5114 3 6.88321e-05 -4.12169
6627 1 46.1574 18.2628 22.1801 3 7.59839e-05 -4.12176
6628 1 48.6276 18.2738 22.1792 3 5.62216e-05 -4.12156
6629 1 47.8041 18.2706 19.8484 3 6.21674e-05 -4.12162
6630 1 50.275 18.2791 19.8461 3 4.59492e-05 -4.12147
6631 1 49.4512 18.2766 17.5157 3 5.08623e-05 -4.12151
6632 1 51.9228 18.2831 17.5124 3 3.74029e-05 -4.1214
6633 1 51.0988 18.2813 15.1823 3 4.14974e-05 -4.12143
6634 1 53.571 18.2862 15.1782 3 3.00528e-05 -4.12135
6635 1 52.7469 18.2848 12.8483 3 3.35796e-05 -4.12137
6636 1 55.2197 18.2884 12.8436 3 2.37711e-05 -4.12131
6637 1 54.3953 18.2874 10.5139 3 2.67886e-05 -4.12133
6638 1 56.8688 18.2901 10.5087 3 1.84107e-05 -4.12128
6639 1 56.0442 18.2893 8.17913 3 2.09722e-05 -4.12129
6640 1 58.5181 18.2913 8.17362 3 1.40407e-05 -4.12126
6641 1 57.6934 18.2907 5.84414 3 1.61087e-05 -4.12127
6642 1 60.1677 18.2921 5.8384 3 1.06657e-05 -4.12125
6643 1 59.3429 18.2917 3.50898 3 1.22128e-05 -4.12126
6644 1 61.8175 18.2925 3.50307 3 8.38125e-06 -4.12124
6645 1 60.9926 18.2923 1.1737 3 9.39267e-06 -4.12125
6646 1 63.4674 18.2928 1.1677 3 7.23823e-06 -4.12124
6647 1 31.3195 16.1352 46.6267 3 0.000184305 -4.12191
6648 1 33.7994 16.1375 46.6285 3 0.000172908 -4.12195
6649 1 32.9729 16.1352 44.2964 3 0.000184305 -4.12191
6650 1 35.4518 16.1461 44.2991 3 0.000136356 -4.12207
6651 1 34.6258 16.1412 41.9666 3 0.000156902 -4.122
6652 1 37.1029 16.1587 41.9709 3 9.78802e-05 -4.12221
6653 1 36.2776 16.152 39.6378 3 0.000115383 -4.12214
6654 1 38.7525 16.1732 39.6435 3 7.42338e-05 -4.12231
6655 1 37.9279 16.1658 37.3101 3 8.44593e-05 -4.12226
6656 1 40.4009 16.1879 37.3165 3 6.79042e-05 -4.12231
6657 1 39.5768 16.1806 34.983 3 6.95989e-05 -4.12233
6658 1 42.0483 16.2014 34.989 3 6.61208e-05 -4.12222
6659 1 41.2247 16.1948 32.6558 3 6.66786e-05 -4.12228
6660 1 43.6952 16.2131 32.6608 3 6.19556e-05 -4.12208
6661 1 42.8718 16.2075 30.328 3 6.4717e-05 -4.12215
6662 1 45.3419 16.2229 30.3314 3 5.43021e-05 -4.12192
6663 1 44.5186 16.2182 27.9992 3 5.84032e-05 -4.122
6664 1 46.9887 16.2307 28.001 3 4.51344e-05 -4.12177
6665 1 46.1653 16.227 25.6693 3 4.97277e-05 -4.12184
6666 1 48.6355 16.2369 25.6697 3 3.6764e-05 -4.12164
6667 1 47.8121 16.234 23.3384 3 4.08175e-05 -4.1217
6668 1 50.2826 16.2417 23.3375 3 2.96514e-05 -4.12153
6669 1 49.459 16.2394 21.0066 3 3.3033e-05 -4.12158
6670 1 51.93 16.2454 21.0046 3 2.38271e-05 -4.12145
6671 1 51.1063 16.2436 18.6741 3 2.66114e-05 -4.12149
6672 1 53.5776 16.2482 18.6711 3 1.89217e-05 -4.12139
6673 1 52.7537 16.2469 16.3409 3 2.12736e-05 -4.12142
6674 1 55.2255 16.2503 16.3373 3 1.47552e-05 -4.12134
6675 1 54.4015 16.2493 14.0072 3 1.67508e-05 -4.12136
6676 1 56.8736 16.2519 14.0031 3 1.12736e-05 -4.1213
6677 1 56.0495 16.2512 11.6732 3 1.29271e-05 -4.12132
6678 1 58.522 16.253 11.6686 3 8.44024e-06 -4.12128
6679 1 57.6978 16.2525 9.33885 3 9.78719e-06 -4.12129
6680 1 60.1705 16.2538 9.33403 3 6.22844e-06 -4.12126
6681 1 59.3463 16.2534 7.00431 3 7.24539e-06 -4.12126
6682 1 61.8192 16.2543 6.99928 3 4.73587e-06 -4.12125
6683 1 60.9949 16.254 4.66962 3 5.3944e-06 -4.12125
6684 1 63.468 16.2545 4.66446 3 3.9781e-06 -4.12124
6685 1 62.6436 16.2544 2.33483 3 4.25859e-06 -4.12124
6686 1 32.9728 14.1224 47.793 3 8.95175e-05 -4.12205
6687 1 35.452 14.13 47.794 3 7.68747e-05 -4.12214
6688 1 34.6258 14.1265 45.4621 3 8.24054e-05 -4.1221
6689 1 37.1036 14.1389 45.4644 3 6.4013e-05 -4.12223
6690 1 36.278 14.1342 43.132 3 7.04226e-05 -4.12219
6691 1 38.754 14.1496 43.1357 3 5.45391e-05 -4.12229
6692 1 37.929 14.1441 40.8029 3 5.86761e-05 -4.12227
6693 1 40.4032 14.1607 40.8075 3 4.93307e-05 -4.12229
6694 1 39.5787 14.1551 38.4745 3 5.12515e-05 -4.1223
6695 1 42.0514 14.1712 38.4793 3 4.67426e-05 -4.12223
6696 1 41.2274 14.166 36.1464 3 4.80863e-05 -4.12227
6697 1 43.699 14.1805 36.1508 3 4.35488e-05 -4.1221
6698 1 42.8753 14.176 33.8181 3 4.5344e-05 -4.12217
6699 1 45.3462 14.1884 33.8215 3 3.83868e-05 -4.12196
6700 1 44.5226 14.1846 31.4892 3 4.11553e-05 -4.12204
6701 1 46.9932 14.1949 31.4914 3 3.23328e-05 -4.12182
6702 1 46.1697 14.1918 29.1595 3 3.54186e-05 -4.12189
6703 1 48.6401 14.2001 29.1606 3 2.63636e-05 -4.12169
6704 1 47.8167 14.1977 26.8291 3 2.92764e-05 -4.12175
6705 1 50.2871 14.2042 26.829 3 2.11522e-05 -4.12158
6706 1 49.4636 14.2023 24.4978 3 2.36476e-05 -4.12163
6707 1 51.9343 14.2074 24.4967 3 1.67473e-05 -4.12149
6708 1 51.1107 14.2059 22.1659 3 1.88353e-05 -4.12153
6709 1 53.5816 14.2099 22.164 3 1.30888e-05 -4.12141
6710 1 52.7579 14.2087 19.8334 3 1.48334e-05 -4.12145
6711 1 55.229 14.2117 19.8308 3 1.00079e-05 -4.12135
6712 1 54.4053 14.2109 17.5004 3 1.14808e-05 -4.12138
6713 1 56.8766 14.2131 17.4972 3 7.47029e-06 -4.12131
6714 1 56.0528 14.2125 15.167 3 8.67982e-06 -4.12133
6715 1 58.5244 14.2141 15.1634 3 5.39305e-06 -4.12128
6716 1 57.7005 14.2137 12.8333 3 6.36415e-06 -4.12129
6717 1 60.1723 14.2148 12.8295 3 3.83512e-06 -4.12126
6718 1 59.3483 14.2145 10.4994 3 4.55723e-06 -4.12127
6719 1 61.8203 14.2153 10.4954 3 2.76884e-06 -4.12124
6720 1 60.9963 14.2151 8.16539 3 3.23214e-06 -4.12125
6721 1 63.4683 14.2155 8.16119 3 2.23758e-06 -4.12124
6722 1 62.6443 14.2154 5.83124 3 2.44038e-06 -4.12124
6723 1 36.2774 12.1159 46.6274 3 4.23375e-05 -4.12224
6724 1 38.7537 12.1265 46.6296 3 4.13515e-05 -4.1223
6725 1 37.9285 12.1227 44.2974 3 4.18121e-05 -4.12229
6726 1 40.4033 12.1343 44.3005 3 3.99465e-05 -4.12229
6727 1 39.5786 12.1304 41.968 3 4.0753e-05 -4.1223
6728 1 42.052 12.1419 41.9715 3 3.79539e-05 -4.12223
6729 1 41.2278 12.1381 39.6389 3 3.90209e-05 -4.12227
6730 1 43.7001 12.1488 39.6424 3 3.4873e-05 -4.12212
6731 1 42.8761 12.1454 37.3099 3 3.65501e-05 -4.12218
6732 1 45.3476 12.1547 37.3129 3 3.06999e-05 -4.12199
6733 1 44.5239 12.1519 34.9807 3 3.2903e-05 -4.12206
6734 1 46.9949 12.1597 34.9828 3 2.59688e-05 -4.12185
6735 1 46.1713 12.1573 32.6509 3 2.83747e-05 -4.12192
6736 1 48.642 12.1637 32.6521 3 2.12196e-05 -4.12172
6737 1 47.8184 12.1618 30.3205 3 2.35533e-05 -4.12178
6738 1 50.2891 12.167 30.3209 3 1.696e-05 -4.1216
6739 1 49.4655 12.1654 27.9895 3 1.90293e-05 -4.12166
6740 1 51.9362 12.1695 27.9891 3 1.32864e-05 -4.12151
6741 1 51.1126 12.1683 25.658 3 1.50383e-05 -4.12155
6742 1 53.5834 12.1715 25.6568 3 1.0204e-05 -4.12143
6743 1 52.7597 12.1705 23.326 3 1.16842e-05 -4.12147
6744 1 55.2306 12.173 23.3242 3 7.64719e-06 -4.12137
6745 1 54.407 12.1723 20.9935 3 8.86561e-06 -4.1214
6746 1 56.878 12.1741 20.9913 3 5.54986e-06 -4.12132
6747 1 56.0543 12.1736 18.6607 3 6.53893e-06 -4.12134
6748 1 58.5255 12.1749 18.6581 3 3.88782e-06 -4.12128
6749 1 57.7018 12.1745 16.3277 3 4.66645e-06 -4.1213
6750 1 60.1731 12.1755 16.3248 3 2.63711e-06 -4.12126
6751 1 59.3493 12.1752 13.9945 3 3.21513e-06 -4.12127
6752 1 61.8208 12.1759 13.9914 3 1.80395e-06 -4.12124
6753 1 60.997 12.1757 11.6611 3 2.16766e-06 -4.12125
6754 1 63.4685 12.176 11.6579 3 1.39442e-06 -4.12123
6755 1 62.6447 12.176 9.32761 3 1.54489e-06 -4.12124
6756 1 37.9266 10.1013 47.7931 3 3.23597e-05 -4.12232
6757 1 40.4014 10.1084 47.795 3 3.64192e-05 -4.12229
6758 1 39.5766 10.106 45.4629 3 3.56475e-05 -4.12231
6759 1 42.0503 10.1133 45.4653 3 3.59659e-05 -4.12223
6760 1 41.2259 10.1109 43.1331 3 3.64632e-05 -4.12226
6761 1 43.6985 10.1177 43.1355 3 3.34479e-05 -4.12212
6762 1 42.8745 10.1155 40.8033 3 3.49544e-05 -4.12218
6763 1 45.3464 10.1216 40.8055 3 2.94988e-05 -4.122
6764 1 44.5225 10.1197 38.4735 3 3.15915e-05 -4.12206
6765 1 46.9939 10.125 38.4752 3 2.48652e-05 -4.12186
6766 1 46.1702 10.1234 36.1433 3 2.72156e-05 -4.12193
6767 1 48.6413 10.1277 36.1444 3 2.02669e-05 -4.12173
6768 1 47.8176 10.1264 33.8128 3 2.25344e-05 -4.1218
6769 1 50.2886 10.1299 33.8133 3 1.60209e-05 -4.12162
6770 1 49.4649 10.1289 31.4818 3 1.80734e-05 -4.12167
6771 1 51.9359 10.1317 31.4817 3 1.23825e-05 -4.12152
6772 1 51.1122 10.1309 29.1505 3 1.41216e-05 -4.12157
6773 1 53.5832 10.1331 29.1499 3 9.30771e-06 -4.12144
6774 1 52.7595 10.1324 26.8188 3 1.07709e-05 -4.12148
6775 1 55.2306 10.1341 26.8177 3 6.83214e-06 -4.12137
6776 1 54.4069 10.1336 24.4868 3 8.00336e-06 -4.1214
6777 1 56.8781 10.1349 24.4854 3 4.85968e-06 -4.12132
6778 1 56.0543 10.1346 22.1545 3 5.78122e-06 -4.12135
6779 1 58.5256 10.1355 22.1528 3 3.34687e-06 -4.12129
6780 1 57.7018 10.1353 19.8221 3 4.052e-06 -4.12131
6781 1 60.1732 10.136 19.8201 3 2.24957e-06 -4.12126
6782 1 59.3494 10.1358 17.4894 3 2.74922e-06 -4.12127
6783 1 61.8209 10.1362 17.4874 3 1.53108e-06 -4.12125
6784 1 60.997 10.1361 15.1567 3 1.8446e-06 -4.12125
6785 1 63.4685 10.1364 15.1546 3 1.17498e-06 -4.12124
6786 1 62.6447 10.1363 12.8239 3 1.30774e-06 -4.12124
6787 1 41.2214 8.08392 46.6284 3 4.54804e-05 -4.12266
6788 1 43.6942 8.08717 46.6296 3 4.30692e-05 -4.12264
6789 1 42.87 8.08613 44.2979 3 4.47111e-05 -4.12265
6790 1 45.3423 8.08907 44.299 3 3.79166e-05 -4.12261
6791 1 44.5182 8.08815 41.9673 3 4.07387e-05 -4.12263
6792 1 46.9902 8.09072 41.9682 3 3.15332e-05 -4.12255
6793 1 46.1662 8.08993 39.6366 3 3.48085e-05 -4.12258
6794 1 48.6379 8.0921 39.6372 3 2.50478e-05 -4.1225
6795 1 47.8141 8.09145 37.3057 3 2.82377e-05 -4.12253
6796 1 50.2857 8.09323 37.306 3 1.91851e-05 -4.12245
6797 1 49.4618 8.0927 34.9746 3 2.20015e-05 -4.12247
6798 1 51.9334 8.09415 34.9746 3 1.42821e-05 -4.1224
6799 1 51.1095 8.09372 32.6433 3 1.66182e-05 -4.12242
6800 1 53.5811 8.09487 32.643 3 1.03948e-05 -4.12236
6801 1 52.7572 8.09453 30.3118 3 1.22123e-05 -4.12238
6802 1 55.2289 8.09543 30.3113 3 7.39866e-06 -4.12233
6803 1 54.405 8.09517 27.9801 3 8.78578e-06 -4.12235
6804 1 56.8767 8.09587 27.9794 3 5.17388e-06 -4.12231
6805 1 56.0528 8.09567 25.6483 3 6.20256e-06 -4.12232
6806 1 58.5246 8.09619 25.6475 3 3.58431e-06 -4.12229
6807 1 57.7006 8.09604 23.3164 3 4.31279e-06 -4.1223
6808 1 60.1725 8.09642 23.3154 3 2.50178e-06 -4.12228
6809 1 59.3485 8.09632 20.9844 3 2.9817e-06 -4.12229
6810 1 61.8204 8.09656 20.9834 3 1.82514e-06 -4.12227
6811 1 60.9965 8.0965 18.6524 3 2.11595e-06 -4.12228
6812 1 63.4684 8.09664 18.6513 3 1.50246e-06 -4.12227
6813 1 62.6444 8.09661 16.3203 3 1.6245e-06 -4.12227
6814 1 42.8616 6.05706 47.7929 3 0.000351215 -4.12219
6815 1 45.3344 6.05706 47.7929 3 0.000480835 -4.12222
6816 1 44.5101 6.05706 45.4616 3 0.000438416 -4.12221
6817 1 46.9829 6.05706 45.4616 3 0.000560309 -4.12222
6818 1 46.1586 6.05706 43.1302 3 0.000521624 -4.12222
6819 1 48.6314 6.05706 43.1302 3 0.000629864 -4.12221
6820 1 47.8072 6.05706 40.7989 3 0.000596471 -4.12222
6821 1 50.2799 6.05706 40.7989 3 0.000687853 -4.1222
6822 1 49.4557 6.05706 38.4675 3 0.000660325 -4.1222
6823 1 51.9285 6.05706 38.4675 3 0.000734204 -4.12218
6824 1 51.1042 6.05706 36.1361 3 0.000712434 -4.12219
6825 1 53.577 6.05706 36.1361 3 0.000769854 -4.12216
6826 1 52.7527 6.05706 33.8048 3 0.000753276 -4.12217
6827 1 55.2255 6.05706 33.8048 3 0.000796409 -4.12214
6828 1 54.4012 6.05706 31.4734 3 0.00078416 -4.12215
6829 1 56.874 6.05706 31.4734 3 0.000815526 -4.12212
6830 1 56.0498 6.05706 29.142 3 0.000806795 -4.12213
6831 1 58.5226 6.05706 29.142 3 0.00082881 -4.1221
6832 1 57.6983 6.05706 26.8107 3 0.0008228 -4.12211
6833 1 60.1711 6.05706 26.8107 3 0.000837583 -4.12209
6834 1 59.3468 6.05706 24.4793 3 0.00083369 -4.1221
6835 1 61.8196 6.05706 24.4793 3 0.000842842 -4.12208
6836 1 60.9953 6.05706 22.1479 3 0.000840622 -4.12209
6837 1 63.4681 6.05706 22.1479 3 0.000845304 -4.12208
6838 1 62.6439 6.05706 19.8166 3 0.000844393 -4.12208
6839 1 46.1586 4.03804 46.6273 3 1.0169e-16 -4.12172
6840 1 48.6314 4.03804 46.6273 3 1.0169e-16 -4.12161
6841 1 47.8072 4.03804 44.2959 3 3.99999e-16 -4.12165
6842 1 50.2799 4.03804 44.2959 3 2.01948e-28 -4.12156
6843 1 49.4557 4.03804 41.9645 3 9.99999e-17 -4.12158
6844 1 51.9285 4.03804 41.9645 3 1e-16 -4.12151
6845 1 51.1042 4.03804 39.6332 3 9.99999e-17 -4.12153
6846 1 53.577 4.03804 39.6332 3 3.99999e-16 -4.12147
6847 1 52.7527 4.03804 37.3018 3 4.00001e-16 -4.12149
6848 1 55.2255 4.03804 37.3018 3 1e-16 -4.12144
6849 1 54.4012 4.03804 34.9704 3 1e-16 -4.12146
6850 1 56.874 4.03804 34.9704 3 2.01948e-28 -4.12142
6851 1 56.0498 4.03804 32.6391 3 2.01948e-28 -4.12143
6852 1 58.5226 4.03804 32.6391 3 9.99999e-17 -4.1214
6853 1 57.6983 4.03804 30.3077 3 1e-16 -4.12141
6854 1 60.1711 4.03804 30.3077 3 3.99999e-16 -4.12139
6855 1 59.3468 4.03804 27.9764 3 3.99999e-16 -4.1214
6856 1 61.8196 4.03804 27.9764 3 5.77599e-17 -4.12138
6857 1 60.9953 4.03804 25.645 3 9.99999e-17 -4.12139
6858 1 63.4681 4.03804 25.645 3 2.304e-17 -4.12138
6859 1 62.6439 4.03804 23.3136 3 5.76e-18 -4.12138
6860 1 47.8072 2.01902 47.7929 3 4.05069e-16 -4.10627
6861 1 50.2799 2.01902 47.7929 3 5.06996e-18 -4.10627
6862 1 49.4557 2.01902 45.4616 3 9.99999e-17 -4.10627
6863 1 51.9285 2.01902 45.4616 3 1e-16 -4.10627
6864 1 51.1042 2.01902 43.1302 3 9.99999e-17 -4.10627
6865 1 53.577 2.01902 43.1302 3 3.99999e-16 -4.10627
6866 1 52.7527 2.01902 40.7989 3 4.00001e-16 -4.10627
6867 1 55.2255 2.01902 40.7989 3 1e-16 -4.10627
6868 1 54.4012 2.01902 38.4675 3 1e-16 -4.10627
6869 1 56.874 2.01902 38.4675 3 0 -4.10627
6870 1 56.0498 2.01902 36.1361 3 6.05845e-28 -4.10627
6871 1 58.5226 2.01902 36.1361 3 9.99999e-17 -4.10627
6872 1 57.6983 2.01902 33.8048 3 1e-16 -4.10627
6873 1 60.1711 2.01902 33.8048 3 3.99999e-16 -4.10627
6874 1 59.3468 2.01902 31.4734 3 3.99999e-16 -4.10627
6875 1 61.8196 2.01902 31.4734 3 5.77599e-17 -4.10627
6876 1 60.9953 2.01902 29.142 3 9.99999e-17 -4.10627
6877 1 63.4681 2.01902 29.142 3 2.304e-17 -4.10627
6878 1 62.6439 2.01902 26.8107 3 5.76e-18 -4.10627
6879 1 51.1042 0 46.6273 5 12.2293 -3.54465
6880 1 53.577 0 46.6273 5 12.2293 -3.54465
6881 1 52.7527 0 44.2959 5 12.2293 -3.54465
6882 1 55.2255 0 44.2959 5 12.2293 -3.54465
6883 1 54.4012 0 41.9645 5 12.2293 -3.54465
6884 1 56.874 0 41.9645 5 12.2293 -3.54465
6885 1 56.0498 0 39.6332 5 12.2293 -3.54465
6886 1 58.5226 0 39.6332 5 12.2293 -3.54465
6887 1 57.6983 0 37.3018 5 12.2293 -3.54465
6888 1 60.1711 0 37.3018 5 12.2293 -3.54465
6889 1 59.3468 0 34.9704 5 12.2293 -3.54465
6890 1 61.8196 0 34.9704 5 12.2293 -3.54465
6891 1 60.9953 0 32.6391 5 12.2293 -3.54465
6892 1 63.4681 0 32.6391 5 12.2293 -3.54465
6893 1 62.6439 0 30.3077 5 12.2293 -3.54465
6894 1 18.378 30.4709 47.7594 3 0.00115263 -4.11545
6895 1 20.8736 30.4599 47.7483 3 0.00325419 -4.11174
6896 1 20.0425 30.4641 45.4212 3 0.00225363 -4.11327
6897 1 22.5319 30.4496 45.4058 3 0.00806511 -4.10618
6898 1 21.7047 30.455 43.0804 3 0.00467582 -4.10997
6899 1 24.1862 30.4356 43.058 3 0.0215462 -4.09544
6900 1 23.3589 30.4432 40.7362 3 0.0130334 -4.10166
6901 1 25.8204 30.414 40.6983 3 0.0954364 -4.05808
6902 1 25.0033 30.4266 38.3835 3 0.0487191 -4.07866
6903 1 27.4243 30.3474 38.3089 3 5.11537 -4.00147
6904 1 26.6376 30.3951 36.0099 3 0.167103 -4.03237
6905 1 29.0294 30.3016 35.9321 5 4.50623 -3.98757
6906 1 28.2191 30.3187 33.6157 5 4.75702 -3.99009
6907 1 30.6006 30.2568 33.6424 5 3.81688 -3.93471
6908 1 29.8153 30.2835 31.2793 5 4.18412 -3.97113
6909 1 32.1462 30.2028 31.4734 5 3.25055 -3.87684
6910 1 31.4004 30.2303 29.0397 5 3.42045 -3.89887
6911 1 33.6918 30.2568 29.3044 5 3.81688 -3.93471
6912 1 32.892 30.2303 26.913 5 3.42045 -3.89887
6913 1 35.263 30.3016 27.0147 5 4.50623 -3.98757
6914 1 34.4771 30.2835 24.6734 5 4.18412 -3.97113
6915 1 36.868 30.3474 24.6379 3 5.11537 -4.00147
6916 1 36.0733 30.3187 22.337 5 4.75702 -3.99009
6917 1 38.472 30.414 22.2485 3 0.0954364 -4.05808
6918 1 37.6547 30.3951 19.9428 3 0.167103 -4.03237
6919 1 40.1062 30.4356 19.8888 3 0.0215462 -4.09544
6920 1 39.2891 30.4266 17.5692 3 0.0487191 -4.07866
6921 1 41.7604 30.4496 17.541 3 0.00806511 -4.10618
6922 1 40.9335 30.4432 15.2166 3 0.0130334 -4.10166
6923 1 43.4188 30.4599 15.1985 3 0.00325419 -4.11174
6924 1 42.5877 30.455 12.8723 3 0.00467582 -4.10997
6925 1 45.0814 30.4677 12.8593 3 0.00152376 -4.11468
6926 1 44.2499 30.4641 10.5316 3 0.00225363 -4.11327
6927 1 46.7476 30.4737 10.5218 3 0.000873927 -4.11615
6928 1 45.9144 30.4709 8.19328 3 0.00115263 -4.11545
6929 1 48.4152 30.478 8.18563 3 0.000536516 -4.11718
6930 1 47.581 30.476 5.85658 3 0.000663448 -4.11678
6931 1 50.0841 30.481 5.85026 3 0.000360429 -4.11788
6932 1 49.2495 30.4796 3.52083 3 0.00043741 -4.11755
6933 1 51.7541 30.483 3.51544 3 0.000264672 -4.11835
6934 1 50.919 30.4821 1.18575 3 0.000307261 -4.11813
6935 1 53.4247 30.4843 1.18103 3 0.000205009 -4.11871
6936 1 21.5969 28.4237 46.5592 3 0.00380236 -4.11608
6937 1 24.0575 28.3979 46.5384 3 0.00848892 -4.1156
6938 1 23.2399 28.4085 44.2145 3 0.00657172 -4.11542
6939 1 25.6893 28.3672 44.1901 3 0.0118046 -4.12298
6940 1 24.875 28.3848 41.8674 3 0.0101215 -4.1172
6941 1 27.3116 28.3192 41.8485 3 0.0126047 -4.12069
6942 1 26.4984 28.342 39.5228 3 0.0117188 -4.12211
6943 1 28.9306 28.2612 39.5151 3 0.0139267 -4.11512
6944 1 28.1253 28.2912 37.1796 3 0.0108747 -4.11667
6945 1 30.543 28.2101 37.2253 3 0.0163236 -4.11343
6946 1 29.7378 28.2337 34.8675 3 0.0161729 -4.11454
6947 1 32.1462 28.1701 34.9704 3 0.0485463 -4.09016
6948 1 31.3394 28.1809 32.6019 3 0.0322406 -4.09783
6949 1 33.7494 28.2101 32.7156 3 0.0163236 -4.11343
6950 1 32.9529 28.1809 30.3449 3 0.0322406 -4.09783
6951 1 35.3618 28.2612 30.4258 3 0.0139267 -4.11512
6952 1 34.5546 28.2337 28.0793 3 0.0161729 -4.11454
6953 1 36.9807 28.3192 28.0924 3 0.0126047 -4.12069
6954 1 36.1671 28.2912 25.7672 3 0.0108747 -4.11667
6955 1 38.6031 28.3672 25.7508 3 0.0118046 -4.12298
6956 1 37.794 28.342 23.424 3 0.0117188 -4.12211
6957 1 40.2349 28.3979 23.4025 3 0.00848892 -4.1156
6958 1 39.4174 28.3848 21.0794 3 0.0101215 -4.1172
6959 1 41.8729 28.4167 21.0566 3 0.00483509 -4.11549
6960 1 41.0525 28.4085 18.7323 3 0.00657172 -4.11542
6961 1 43.5187 28.4297 18.7135 3 0.00297164 -4.11672
6962 1 42.6955 28.4237 16.3876 3 0.00380236 -4.11608
6963 1 45.1697 28.4391 16.3725 3 0.00177465 -4.11755
6964 1 44.3435 28.4347 14.0457 3 0.00224084 -4.11713
6965 1 46.8241 28.4459 14.0333 3 0.00108856 -4.11827
6966 1 45.9964 28.4428 11.7057 3 0.00140198 -4.11796
6967 1 48.4817 28.4509 11.6953 3 0.00070721 -4.1188
6968 1 47.6526 28.4486 9.3671 3 0.000876386 -4.11854
6969 1 50.1415 28.4544 9.35821 3 0.000468853 -4.11918
6970 1 49.3113 28.4528 7.02961 3 0.000568438 -4.119
6971 1 51.8031 28.4568 7.02183 3 0.000324049 -4.1195
6972 1 50.9721 28.4557 4.6929 3 0.000389026 -4.11935
6973 1 53.4661 28.4583 4.68596 3 0.000235341 -4.11973
6974 1 52.6344 28.4577 2.35679 3 0.000274991 -4.11962
6975 1 55.1301 28.4593 2.35048 3 0.000177766 -4.11992
6976 1 54.298 28.4589 0.0211347 3 0.000203071 -4.11983
6977 1 56.795 28.4599 0.015299 3 0.000140466 -4.12007
6978 1 23.169 26.3679 47.7155 3 0.00221009 -4.12044
6979 1 25.6217 26.3231 47.7102 3 0.00253655 -4.12157
6980 1 24.8057 26.3415 45.379 3 0.00249975 -4.12221
6981 1 27.2545 26.2828 45.3805 3 0.00270402 -4.12349
6982 1 26.4385 26.3041 43.0475 3 0.00259635 -4.12219
6983 1 28.8844 26.2327 43.0627 3 0.00356947 -4.12193
6984 1 28.0687 26.2585 40.7233 3 0.00322313 -4.12373
6985 1 30.5129 26.1844 40.7619 3 0.00816207 -4.11663
6986 1 29.6995 26.2083 38.4123 3 0.00443349 -4.12078
6987 1 32.1462 26.1677 38.4675 3 0.0089096 -4.11296
6988 1 31.3291 26.1714 36.118 3 0.00960164 -4.11429
6989 1 33.7795 26.1844 36.1731 3 0.00816207 -4.11663
6990 1 32.9633 26.1714 33.8229 3 0.00960164 -4.11429
6991 1 35.4079 26.2327 33.8723 3 0.00356947 -4.12193
6992 1 34.5928 26.2083 31.5286 3 0.00443349 -4.12078
6993 1 37.0379 26.2828 31.5545 3 0.00270402 -4.12349
6994 1 36.2237 26.2585 29.2176 3 0.00322313 -4.12373
6995 1 38.6707 26.3231 29.2248 3 0.00253655 -4.12157
6996 1 37.8538 26.3041 26.8934 3 0.00259635 -4.12219
6997 1 40.3044 26.356 26.8912 3 0.00242576 -4.12132
6998 1 39.4867 26.3415 24.5619 3 0.00249975 -4.12221
6999 1 41.943 26.378 24.5533 3 0.00186971 -4.12017
7000 1 41.1234 26.3679 22.2254 3 0.00221009 -4.12044
7001 1 43.5858 26.3934 22.2143 3 0.00138945 -4.11976
7002 1 42.7639 26.3863 19.8868 3 0.00161523 -4.11988
7003 1 45.2321 26.4047 19.8753 3 0.00102489 -4.11984
7004 1 44.4085 26.3995 17.5477 3 0.00119292 -4.11984
7005 1 46.8814 26.4129 17.5369 3 0.000743912 -4.11996
7006 1 46.0564 26.4091 15.209 3 0.000872325 -4.11987
7007 1 48.5333 26.4189 15.199 3 0.000535789 -4.12007
7008 1 47.7071 26.4161 12.8708 3 0.000632901 -4.12001
7009 1 50.1874 26.4232 12.8616 3 0.000387257 -4.12021
7010 1 49.3601 26.4212 10.5332 3 0.000455557 -4.12015
7011 1 51.8432 26.4263 10.5247 3 0.000280837 -4.12034
7012 1 51.0151 26.4249 8.19609 3 0.000328903 -4.12028
7013 1 53.5005 26.4283 8.18821 3 0.000205992 -4.12045
7014 1 52.6717 26.4274 5.85939 3 0.000240231 -4.1204
7015 1 55.159 26.4297 5.852 3 0.000154012 -4.12056
7016 1 54.3296 26.4291 3.52303 3 0.000177741 -4.12051
7017 1 56.8184 26.4306 3.51604 3 0.000117893 -4.12064
7018 1 55.9886 26.4302 1.18695 3 0.000134239 -4.1206
7019 1 58.4786 26.4311 1.18027 3 9.31828e-05 -4.12071
7020 1 26.4042 24.2694 46.5696 3 0.000890561 -4.12299
7021 1 28.8614 24.2108 46.5888 3 0.00127742 -4.12238
7022 1 28.042 24.2304 44.2497 3 0.00103223 -4.12292
7023 1 30.5022 24.1766 44.2762 3 0.00310541 -4.11892
7024 1 29.6811 24.1912 41.9354 3 0.00230359 -4.1201
7025 1 32.1462 24.1639 41.9645 3 0.00353295 -4.11927
7026 1 31.3242 24.1672 39.623 3 0.00347281 -4.11881
7027 1 33.7902 24.1766 39.6529 3 0.00310541 -4.11892
7028 1 32.9682 24.1672 37.312 3 0.00347281 -4.11881
7029 1 35.4309 24.2108 37.3403 3 0.00127742 -4.12238
7030 1 34.6113 24.1912 34.9996 3 0.00230359 -4.1201
7031 1 37.0696 24.2502 35.0231 3 0.000954188 -4.12313
7032 1 36.2504 24.2304 32.6853 3 0.00103223 -4.12292
7033 1 38.7073 24.2866 32.6999 3 0.000942039 -4.12252
7034 1 37.8882 24.2694 30.3653 3 0.000890561 -4.12299
7035 1 40.3459 24.3164 30.3721 3 0.000884572 -4.12224
7036 1 39.5267 24.302 28.0393 3 0.000915784 -4.12218
7037 1 41.9866 24.339 28.0403 3 0.000793814 -4.12154
7038 1 41.1659 24.3286 25.7096 3 0.000852825 -4.12188
7039 1 43.6293 24.3557 25.7059 3 0.000623091 -4.12114
7040 1 42.8076 24.348 23.3763 3 0.000697935 -4.12134
7041 1 45.2745 24.368 23.3701 3 0.00049893 -4.12096
7042 1 44.4517 24.3623 21.041 3 0.000559055 -4.12101
7043 1 46.9217 24.3772 21.0337 3 0.000400063 -4.12086
7044 1 46.0979 24.373 18.7049 3 0.000447393 -4.12091
7045 1 48.5708 24.3841 18.6971 3 0.000315312 -4.12084
7046 1 47.7461 24.3809 16.3683 3 0.00035533 -4.12085
7047 1 50.2216 24.3891 16.3604 3 0.000245271 -4.12085
7048 1 49.396 24.3868 14.0317 3 0.000278721 -4.12084
7049 1 51.8738 24.3927 14.0239 3 0.000188817 -4.12087
7050 1 51.0475 24.391 11.6951 3 0.000215508 -4.12085
7051 1 53.5272 24.3953 11.6874 3 0.000144175 -4.1209
7052 1 52.7004 24.3941 9.35858 3 0.000165048 -4.12088
7053 1 55.1817 24.3971 9.35111 3 0.000109773 -4.12094
7054 1 54.3544 24.3963 7.02221 3 0.000125794 -4.12092
7055 1 56.8371 24.3983 7.01491 3 8.38841e-05 -4.12097
7056 1 56.0093 24.3978 4.68595 3 9.58963e-05 -4.12096
7057 1 58.4931 24.3991 4.67882 3 6.50271e-05 -4.12101
7058 1 57.665 24.3987 2.34981 3 7.36744e-05 -4.12099
7059 1 60.1497 24.3996 2.3428 3 5.19585e-05 -4.12103
7060 1 59.3213 24.3994 0.0137541 3 5.7818e-05 -4.12102
7061 1 61.8066 24.3999 0.00683887 3 4.36992e-05 -4.12105
7062 1 28.0278 22.2077 47.7651 3 0.000487495 -4.12235
7063 1 30.4971 22.169 47.7822 3 0.00130375 -4.12073
7064 1 29.6732 22.1794 45.4454 3 0.00104397 -4.12115
7065 1 32.1462 22.1599 45.4616 3 0.00169982 -4.12037
7066 1 31.3214 22.1623 43.1249 3 0.00155395 -4.12055
7067 1 33.7953 22.169 43.141 3 0.00130375 -4.12073
7068 1 32.971 22.1623 40.8042 3 0.00155395 -4.12055
7069 1 35.4424 22.1924 40.8208 3 0.000773009 -4.12162
7070 1 34.6192 22.1794 38.4837 3 0.00104397 -4.12115
7071 1 37.0864 22.2233 38.5007 3 0.000407281 -4.12259
7072 1 36.2646 22.2077 36.164 3 0.000487495 -4.12235
7073 1 38.7289 22.2537 36.1784 3 0.000376991 -4.12269
7074 1 37.9079 22.2388 33.8428 3 0.000390738 -4.12272
7075 1 40.3713 22.28 33.8528 3 0.000399913 -4.12228
7076 1 39.5501 22.2675 31.5189 3 0.000400036 -4.12247
7077 1 42.0139 22.3016 31.5244 3 0.000368054 -4.12203
7078 1 41.1924 22.2915 29.1919 3 0.000385065 -4.12223
7079 1 43.6578 22.3183 29.1933 3 0.000309049 -4.1217
7080 1 42.8357 22.3105 26.862 3 0.000344028 -4.12184
7081 1 45.3029 22.3309 26.8602 3 0.000252583 -4.12146
7082 1 44.4802 22.325 24.5299 3 0.000278697 -4.12156
7083 1 46.9494 22.3405 24.526 3 0.000207491 -4.12133
7084 1 46.126 22.3361 22.1962 3 0.000228489 -4.12139
7085 1 48.5972 22.3478 22.191 3 0.000170843 -4.12124
7086 1 47.7732 22.3444 19.8616 3 0.000188621 -4.12127
7087 1 50.2461 22.3532 19.8556 3 0.000139139 -4.12119
7088 1 49.4215 22.3507 17.5263 3 0.000154376 -4.12121
7089 1 51.8961 22.3572 17.5199 3 0.000111557 -4.12116
7090 1 51.071 22.3554 15.1907 3 0.000124819 -4.12117
7091 1 53.547 22.3602 15.184 3 8.81848e-05 -4.12115
7092 1 52.7214 22.3588 12.8549 3 9.93764e-05 -4.12115
7093 1 55.1988 22.3623 12.8481 3 6.86729e-05 -4.12115
7094 1 54.3728 22.3613 10.519 3 7.79472e-05 -4.12115
7095 1 56.8512 22.3637 10.5121 3 5.29814e-05 -4.12115
7096 1 56.0249 22.3631 8.18302 3 6.03627e-05 -4.12115
7097 1 58.5042 22.3647 8.17605 3 4.08571e-05 -4.12116
7098 1 57.6776 22.3643 5.84702 3 4.64865e-05 -4.12116
7099 1 60.1577 22.3654 5.84004 3 3.19742e-05 -4.12117
7100 1 59.3309 22.3651 3.511 3 3.60295e-05 -4.12116
7101 1 61.8114 22.3658 3.50402 3 2.6215e-05 -4.12118
7102 1 60.9845 22.3656 1.17498 3 2.87085e-05 -4.12117
7103 1 63.4654 22.3659 1.16801 3 2.33734e-05 -4.12118
7104 1 31.3203 20.1554 46.6245 3 0.000753447 -4.12126
7105 1 33.7979 20.1601 46.633 3 0.000651847 -4.12146
7106 1 32.9721 20.1554 44.2987 3 0.000753447 -4.12126
7107 1 35.4479 20.1769 44.3085 3 0.000414603 -4.1218
7108 1 34.6231 20.1674 41.9736 3 0.000529118 -4.12161
7109 1 37.0957 20.1999 41.9849 3 0.000227087 -4.12234
7110 1 36.2721 20.1879 39.6495 3 0.000315416 -4.12203
7111 1 38.7416 20.2244 39.6611 3 0.000190202 -4.12249
7112 1 37.9188 20.2123 37.3261 3 0.000196318 -4.12245
7113 1 40.3865 20.247 37.3359 3 0.000195126 -4.12237
7114 1 39.5641 20.2361 35.0017 3 0.000187607 -4.12248
7115 1 42.0312 20.2663 35.0088 3 0.000189371 -4.12217
7116 1 41.2089 20.2571 32.6755 3 0.000195796 -4.12225
7117 1 43.6763 20.2819 32.6796 3 0.000168778 -4.12192
7118 1 42.8537 20.2746 30.3474 3 0.000180503 -4.12205
7119 1 45.3219 20.2942 30.3485 3 0.000139213 -4.12171
7120 1 44.499 20.2884 28.0172 3 0.000153538 -4.12181
7121 1 46.9682 20.3036 28.0161 3 0.000114314 -4.12156
7122 1 46.1449 20.2992 25.6854 3 0.000126253 -4.12162
7123 1 48.6154 20.3109 25.6827 3 9.4415e-05 -4.12145
7124 1 47.7917 20.3075 23.3525 3 0.000103818 -4.1215
7125 1 50.2633 20.3164 23.3485 3 7.78494e-05 -4.12137
7126 1 49.4392 20.3138 21.0186 3 8.58048e-05 -4.1214
7127 1 51.9119 20.3205 21.0138 3 6.35758e-05 -4.12131
7128 1 51.0875 20.3186 18.6841 3 7.04686e-05 -4.12134
7129 1 53.5612 20.3236 18.6787 3 5.11013e-05 -4.12128
7130 1 52.7365 20.3222 16.3492 3 5.71186e-05 -4.12129
7131 1 55.2111 20.3259 16.3434 3 4.03573e-05 -4.12125
7132 1 54.3861 20.3248 14.014 3 4.55093e-05 -4.12126
7133 1 56.8615 20.3275 14.0079 3 3.13502e-05 -4.12124
7134 1 56.0362 20.3268 11.6786 3 3.5656e-05 -4.12125
7135 1 58.5124 20.3286 11.6722 3 2.40917e-05 -4.12123
7136 1 57.6869 20.3281 9.34303 3 2.74791e-05 -4.12124
7137 1 60.1635 20.3294 9.33653 3 1.86231e-05 -4.12123
7138 1 59.3379 20.329 7.00735 3 2.11354e-05 -4.12123
7139 1 61.815 20.3298 7.00075 3 1.49752e-05 -4.12123
7140 1 60.9892 20.3296 4.6716 3 1.6574e-05 -4.12123
7141 1 63.4666 20.3301 4.66495 3 1.31439e-05 -4.12123
7142 1 62.6408 20.33 2.33581 3 1.38356e-05 -4.12123
7143 1 32.9727 18.1464 47.7943 3 0.000368049 -4.1217
7144 1 35.4506 18.1616 47.7997 3 0.000235322 -4.12196
7145 1 34.625 18.1548 45.4663 3 0.000289045 -4.12185
7146 1 37.1006 18.1787 45.4734 3 0.000151304 -4.1222
7147 1 36.2758 18.1698 43.1394 3 0.000188657 -4.12208
7148 1 38.7488 18.1979 43.1478 3 0.00010988 -4.12237
7149 1 37.9249 18.1883 40.8136 3 0.000121646 -4.12232
7150 1 40.3957 18.2165 40.8219 3 0.00010563 -4.12236
7151 1 39.5724 18.2074 38.4879 3 0.00010684 -4.12238
7152 1 42.042 18.233 38.4949 3 0.000106757 -4.1222
7153 1 41.2189 18.2251 36.1615 3 0.000107346 -4.12228
7154 1 43.688 18.2469 36.1665 3 9.79354e-05 -4.12203
7155 1 42.865 18.2403 33.8338 3 0.000103086 -4.12212
7156 1 45.3342 18.2581 33.8367 3 8.36506e-05 -4.12184
7157 1 44.5111 18.2528 31.5047 3 9.14508e-05 -4.12193
7158 1 46.9807 18.2669 31.5055 3 6.88321e-05 -4.12169
7159 1 46.1574 18.2628 29.1742 3 7.59839e-05 -4.12176
7160 1 48.6276 18.2738 29.1733 3 5.62216e-05 -4.12156
7161 1 47.8041 18.2706 26.8425 3 6.21674e-05 -4.12162
7162 1 50.275 18.2791 26.8402 3 4.59492e-05 -4.12147
7163 1 49.4512 18.2766 24.5098 3 5.08623e-05 -4.12151
7164 1 51.9228 18.2831 24.5065 3 3.74029e-05 -4.1214
7165 1 51.0988 18.2813 22.1764 3 4.14974e-05 -4.12143
7166 1 53.571 18.2862 22.1723 3 3.00528e-05 -4.12135
7167 1 52.7469 18.2848 19.8424 3 3.35796e-05 -4.12137
7168 1 55.2197 18.2884 19.8377 3 2.37711e-05 -4.12131
7169 1 54.3953 18.2874 17.508 3 2.67886e-05 -4.12133
7170 1 56.8688 18.2901 17.5028 3 1.84107e-05 -4.12128
7171 1 56.0442 18.2893 15.1732 3 2.09722e-05 -4.12129
7172 1 58.5181 18.2913 15.1677 3 1.40407e-05 -4.12126
7173 1 57.6934 18.2907 12.8382 3 1.61087e-05 -4.12127
7174 1 60.1677 18.2921 12.8325 3 1.06657e-05 -4.12125
7175 1 59.3429 18.2917 10.5031 3 1.22128e-05 -4.12126
7176 1 61.8175 18.2925 10.4972 3 8.38125e-06 -4.12124
7177 1 60.9926 18.2923 8.16779 3 9.39266e-06 -4.12125
7178 1 63.4674 18.2928 8.16179 3 7.23823e-06 -4.12124
7179 1 62.6425 18.2927 5.83244 3 7.66159e-06 -4.12124
7180 1 36.2776 16.152 46.6319 3 0.000115383 -4.12214
7181 1 38.7525 16.1732 46.6376 3 7.42338e-05 -4.12231
7182 1 37.9279 16.1658 44.3042 3 8.44593e-05 -4.12226
7183 1 40.4009 16.1879 44.3106 3 6.79042e-05 -4.12231
7184 1 39.5768 16.1806 41.9771 3 6.95989e-05 -4.12233
7185 1 42.0483 16.2014 41.9831 3 6.61208e-05 -4.12222
7186 1 41.2247 16.1948 39.6499 3 6.66786e-05 -4.12228
7187 1 43.6952 16.2131 39.6548 3 6.19556e-05 -4.12208
7188 1 42.8718 16.2075 37.3221 3 6.4717e-05 -4.12215
7189 1 45.3419 16.2229 37.3255 3 5.43021e-05 -4.12192
7190 1 44.5186 16.2182 34.9933 3 5.84032e-05 -4.122
7191 1 46.9887 16.2307 34.9951 3 4.51344e-05 -4.12177
7192 1 46.1653 16.227 32.6634 3 4.97277e-05 -4.12184
7193 1 48.6355 16.2369 32.6638 3 3.6764e-05 -4.12164
7194 1 47.8121 16.234 30.3325 3 4.08175e-05 -4.1217
7195 1 50.2826 16.2417 30.3316 3 2.96514e-05 -4.12153
7196 1 49.459 16.2394 28.0007 3 3.3033e-05 -4.12158
7197 1 51.93 16.2454 27.9987 3 2.38271e-05 -4.12145
7198 1 51.1063 16.2436 25.6681 3 2.66114e-05 -4.12149
7199 1 53.5776 16.2482 25.6652 3 1.89217e-05 -4.12139
7200 1 52.7537 16.2469 23.335 3 2.12736e-05 -4.12142
7201 1 55.2255 16.2503 23.3314 3 1.47552e-05 -4.12134
7202 1 54.4015 16.2493 21.0013 3 1.67508e-05 -4.12136
7203 1 56.8736 16.2519 20.9972 3 1.12736e-05 -4.1213
7204 1 56.0495 16.2512 18.6673 3 1.29271e-05 -4.12132
7205 1 58.522 16.253 18.6627 3 8.44024e-06 -4.12128
7206 1 57.6978 16.2525 16.3329 3 9.78719e-06 -4.12129
7207 1 60.1705 16.2538 16.3281 3 6.22844e-06 -4.12126
7208 1 59.3463 16.2534 13.9984 3 7.24539e-06 -4.12126
7209 1 61.8192 16.2543 13.9934 3 4.73587e-06 -4.12125
7210 1 60.9949 16.254 11.6637 3 5.3944e-06 -4.12125
7211 1 63.468 16.2545 11.6586 3 3.9781e-06 -4.12124
7212 1 62.6436 16.2544 9.32892 3 4.25859e-06 -4.12124
7213 1 37.929 14.1441 47.797 3 5.86761e-05 -4.12227
7214 1 40.4032 14.1607 47.8016 3 4.93307e-05 -4.12229
7215 1 39.5787 14.1551 45.4686 3 5.12515e-05 -4.1223
7216 1 42.0514 14.1712 45.4734 3 4.67426e-05 -4.12223
7217 1 41.2274 14.166 43.1405 3 4.80863e-05 -4.12227
7218 1 43.699 14.1805 43.1449 3 4.35488e-05 -4.1221
7219 1 42.8753 14.176 40.8122 3 4.5344e-05 -4.12217
7220 1 45.3462 14.1884 40.8156 3 3.83868e-05 -4.12196
7221 1 44.5226 14.1846 38.4833 3 4.11553e-05 -4.12204
7222 1 46.9932 14.1949 38.4855 3 3.23328e-05 -4.12182
7223 1 46.1697 14.1918 36.1536 3 3.54186e-05 -4.12189
7224 1 48.6401 14.2001 36.1547 3 2.63636e-05 -4.12169
7225 1 47.8167 14.1977 33.8231 3 2.92764e-05 -4.12175
7226 1 50.2871 14.2042 33.8231 3 2.11522e-05 -4.12158
7227 1 49.4636 14.2023 31.4919 3 2.36476e-05 -4.12163
7228 1 51.9343 14.2074 31.4908 3 1.67473e-05 -4.12149
7229 1 51.1107 14.2059 29.16 3 1.88353e-05 -4.12153
7230 1 53.5816 14.2099 29.158 3 1.30888e-05 -4.12141
7231 1 52.7579 14.2087 26.8274 3 1.48334e-05 -4.12145
7232 1 55.229 14.2117 26.8249 3 1.00079e-05 -4.12135
7233 1 54.4053 14.2109 24.4945 3 1.14808e-05 -4.12138
7234 1 56.8766 14.2131 24.4913 3 7.47029e-06 -4.12131
7235 1 56.0528 14.2125 22.1611 3 8.67982e-06 -4.12133
7236 1 58.5244 14.2141 22.1575 3 5.39305e-06 -4.12128
7237 1 57.7005 14.2137 19.8274 3 6.36415e-06 -4.12129
7238 1 60.1723 14.2148 19.8236 3 3.83512e-06 -4.12126
7239 1 59.3483 14.2145 17.4935 3 4.55723e-06 -4.12127
7240 1 61.8203 14.2153 17.4895 3 2.76884e-06 -4.12124
7241 1 60.9963 14.2151 15.1595 3 3.23214e-06 -4.12125
7242 1 63.4683 14.2155 15.1553 3 2.23758e-06 -4.12124
7243 1 62.6443 14.2154 12.8253 3 2.44038e-06 -4.12124
7244 1 41.2278 12.1381 46.633 3 3.90209e-05 -4.12227
7245 1 43.7001 12.1488 46.6365 3 3.4873e-05 -4.12212
7246 1 42.8761 12.1454 44.304 3 3.65501e-05 -4.12218
7247 1 45.3476 12.1547 44.307 3 3.06999e-05 -4.12199
7248 1 44.5239 12.1519 41.9748 3 3.2903e-05 -4.12206
7249 1 46.9949 12.1597 41.9769 3 2.59688e-05 -4.12185
7250 1 46.1713 12.1573 39.645 3 2.83747e-05 -4.12192
7251 1 48.642 12.1637 39.6462 3 2.12196e-05 -4.12172
7252 1 47.8184 12.1618 37.3146 3 2.35533e-05 -4.12178
7253 1 50.2891 12.167 37.315 3 1.696e-05 -4.1216
7254 1 49.4655 12.1654 34.9836 3 1.90293e-05 -4.12166
7255 1 51.9362 12.1695 34.9832 3 1.32864e-05 -4.12151
7256 1 51.1126 12.1683 32.6521 3 1.50383e-05 -4.12155
7257 1 53.5834 12.1715 32.6509 3 1.0204e-05 -4.12143
7258 1 52.7597 12.1705 30.3201 3 1.16842e-05 -4.12147
7259 1 55.2306 12.173 30.3183 3 7.64719e-06 -4.12137
7260 1 54.407 12.1723 27.9876 3 8.86561e-06 -4.1214
7261 1 56.878 12.1741 27.9854 3 5.54986e-06 -4.12132
7262 1 56.0543 12.1736 25.6548 3 6.53893e-06 -4.12134
7263 1 58.5255 12.1749 25.6522 3 3.88782e-06 -4.12128
7264 1 57.7018 12.1745 23.3218 3 4.66645e-06 -4.1213
7265 1 60.1731 12.1755 23.3189 3 2.63711e-06 -4.12126
7266 1 59.3493 12.1752 20.9885 3 3.21513e-06 -4.12127
7267 1 61.8208 12.1759 20.9855 3 1.80395e-06 -4.12124
7268 1 60.997 12.1757 18.6552 3 2.16766e-06 -4.12125
7269 1 63.4685 12.176 18.652 3 1.39442e-06 -4.12123
7270 1 62.6447 12.176 16.3217 3 1.54489e-06 -4.12124
7271 1 42.8745 10.1155 47.7974 3 3.49544e-05 -4.12218
7272 1 45.3464 10.1216 47.7996 3 2.94988e-05 -4.122
7273 1 44.5225 10.1197 45.4676 3 3.15915e-05 -4.12206
7274 1 46.9939 10.125 45.4692 3 2.48652e-05 -4.12186
7275 1 46.1702 10.1234 43.1374 3 2.72156e-05 -4.12193
7276 1 48.6413 10.1277 43.1385 3 2.02669e-05 -4.12173
7277 1 47.8176 10.1264 40.8069 3 2.25344e-05 -4.1218
7278 1 50.2886 10.1299 40.8073 3 1.60209e-05 -4.12162
7279 1 49.4649 10.1289 38.4759 3 1.80734e-05 -4.12167
7280 1 51.9359 10.1317 38.4758 3 1.23825e-05 -4.12152
7281 1 51.1122 10.1309 36.1446 3 1.41216e-05 -4.12157
7282 1 53.5832 10.1331 36.1439 3 9.30771e-06 -4.12144
7283 1 52.7595 10.1324 33.8129 3 1.07709e-05 -4.12148
7284 1 55.2306 10.1341 33.8118 3 6.83214e-06 -4.12137
7285 1 54.4069 10.1336 31.4809 3 8.00336e-06 -4.1214
7286 1 56.8781 10.1349 31.4794 3 4.85968e-06 -4.12132
7287 1 56.0543 10.1346 29.1486 3 5.78122e-06 -4.12135
7288 1 58.5256 10.1355 29.1469 3 3.34687e-06 -4.12129
7289 1 57.7018 10.1353 26.8161 3 4.052e-06 -4.12131
7290 1 60.1732 10.136 26.8142 3 2.24957e-06 -4.12126
7291 1 59.3494 10.1358 24.4835 3 2.74922e-06 -4.12127
7292 1 61.8209 10.1362 24.4815 3 1.53108e-06 -4.12125
7293 1 60.997 10.1361 22.1508 3 1.8446e-06 -4.12125
7294 1 63.4685 10.1364 22.1487 3 1.17498e-06 -4.12124
7295 1 62.6447 10.1363 19.818 3 1.30774e-06 -4.12124
7296 1 46.1662 8.08993 46.6307 3 3.48085e-05 -4.12258
7297 1 48.6379 8.0921 46.6313 3 2.50478e-05 -4.1225
7298 1 47.8141 8.09145 44.2998 3 2.82377e-05 -4.12253
7299 1 50.2857 8.09323 44.3001 3 1.91851e-05 -4.12245
7300 1 49.4618 8.0927 41.9687 3 2.20015e-05 -4.12247
7301 1 51.9334 8.09415 41.9687 3 1.42821e-05 -4.1224
7302 1 51.1095 8.09372 39.6374 3 1.66182e-05 -4.12242
7303 1 53.5811 8.09487 39.6371 3 1.03948e-05 -4.12236
7304 1 52.7572 8.09453 37.3059 3 1.22123e-05 -4.12238
7305 1 55.2289 8.09543 37.3054 3 7.39866e-06 -4.12233
7306 1 54.405 8.09517 34.9742 3 8.78578e-06 -4.12235
7307 1 56.8767 8.09587 34.9735 3 5.17388e-06 -4.12231
7308 1 56.0528 8.09567 32.6424 3 6.20256e-06 -4.12232
7309 1 58.5246 8.09619 32.6415 3 3.58431e-06 -4.12229
7310 1 57.7006 8.09604 30.3105 3 4.31279e-06 -4.1223
7311 1 60.1725 8.09642 30.3095 3 2.50178e-06 -4.12228
7312 1 59.3485 8.09632 27.9785 3 2.9817e-06 -4.12229
7313 1 61.8204 8.09656 27.9775 3 1.82514e-06 -4.12227
7314 1 60.9965 8.0965 25.6465 3 2.11595e-06 -4.12228
7315 1 63.4684 8.09664 25.6454 3 1.50246e-06 -4.12227
7316 1 62.6444 8.09661 23.3144 3 1.6245e-06 -4.12227
7317 1 47.8072 6.05706 47.7929 3 0.000596471 -4.12222
7318 1 50.2799 6.05706 47.7929 3 0.000687853 -4.1222
7319 1 49.4557 6.05706 45.4616 3 0.000660325 -4.1222
7320 1 51.9285 6.05706 45.4616 3 0.000734204 -4.12218
7321 1 51.1042 6.05706 43.1302 3 0.000712434 -4.12219
7322 1 53.577 6.05706 43.1302 3 0.000769854 -4.12216
7323 1 52.7527 6.05706 40.7989 3 0.000753276 -4.12217
7324 1 55.2255 6.05706 40.7989 3 0.000796409 -4.12214
7325 1 54.4012 6.05706 38.4675 3 0.00078416 -4.12215
7326 1 56.874 6.05706 38.4675 3 0.000815526 -4.12212
7327 1 56.0498 6.05706 36.1361 3 0.000806795 -4.12213
7328 1 58.5226 6.05706 36.1361 3 0.00082881 -4.1221
7329 1 57.6983 6.05706 33.8048 3 0.0008228 -4.12211
7330 1 60.1711 6.05706 33.8048 3 0.000837583 -4.12209
7331 1 59.3468 6.05706 31.4734 3 0.00083369 -4.1221
7332 1 61.8196 6.05706 31.4734 3 0.000842842 -4.12208
7333 1 60.9953 6.05706 29.142 3 0.000840622 -4.12209
7334 1 63.4681 6.05706 29.142 3 0.000845304 -4.12208
7335 1 62.6439 6.05706 26.8107 3 0.000844393 -4.12208
7336 1 51.1042 4.03804 46.6273 3 1.0169e-16 -4.12153
7337 1 53.577 4.03804 46.6273 3 4.0169e-16 -4.12147
7338 1 52.7527 4.03804 44.2959 3 4.00001e-16 -4.12149
7339 1 55.2255 4.03804 44.2959 3 1e-16 -4.12144
7340 1 54.4012 4.03804 41.9645 3 1e-16 -4.12146
7341 1 56.874 4.03804 41.9645 3 0 -4.12142
7342 1 56.0498 4.03804 39.6332 3 0 -4.12143
7343 1 58.5226 4.03804 39.6332 3 9.99999e-17 -4.1214
7344 1 57.6983 4.03804 37.3018 3 1e-16 -4.12141
7345 1 60.1711 4.03804 37.3018 3 3.99999e-16 -4.12139
7346 1 59.3468 4.03804 34.9704 3 3.99999e-16 -4.1214
7347 1 61.8196 4.03804 34.9704 3 5.77599e-17 -4.12138
7348 1 60.9953 4.03804 32.6391 3 9.99999e-17 -4.12139
7349 1 63.4681 4.03804 32.6391 3 2.304e-17 -4.12138
7350 1 62.6439 4.03804 30.3077 3 5.76e-18 -4.12138
7351 1 52.7527 2.01902 47.7929 3 4.05071e-16 -4.10627
7352 1 55.2255 2.01902 47.7929 3 1.0507e-16 -4.10627
7353 1 54.4012 2.01902 45.4616 3 1e-16 -4.10627
7354 1 56.874 2.01902 45.4616 3 0 -4.10627
7355 1 56.0498 2.01902 43.1302 3 6.05845e-28 -4.10627
7356 1 58.5226 2.01902 43.1302 3 9.99999e-17 -4.10627
7357 1 57.6983 2.01902 40.7989 3 1e-16 -4.10627
7358 1 60.1711 2.01902 40.7989 3 3.99999e-16 -4.10627
7359 1 59.3468 2.01902 38.4675 3 3.99999e-16 -4.10627
7360 1 61.8196 2.01902 38.4675 3 5.77599e-17 -4.10627
7361 1 60.9953 2.01902 36.1361 3 9.99999e-17 -4.10627
7362 1 63.4681 2.01902 36.1361 3 2.304e-17 -4.10627
7363 1 62.6439 2.01902 33.8048 3 5.76e-18 -4.10627
7364 1 56.0498 0 46.6273 5 12.2293 -3.54465
7365 1 58.5226 0 46.6273 5 12.2293 -3.54465
7366 1 57.6983 0 44.2959 5 12.2293 -3.54465
7367 1 60.1711 0 44.2959 5 12.2293 -3.54465
7368 1 59.3468 0 41.9645 5 12.2293 -3.54465
7369 1 61.8196 0 41.9645 5 12.2293 -3.54465
7370 1 60.9953 0 39.6332 5 12.2293 -3.54465
7371 1 63.4681 0 39.6332 5 12.2293 -3.54465
7372 1 62.6439 0 37.3018 5 12.2293 -3.54465
7373 1 23.3589 30.4432 47.7302 3 0.0130334 -4.10166
7374 1 25.8204 30.414 47.6924 3 0.0954364 -4.05808
7375 1 25.0033 30.4266 45.3776 3 0.0487191 -4.07866
7376 1 27.4243 30.3474 45.303 3 5.11537 -4.00147
7377 1 26.6376 30.3951 43.004 3 0.167103 -4.03237
7378 1 29.0294 30.3016 42.9262 5 4.50623 -3.98757
7379 1 28.2191 30.3187 40.6098 5 4.75702 -3.99009
7380 1 30.6006 30.2568 40.6365 5 3.81688 -3.93471
7381 1 29.8153 30.2835 38.2734 5 4.18412 -3.97113
7382 1 32.1462 30.2028 38.4675 5 3.25055 -3.87684
7383 1 31.4004 30.2303 36.0338 5 3.42045 -3.89887
7384 1 33.6918 30.2568 36.2985 5 3.81688 -3.93471
7385 1 32.892 30.2303 33.9071 5 3.42045 -3.89887
7386 1 35.263 30.3016 34.0088 5 4.50623 -3.98757
7387 1 34.4771 30.2835 31.6675 5 4.18412 -3.97113
7388 1 36.868 30.3474 31.632 3 5.11537 -4.00147
7389 1 36.0733 30.3187 29.3311 5 4.75702 -3.99009
7390 1 38.472 30.414 29.2426 3 0.0954364 -4.05808
7391 1 37.6547 30.3951 26.9369 3 0.167103 -4.03237
7392 1 40.1062 30.4356 26.8829 3 0.0215462 -4.09544
7393 1 39.2891 30.4266 24.5633 3 0.0487191 -4.07866
7394 1 41.7604 30.4496 24.5351 3 0.00806511 -4.10618
7395 1 40.9335 30.4432 22.2107 3 0.0130334 -4.10166
7396 1 43.4188 30.4599 22.1926 3 0.00325419 -4.11174
7397 1 42.5877 30.455 19.8664 3 0.00467582 -4.10997
7398 1 45.0814 30.4677 19.8534 3 0.00152376 -4.11468
7399 1 44.2499 30.4641 17.5257 3 0.00225363 -4.11327
7400 1 46.7476 30.4737 17.5159 3 0.000873927 -4.11615
7401 1 45.9144 30.4709 15.1874 3 0.00115263 -4.11545
7402 1 48.4152 30.478 15.1797 3 0.000536516 -4.11718
7403 1 47.581 30.476 12.8507 3 0.000663448 -4.11678
7404 1 50.0841 30.481 12.8444 3 0.000360429 -4.11788
7405 1 49.2495 30.4796 10.5149 3 0.00043741 -4.11755
7406 1 51.7541 30.483 10.5095 3 0.000264672 -4.11835
7407 1 50.919 30.4821 8.17983 3 0.000307261 -4.11813
7408 1 53.4247 30.4843 8.17512 3 0.000205009 -4.11871
7409 1 52.5893 30.4837 5.84524 3 0.000230689 -4.11855
7410 1 55.0959 30.485 5.841 3 0.000166986 -4.11899
7411 1 54.2602 30.4847 3.51098 3 0.000184032 -4.11886
7412 1 56.7675 30.4854 3.5071 3 0.00014236 -4.11919
7413 1 55.9316 30.4852 1.17698 3 0.000153492 -4.1191
7414 1 58.4394 30.4855 1.17335 3 0.00012591 -4.11935
7415 1 26.4984 28.342 46.5169 3 0.0117188 -4.12211
7416 1 28.9306 28.2612 46.5092 3 0.0139267 -4.11512
7417 1 28.1253 28.2912 44.1737 3 0.0108747 -4.11667
7418 1 30.543 28.2101 44.2193 3 0.0163236 -4.11343
7419 1 29.7378 28.2337 41.8616 3 0.0161729 -4.11454
7420 1 32.1462 28.1701 41.9645 3 0.0485463 -4.09016
7421 1 31.3394 28.1809 39.596 3 0.0322406 -4.09783
7422 1 33.7494 28.2101 39.7097 3 0.0163236 -4.11343
7423 1 32.9529 28.1809 37.339 3 0.0322406 -4.09783
7424 1 35.3618 28.2612 37.4199 3 0.0139267 -4.11512
7425 1 34.5546 28.2337 35.0733 3 0.0161729 -4.11454
7426 1 36.9807 28.3192 35.0865 3 0.0126047 -4.12069
7427 1 36.1671 28.2912 32.7613 3 0.0108747 -4.11667
7428 1 38.6031 28.3672 32.7449 3 0.0118046 -4.12298
7429 1 37.794 28.342 30.4181 3 0.0117188 -4.12211
7430 1 40.2349 28.3979 30.3966 3 0.00848892 -4.1156
7431 1 39.4174 28.3848 28.0735 3 0.0101215 -4.1172
7432 1 41.8729 28.4167 28.0507 3 0.00483509 -4.11549
7433 1 41.0525 28.4085 25.7264 3 0.00657172 -4.11542
7434 1 43.5187 28.4297 25.7076 3 0.00297164 -4.11672
7435 1 42.6955 28.4237 23.3817 3 0.00380236 -4.11608
7436 1 45.1697 28.4391 23.3666 3 0.00177465 -4.11755
7437 1 44.3435 28.4347 21.0398 3 0.00224084 -4.11713
7438 1 46.8241 28.4459 21.0274 3 0.00108856 -4.11827
7439 1 45.9964 28.4428 18.6998 3 0.00140198 -4.11796
7440 1 48.4817 28.4509 18.6894 3 0.00070721 -4.1188
7441 1 47.6526 28.4486 16.3612 3 0.000876386 -4.11854
7442 1 50.1415 28.4544 16.3523 3 0.000468853 -4.11918
7443 1 49.3113 28.4528 14.0237 3 0.000568438 -4.119
7444 1 51.8031 28.4568 14.0159 3 0.000324049 -4.1195
7445 1 50.9721 28.4557 11.687 3 0.000389026 -4.11935
7446 1 53.4661 28.4583 11.6801 3 0.000235341 -4.11973
7447 1 52.6344 28.4577 9.35088 3 0.000274991 -4.11962
7448 1 55.1301 28.4593 9.34457 3 0.000177766 -4.11992
7449 1 54.298 28.4589 7.01522 3 0.000203071 -4.11983
7450 1 56.795 28.4599 7.00939 3 0.000140466 -4.12007
7451 1 55.9624 28.4596 4.6799 3 0.000157242 -4.12
7452 1 58.4605 28.4601 4.67442 3 0.0001163 -4.12018
7453 1 57.6276 28.46 2.34484 3 0.000127086 -4.12013
7454 1 60.1264 28.4603 2.33961 3 0.00010083 -4.12026
7455 1 59.2934 28.4602 0.00995715 3 0.000107615 -4.12022
7456 1 61.7927 28.4603 0.0049079 3 9.16039e-05 -4.12031
7457 1 28.0687 26.2585 47.7174 3 0.00322313 -4.12373
7458 1 30.5129 26.1844 47.756 3 0.00816207 -4.11663
7459 1 29.6995 26.2083 45.4064 3 0.00443349 -4.12078
7460 1 32.1462 26.1677 45.4616 3 0.0089096 -4.11296
7461 1 31.3291 26.1714 43.1121 3 0.00960164 -4.11429
7462 1 33.7795 26.1844 43.1672 3 0.00816207 -4.11663
7463 1 32.9633 26.1714 40.8169 3 0.00960164 -4.11429
7464 1 35.4079 26.2327 40.8664 3 0.00356947 -4.12193
7465 1 34.5928 26.2083 38.5227 3 0.00443349 -4.12078
7466 1 37.0379 26.2828 38.5486 3 0.00270402 -4.12349
7467 1 36.2237 26.2585 36.2117 3 0.00322313 -4.12373
7468 1 38.6707 26.3231 36.2189 3 0.00253655 -4.12157
7469 1 37.8538 26.3041 33.8875 3 0.00259635 -4.12219
7470 1 40.3044 26.356 33.8853 3 0.00242576 -4.12132
7471 1 39.4867 26.3415 31.556 3 0.00249975 -4.12221
7472 1 41.943 26.378 31.5474 3 0.00186971 -4.12017
7473 1 41.1234 26.3679 29.2195 3 0.00221009 -4.12044
7474 1 43.5858 26.3934 29.2083 3 0.00138945 -4.11976
7475 1 42.7639 26.3863 26.8809 3 0.00161523 -4.11988
7476 1 45.2321 26.4047 26.8694 3 0.00102489 -4.11984
7477 1 44.4085 26.3995 24.5418 3 0.00119292 -4.11984
7478 1 46.8814 26.4129 24.531 3 0.000743912 -4.11996
7479 1 46.0564 26.4091 22.2031 3 0.000872325 -4.11987
7480 1 48.5333 26.4189 22.1931 3 0.000535789 -4.12007
7481 1 47.7071 26.4161 19.8649 3 0.000632901 -4.12001
7482 1 50.1874 26.4232 19.8557 3 0.000387257 -4.12021
7483 1 49.3601 26.4212 17.5273 3 0.000455557 -4.12015
7484 1 51.8432 26.4263 17.5188 3 0.000280837 -4.12034
7485 1 51.0151 26.4249 15.1902 3 0.000328903 -4.12028
7486 1 53.5005 26.4283 15.1823 3 0.000205992 -4.12045
7487 1 52.6717 26.4274 12.8535 3 0.000240231 -4.1204
7488 1 55.159 26.4297 12.8461 3 0.000154012 -4.12056
7489 1 54.3296 26.4291 10.5171 3 0.000177741 -4.12051
7490 1 56.8184 26.4306 10.5101 3 0.000117893 -4.12064
7491 1 55.9886 26.4302 8.18104 3 0.000134239 -4.1206
7492 1 58.4786 26.4311 8.17436 3 9.31828e-05 -4.12071
7493 1 57.6484 26.4309 5.84518 3 0.000104313 -4.12068
7494 1 60.1393 26.4314 5.83873 3 7.68698e-05 -4.12076
7495 1 59.3089 26.4313 3.50949 3 8.41623e-05 -4.12073
7496 1 61.8004 26.4316 3.5032 3 6.69749e-05 -4.12079
7497 1 60.9698 26.4315 1.17391 3 7.11953e-05 -4.12078
7498 1 63.4617 26.4316 1.16773 3 6.2287e-05 -4.12081
7499 1 31.3242 24.1672 46.617 3 0.00347281 -4.11881
7500 1 33.7902 24.1766 46.6469 3 0.00310541 -4.11892
7501 1 32.9682 24.1672 44.3061 3 0.00347281 -4.11881
7502 1 35.4309 24.2108 44.3344 3 0.00127742 -4.12238
7503 1 34.6113 24.1912 41.9936 3 0.00230359 -4.1201
7504 1 37.0696 24.2502 42.0171 3 0.000954188 -4.12313
7505 1 36.2504 24.2304 39.6794 3 0.00103223 -4.12292
7506 1 38.7073 24.2866 39.694 3 0.000942039 -4.12252
7507 1 37.8882 24.2694 37.3594 3 0.000890561 -4.12299
7508 1 40.3459 24.3164 37.3662 3 0.000884572 -4.12224
7509 1 39.5267 24.302 35.0334 3 0.000915784 -4.12218
7510 1 41.9866 24.339 35.0344 3 0.000793814 -4.12154
7511 1 41.1659 24.3286 32.7037 3 0.000852825 -4.12188
7512 1 43.6293 24.3557 32.7 3 0.000623091 -4.12114
7513 1 42.8076 24.348 30.3704 3 0.000697935 -4.12134
7514 1 45.2745 24.368 30.3642 3 0.00049893 -4.12096
7515 1 44.4517 24.3623 28.0351 3 0.000559055 -4.12101
7516 1 46.9217 24.3772 28.0278 3 0.000400063 -4.12086
7517 1 46.0979 24.373 25.699 3 0.000447393 -4.12091
7518 1 48.5708 24.3841 25.6911 3 0.000315312 -4.12084
7519 1 47.7461 24.3809 23.3624 3 0.00035533 -4.12085
7520 1 50.2216 24.3891 23.3545 3 0.000245271 -4.12085
7521 1 49.396 24.3868 21.0258 3 0.000278721 -4.12084
7522 1 51.8738 24.3927 21.018 3 0.000188817 -4.12087
7523 1 51.0475 24.391 18.6892 3 0.000215508 -4.12085
7524 1 53.5272 24.3953 18.6815 3 0.000144175 -4.1209
7525 1 52.7004 24.3941 16.3527 3 0.000165048 -4.12088
7526 1 55.1817 24.3971 16.3452 3 0.000109773 -4.12094
7527 1 54.3544 24.3963 14.0163 3 0.000125794 -4.12092
7528 1 56.8371 24.3983 14.009 3 8.38841e-05 -4.12097
7529 1 56.0093 24.3978 11.68 3 9.58963e-05 -4.12096
7530 1 58.4931 24.3991 11.6729 3 6.50271e-05 -4.12101
7531 1 57.665 24.3987 9.3439 3 7.36744e-05 -4.12099
7532 1 60.1497 24.3996 9.33689 3 5.19585e-05 -4.12103
7533 1 59.3213 24.3994 7.00784 3 5.7818e-05 -4.12102
7534 1 61.8066 24.3999 7.00093 3 4.36992e-05 -4.12105
7535 1 60.9781 24.3997 4.67186 3 4.72763e-05 -4.12104
7536 1 63.4638 24.4 4.665 3 3.97215e-05 -4.12106
7537 1 62.6352 24.3999 2.33592 3 4.12123e-05 -4.12106
7538 1 32.971 22.1623 47.7983 3 0.00155395 -4.12055
7539 1 35.4424 22.1924 47.8149 3 0.000773009 -4.12162
7540 1 34.6192 22.1794 45.4778 3 0.00104397 -4.12115
7541 1 37.0864 22.2233 45.4948 3 0.000407281 -4.12259
7542 1 36.2646 22.2077 43.1581 3 0.000487495 -4.12235
7543 1 38.7289 22.2537 43.1725 3 0.000376991 -4.12269
7544 1 37.9079 22.2388 40.8369 3 0.000390738 -4.12272
7545 1 40.3713 22.28 40.8469 3 0.000399913 -4.12228
7546 1 39.5501 22.2675 38.513 3 0.000400036 -4.12247
7547 1 42.0139 22.3016 38.5185 3 0.000368054 -4.12203
7548 1 41.1924 22.2915 36.186 3 0.000385065 -4.12223
7549 1 43.6578 22.3183 36.1873 3 0.000309049 -4.1217
7550 1 42.8357 22.3105 33.8561 3 0.000344028 -4.12184
7551 1 45.3029 22.3309 33.8543 3 0.000252583 -4.12146
7552 1 44.4802 22.325 31.524 3 0.000278697 -4.12156
7553 1 46.9494 22.3405 31.5201 3 0.000207491 -4.12133
7554 1 46.126 22.3361 29.1903 3 0.000228489 -4.12139
7555 1 48.5972 22.3478 29.1851 3 0.000170843 -4.12124
7556 1 47.7732 22.3444 26.8556 3 0.000188621 -4.12127
7557 1 50.2461 22.3532 26.8497 3 0.000139139 -4.12119
7558 1 49.4215 22.3507 24.5204 3 0.000154376 -4.12121
7559 1 51.8961 22.3572 24.514 3 0.000111557 -4.12116
7560 1 51.071 22.3554 22.1848 3 0.000124819 -4.12117
7561 1 53.547 22.3602 22.1781 3 8.81848e-05 -4.12115
7562 1 52.7214 22.3588 19.849 3 9.93764e-05 -4.12115
7563 1 55.1988 22.3623 19.8421 3 6.86729e-05 -4.12115
7564 1 54.3728 22.3613 17.5131 3 7.79472e-05 -4.12115
7565 1 56.8512 22.3637 17.5062 3 5.29814e-05 -4.12115
7566 1 56.0249 22.3631 15.1771 3 6.03627e-05 -4.12115
7567 1 58.5042 22.3647 15.1701 3 4.08571e-05 -4.12116
7568 1 57.6776 22.3643 12.8411 3 4.64865e-05 -4.12116
7569 1 60.1577 22.3654 12.8341 3 3.19742e-05 -4.12117
7570 1 59.3309 22.3651 10.5051 3 3.60295e-05 -4.12116
7571 1 61.8114 22.3658 10.4981 3 2.6215e-05 -4.12118
7572 1 60.9845 22.3656 8.16907 3 2.87085e-05 -4.12117
7573 1 63.4654 22.3659 8.1621 3 2.33734e-05 -4.12118
7574 1 62.6384 22.3659 5.83306 3 2.44366e-05 -4.12118
7575 1 36.2721 20.1879 46.6436 3 0.000315416 -4.12203
7576 1 38.7416 20.2244 46.6552 3 0.000190202 -4.12249
7577 1 37.9188 20.2123 44.3202 3 0.000196318 -4.12245
7578 1 40.3865 20.247 44.33 3 0.000195126 -4.12237
7579 1 39.5641 20.2361 41.9958 3 0.000187607 -4.12248
7580 1 42.0312 20.2663 42.0029 3 0.000189371 -4.12217
7581 1 41.2089 20.2571 39.6696 3 0.000195796 -4.12225
7582 1 43.6763 20.2819 39.6736 3 0.000168778 -4.12192
7583 1 42.8537 20.2746 37.3415 3 0.000180503 -4.12205
7584 1 45.3219 20.2942 37.3426 3 0.000139213 -4.12171
7585 1 44.499 20.2884 35.0113 3 0.000153538 -4.12181
7586 1 46.9682 20.3036 35.0102 3 0.000114314 -4.12156
7587 1 46.1449 20.2992 32.6795 3 0.000126253 -4.12162
7588 1 48.6154 20.3109 32.6768 3 9.4415e-05 -4.12145
7589 1 47.7917 20.3075 30.3465 3 0.000103818 -4.1215
7590 1 50.2633 20.3164 30.3426 3 7.78494e-05 -4.12137
7591 1 49.4392 20.3138 28.0127 3 8.58048e-05 -4.1214
7592 1 51.9119 20.3205 28.0079 3 6.35758e-05 -4.12131
7593 1 51.0875 20.3186 25.6782 3 7.04686e-05 -4.12134
7594 1 53.5612 20.3236 25.6728 3 5.11013e-05 -4.12128
7595 1 52.7365 20.3222 23.3433 3 5.71186e-05 -4.12129
7596 1 55.2111 20.3259 23.3375 3 4.03573e-05 -4.12125
7597 1 54.3861 20.3248 21.0081 3 4.55093e-05 -4.12126
7598 1 56.8615 20.3275 21.002 3 3.13502e-05 -4.12124
7599 1 56.0362 20.3268 18.6727 3 3.5656e-05 -4.12125
7600 1 58.5124 20.3286 18.6663 3 2.40917e-05 -4.12123
7601 1 57.6869 20.3281 16.3371 3 2.74791e-05 -4.12124
7602 1 60.1635 20.3294 16.3306 3 1.86231e-05 -4.12123
7603 1 59.3379 20.329 14.0014 3 2.11354e-05 -4.12123
7604 1 61.815 20.3298 13.9948 3 1.49752e-05 -4.12123
7605 1 60.9892 20.3296 11.6657 3 1.6574e-05 -4.12123
7606 1 63.4666 20.3301 11.659 3 1.31439e-05 -4.12123
7607 1 62.6408 20.33 9.3299 3 1.38356e-05 -4.12123
7608 1 37.9249 18.1883 47.8077 3 0.000121646 -4.12232
7609 1 40.3957 18.2165 47.816 3 0.00010563 -4.12236
7610 1 39.5724 18.2074 45.482 3 0.00010684 -4.12238
7611 1 42.042 18.233 45.489 3 0.000106757 -4.1222
7612 1 41.2189 18.2251 43.1556 3 0.000107346 -4.12228
7613 1 43.688 18.2469 43.1606 3 9.79354e-05 -4.12203
7614 1 42.865 18.2403 40.8279 3 0.000103086 -4.12212
7615 1 45.3342 18.2581 40.8307 3 8.36506e-05 -4.12184
7616 1 44.5111 18.2528 38.4988 3 9.14508e-05 -4.12193
7617 1 46.9807 18.2669 38.4996 3 6.88321e-05 -4.12169
7618 1 46.1574 18.2628 36.1683 3 7.59839e-05 -4.12176
7619 1 48.6276 18.2738 36.1674 3 5.62216e-05 -4.12156
7620 1 47.8041 18.2706 33.8366 3 6.21674e-05 -4.12162
7621 1 50.275 18.2791 33.8343 3 4.59492e-05 -4.12147
7622 1 49.4512 18.2766 31.5039 3 5.08623e-05 -4.12151
7623 1 51.9228 18.2831 31.5006 3 3.74029e-05 -4.1214
7624 1 51.0988 18.2813 29.1705 3 4.14974e-05 -4.12143
7625 1 53.571 18.2862 29.1664 3 3.00528e-05 -4.12135
7626 1 52.7469 18.2848 26.8365 3 3.35796e-05 -4.12137
7627 1 55.2197 18.2884 26.8318 3 2.37711e-05 -4.12131
7628 1 54.3953 18.2874 24.5021 3 2.67886e-05 -4.12133
7629 1 56.8688 18.2901 24.4969 3 1.84107e-05 -4.12128
7630 1 56.0442 18.2893 22.1673 3 2.09722e-05 -4.12129
7631 1 58.5181 18.2913 22.1618 3 1.40407e-05 -4.12126
7632 1 57.6934 18.2907 19.8323 3 1.61087e-05 -4.12127
7633 1 60.1677 18.2921 19.8266 3 1.06657e-05 -4.12125
7634 1 59.3429 18.2917 17.4972 3 1.22128e-05 -4.12126
7635 1 61.8175 18.2925 17.4913 3 8.38125e-06 -4.12124
7636 1 60.9926 18.2923 15.1619 3 9.39266e-06 -4.12125
7637 1 63.4674 18.2928 15.1559 3 7.23823e-06 -4.12124
7638 1 62.6425 18.2927 12.8265 3 7.66159e-06 -4.12124
7639 1 41.2247 16.1948 46.644 3 6.66786e-05 -4.12228
7640 1 43.6952 16.2131 46.6489 3 6.19556e-05 -4.12208
7641 1 42.8718 16.2075 44.3161 3 6.4717e-05 -4.12215
7642 1 45.3419 16.2229 44.3196 3 5.43021e-05 -4.12192
7643 1 44.5186 16.2182 41.9874 3 5.84032e-05 -4.122
7644 1 46.9887 16.2307 41.9892 3 4.51344e-05 -4.12177
7645 1 46.1653 16.227 39.6575 3 4.97277e-05 -4.12184
7646 1 48.6355 16.2369 39.6579 3 3.6764e-05 -4.12164
7647 1 47.8121 16.234 37.3266 3 4.08175e-05 -4.1217
7648 1 50.2826 16.2417 37.3256 3 2.96514e-05 -4.12153
7649 1 49.459 16.2394 34.9948 3 3.3033e-05 -4.12158
7650 1 51.93 16.2454 34.9928 3 2.38271e-05 -4.12145
7651 1 51.1063 16.2436 32.6622 3 2.66114e-05 -4.12149
7652 1 53.5776 16.2482 32.6593 3 1.89217e-05 -4.12139
7653 1 52.7537 16.2469 30.3291 3 2.12736e-05 -4.12142
7654 1 55.2255 16.2503 30.3255 3 1.47552e-05 -4.12134
7655 1 54.4015 16.2493 27.9954 3 1.67508e-05 -4.12136
7656 1 56.8736 16.2519 27.9913 3 1.12736e-05 -4.1213
7657 1 56.0495 16.2512 25.6614 3 1.29271e-05 -4.12132
7658 1 58.522 16.253 25.6568 3 8.44024e-06 -4.12128
7659 1 57.6978 16.2525 23.327 3 9.78719e-06 -4.12129
7660 1 60.1705 16.2538 23.3222 3 6.22844e-06 -4.12126
7661 1 59.3463 16.2534 20.9925 3 7.24539e-06 -4.12126
7662 1 61.8192 16.2543 20.9875 3 4.73587e-06 -4.12125
7663 1 60.9949 16.254 18.6578 3 5.3944e-06 -4.12125
7664 1 63.468 16.2545 18.6526 3 3.9781e-06 -4.12124
7665 1 62.6436 16.2544 16.323 3 4.25859e-06 -4.12124
7666 1 42.8753 14.176 47.8063 3 4.5344e-05 -4.12217
7667 1 45.3462 14.1884 47.8097 3 3.83868e-05 -4.12196
7668 1 44.5226 14.1846 45.4774 3 4.11553e-05 -4.12204
7669 1 46.9932 14.1949 45.4796 3 3.23328e-05 -4.12182
7670 1 46.1697 14.1918 43.1477 3 3.54186e-05 -4.12189
7671 1 48.6401 14.2001 43.1488 3 2.63636e-05 -4.12169
7672 1 47.8167 14.1977 40.8172 3 2.92764e-05 -4.12175
7673 1 50.2871 14.2042 40.8171 3 2.11522e-05 -4.12158
7674 1 49.4636 14.2023 38.486 3 2.36476e-05 -4.12163
7675 1 51.9343 14.2074 38.4849 3 1.67473e-05 -4.12149
7676 1 51.1107 14.2059 36.1541 3 1.88353e-05 -4.12153
7677 1 53.5816 14.2099 36.1521 3 1.30888e-05 -4.12141
7678 1 52.7579 14.2087 33.8215 3 1.48334e-05 -4.12145
7679 1 55.229 14.2117 33.8189 3 1.00079e-05 -4.12135
7680 1 54.4053 14.2109 31.4885 3 1.14808e-05 -4.12138
7681 1 56.8766 14.2131 31.4854 3 7.47029e-06 -4.12131
7682 1 56.0528 14.2125 29.1552 3 8.67982e-06 -4.12133
7683 1 58.5244 14.2141 29.1516 3 5.39305e-06 -4.12128
7684 1 57.7005 14.2137 26.8215 3 6.36415e-06 -4.12129
7685 1 60.1723 14.2148 26.8176 3 3.83512e-06 -4.12126
7686 1 59.3483 14.2145 24.4876 3 4.55723e-06 -4.12127
7687 1 61.8203 14.2153 24.4835 3 2.76884e-06 -4.12124
7688 1 60.9963 14.2151 22.1536 3 3.23214e-06 -4.12125
7689 1 63.4683 14.2155 22.1494 3 2.23758e-06 -4.12124
7690 1 62.6443 14.2154 19.8194 3 2.44038e-06 -4.12124
7691 1 46.1713 12.1573 46.6391 3 2.83747e-05 -4.12192
7692 1 48.642 12.1637 46.6403 3 2.12196e-05 -4.12172
7693 1 47.8184 12.1618 44.3087 3 2.35533e-05 -4.12178
7694 1 50.2891 12.167 44.3091 3 1.696e-05 -4.1216
7695 1 49.4655 12.1654 41.9777 3 1.90293e-05 -4.12166
7696 1 51.9362 12.1695 41.9773 3 1.32864e-05 -4.12151
7697 1 51.1126 12.1683 39.6462 3 1.50383e-05 -4.12155
7698 1 53.5834 12.1715 39.645 3 1.0204e-05 -4.12143
7699 1 52.7597 12.1705 37.3141 3 1.16842e-05 -4.12147
7700 1 55.2306 12.173 37.3124 3 7.64719e-06 -4.12137
7701 1 54.407 12.1723 34.9817 3 8.86561e-06 -4.1214
7702 1 56.878 12.1741 34.9795 3 5.54986e-06 -4.12132
7703 1 56.0543 12.1736 32.6489 3 6.53893e-06 -4.12134
7704 1 58.5255 12.1749 32.6463 3 3.88782e-06 -4.12128
7705 1 57.7018 12.1745 30.3159 3 4.66645e-06 -4.1213
7706 1 60.1731 12.1755 30.313 3 2.63711e-06 -4.12126
7707 1 59.3493 12.1752 27.9826 3 3.21513e-06 -4.12127
7708 1 61.8208 12.1759 27.9796 3 1.80395e-06 -4.12124
7709 1 60.997 12.1757 25.6493 3 2.16766e-06 -4.12125
7710 1 63.4685 12.176 25.6461 3 1.39442e-06 -4.12123
7711 1 62.6447 12.176 23.3158 3 1.54489e-06 -4.12124
7712 1 47.8176 10.1264 47.801 3 2.25344e-05 -4.1218
7713 1 50.2886 10.1299 47.8014 3 1.60209e-05 -4.12162
7714 1 49.4649 10.1289 45.47 3 1.80734e-05 -4.12167
7715 1 51.9359 10.1317 45.4699 3 1.23825e-05 -4.12152
7716 1 51.1122 10.1309 43.1387 3 1.41216e-05 -4.12157
7717 1 53.5832 10.1331 43.138 3 9.30771e-06 -4.12144
7718 1 52.7595 10.1324 40.807 3 1.07709e-05 -4.12148
7719 1 55.2306 10.1341 40.8059 3 6.83214e-06 -4.12137
7720 1 54.4069 10.1336 38.475 3 8.00336e-06 -4.1214
7721 1 56.8781 10.1349 38.4735 3 4.85968e-06 -4.12132
7722 1 56.0543 10.1346 36.1427 3 5.78122e-06 -4.12135
7723 1 58.5256 10.1355 36.141 3 3.34687e-06 -4.12129
7724 1 57.7018 10.1353 33.8102 3 4.052e-06 -4.12131
7725 1 60.1732 10.136 33.8083 3 2.24957e-06 -4.12126
7726 1 59.3494 10.1358 31.4776 3 2.74922e-06 -4.12127
7727 1 61.8209 10.1362 31.4756 3 1.53108e-06 -4.12125
7728 1 60.997 10.1361 29.1449 3 1.8446e-06 -4.12125
7729 1 63.4685 10.1364 29.1428 3 1.17498e-06 -4.12124
7730 1 62.6447 10.1363 26.8121 3 1.30774e-06 -4.12124
7731 1 51.1095 8.09372 46.6315 3 1.66182e-05 -4.12242
7732 1 53.5811 8.09487 46.6312 3 1.03948e-05 -4.12236
7733 1 52.7572 8.09453 44.3 3 1.22123e-05 -4.12238
7734 1 55.2289 8.09543 44.2994 3 7.39866e-06 -4.12233
7735 1 54.405 8.09517 41.9683 3 8.78578e-06 -4.12235
7736 1 56.8767 8.09587 41.9676 3 5.17388e-06 -4.12231
7737 1 56.0528 8.09567 39.6365 3 6.20256e-06 -4.12232
7738 1 58.5246 8.09619 39.6356 3 3.58431e-06 -4.12229
7739 1 57.7006 8.09604 37.3046 3 4.31279e-06 -4.1223
7740 1 60.1725 8.09642 37.3036 3 2.50178e-06 -4.12228
7741 1 59.3485 8.09632 34.9726 3 2.9817e-06 -4.12229
7742 1 61.8204 8.09656 34.9715 3 1.82514e-06 -4.12227
7743 1 60.9965 8.0965 32.6405 3 2.11595e-06 -4.12228
7744 1 63.4684 8.09664 32.6395 3 1.50246e-06 -4.12227
7745 1 62.6444 8.09661 30.3085 3 1.6245e-06 -4.12227
7746 1 52.7527 6.05706 47.7929 3 0.000753276 -4.12217
7747 1 55.2255 6.05706 47.7929 3 0.000796409 -4.12214
7748 1 54.4012 6.05706 45.4616 3 0.00078416 -4.12215
7749 1 56.874 6.05706 45.4616 3 0.000815526 -4.12212
7750 1 56.0498 6.05706 43.1302 3 0.000806795 -4.12213
7751 1 58.5226 6.05706 43.1302 3 0.00082881 -4.1221
7752 1 57.6983 6.05706 40.7989 3 0.0008228 -4.12211
7753 1 60.1711 6.05706 40.7989 3 0.000837583 -4.12209
7754 1 59.3468 6.05706 38.4675 3 0.00083369 -4.1221
7755 1 61.8196 6.05706 38.4675 3 0.000842842 -4.12208
7756 1 60.9953 6.05706 36.1361 3 0.000840622 -4.12209
7757 1 63.4681 6.05706 36.1361 3 0.000845304 -4.12208
7758 1 62.6439 6.05706 33.8048 3 0.000844393 -4.12208
7759 1 56.0498 4.03804 46.6273 3 1.69002e-18 -4.12143
7760 1 58.5226 4.03804 46.6273 3 1.0169e-16 -4.1214
7761 1 57.6983 4.03804 44.2959 3 1e-16 -4.12141
7762 1 60.1711 4.03804 44.2959 3 3.99999e-16 -4.12139
7763 1 59.3468 4.03804 41.9645 3 3.99999e-16 -4.1214
7764 1 61.8196 4.03804 41.9645 3 5.77599e-17 -4.12138
7765 1 60.9953 4.03804 39.6332 3 9.99999e-17 -4.12139
7766 1 63.4681 4.03804 39.6332 3 2.304e-17 -4.12138
7767 1 62.6439 4.03804 37.3018 3 5.76e-18 -4.12138
7768 1 57.6983 2.01902 47.7929 3 1.0507e-16 -4.10627
7769 1 60.1711 2.01902 47.7929 3 4.05069e-16 -4.10627
7770 1 59.3468 2.01902 45.4616 3 3.99999e-16 -4.10627
7771 1 61.8196 2.01902 45.4616 3 5.77599e-17 -4.10627
7772 1 60.9953 2.01902 43.1302 3 9.99999e-17 -4.10627
7773 1 63.4681 2.01902 43.1302 3 2.304e-17 -4.10627
7774 1 62.6439 2.01902 40.7989 3 5.76e-18 -4.10627
7775 1 60.9953 0 46.6273 5 12.2293 -3.54465
7776 1 63.4681 0 46.6273 5 12.2293 -3.54465
7777 1 62.6439 0 44.2959 5 12.2293 -3.54465
7778 1 28.2191 30.3187 47.6039 5 4.75702 -3.99009
7779 1 30.6006 30.2568 47.6305 5 3.81688 -3.93471
7780 1 29.8153 30.2835 45.2675 5 4.18412 -3.97113
7781 1 32.1462 30.2028 45.4616 5 3.25055 -3.87684
7782 1 31.4004 30.2303 43.0279 5 3.42045 -3.89887
7783 1 33.6918 30.2568 43.2926 5 3.81688 -3.93471
7784 1 32.892 30.2303 40.9012 5 3.42045 -3.89887
7785 1 35.263 30.3016 41.0029 5 4.50623 -3.98757
7786 1 34.4771 30.2835 38.6616 5 4.18412 -3.97113
7787 1 36.868 30.3474 38.6261 3 5.11537 -4.00147
7788 1 36.0733 30.3187 36.3252 5 4.75702 -3.99009
7789 1 38.472 30.414 36.2367 3 0.0954364 -4.05808
7790 1 37.6547 30.3951 33.931 3 0.167103 -4.03237
7791 1 40.1062 30.4356 33.877 3 0.0215462 -4.09544
7792 1 39.2891 30.4266 31.5574 3 0.0487191 -4.07866
7793 1 41.7604 30.4496 31.5291 3 0.00806511 -4.10618
7794 1 40.9335 30.4432 29.2047 3 0.0130334 -4.10166
7795 1 43.4188 30.4599 29.1867 3 0.00325419 -4.11174
7796 1 42.5877 30.455 26.8605 3 0.00467582 -4.10997
7797 1 45.0814 30.4677 26.8474 3 0.00152376 -4.11468
7798 1 44.2499 30.4641 24.5197 3 0.00225363 -4.11327
7799 1 46.7476 30.4737 24.51 3 0.000873927 -4.11615
7800 1 45.9144 30.4709 22.1815 3 0.00115263 -4.11545
7801 1 48.4152 30.478 22.1738 3 0.000536516 -4.11718
7802 1 47.581 30.476 19.8448 3 0.000663448 -4.11678
7803 1 50.0841 30.481 19.8384 3 0.000360429 -4.11788
7804 1 49.2495 30.4796 17.509 3 0.00043741 -4.11755
7805 1 51.7541 30.483 17.5036 3 0.000264672 -4.11835
7806 1 50.919 30.4821 15.1739 3 0.000307261 -4.11813
7807 1 53.4247 30.4843 15.1692 3 0.000205009 -4.11871
7808 1 52.5893 30.4837 12.8393 3 0.000230689 -4.11855
7809 1 55.0959 30.485 12.8351 3 0.000166986 -4.11899
7810 1 54.2602 30.4847 10.5051 3 0.000184032 -4.11886
7811 1 56.7675 30.4854 10.5012 3 0.00014236 -4.11919
7812 1 55.9316 30.4852 8.17107 3 0.000153492 -4.1191
7813 1 58.4394 30.4855 8.16744 3 0.00012591 -4.11935
7814 1 57.6034 30.4855 5.83725 3 0.000133238 -4.11928
7815 1 60.1115 30.4855 5.83381 3 0.00011515 -4.11946
7816 1 59.2754 30.4855 3.50357 3 0.000119916 -4.11941
7817 1 61.7838 30.4855 3.50026 3 0.000108707 -4.11953
7818 1 60.9476 30.4855 1.16998 3 0.000111484 -4.1195
7819 1 63.4562 30.4855 1.16675 3 0.000105686 -4.11957
7820 1 31.3394 28.1809 46.5901 3 0.0322406 -4.09783
7821 1 33.7494 28.2101 46.7038 3 0.0163236 -4.11343
7822 1 32.9529 28.1809 44.3331 3 0.0322406 -4.09783
7823 1 35.3618 28.2612 44.414 3 0.0139267 -4.11512
7824 1 34.5546 28.2337 42.0674 3 0.0161729 -4.11454
7825 1 36.9807 28.3192 42.0806 3 0.0126047 -4.12069
7826 1 36.1671 28.2912 39.7554 3 0.0108747 -4.11667
7827 1 38.6031 28.3672 39.739 3 0.0118046 -4.12298
7828 1 37.794 28.342 37.4122 3 0.0117188 -4.12211
7829 1 40.2349 28.3979 37.3907 3 0.00848892 -4.1156
7830 1 39.4174 28.3848 35.0676 3 0.0101215 -4.1172
7831 1 41.8729 28.4167 35.0448 3 0.00483509 -4.11549
7832 1 41.0525 28.4085 32.7205 3 0.00657172 -4.11542
7833 1 43.5187 28.4297 32.7017 3 0.00297164 -4.11672
7834 1 42.6955 28.4237 30.3758 3 0.00380236 -4.11608
7835 1 45.1697 28.4391 30.3607 3 0.00177465 -4.11755
7836 1 44.3435 28.4347 28.0339 3 0.00224084 -4.11713
7837 1 46.8241 28.4459 28.0215 3 0.00108856 -4.11827
7838 1 45.9964 28.4428 25.6939 3 0.00140198 -4.11796
7839 1 48.4817 28.4509 25.6835 3 0.00070721 -4.1188
7840 1 47.6526 28.4486 23.3553 3 0.000876386 -4.11854
7841 1 50.1415 28.4544 23.3464 3 0.000468853 -4.11918
7842 1 49.3113 28.4528 21.0178 3 0.000568438 -4.119
7843 1 51.8031 28.4568 21.01 3 0.000324049 -4.1195
7844 1 50.9721 28.4557 18.6811 3 0.000389026 -4.11935
7845 1 53.4661 28.4583 18.6741 3 0.000235341 -4.11973
7846 1 52.6344 28.4577 16.345 3 0.000274991 -4.11962
7847 1 55.1301 28.4593 16.3387 3 0.000177766 -4.11992
7848 1 54.298 28.4589 14.0093 3 0.000203071 -4.11983
7849 1 56.795 28.4599 14.0035 3 0.000140466 -4.12007
7850 1 55.9624 28.4596 11.674 3 0.000157242 -4.12
7851 1 58.4605 28.4601 11.6685 3 0.0001163 -4.12018
7852 1 57.6276 28.46 9.33893 3 0.000127086 -4.12013
7853 1 60.1264 28.4603 9.3337 3 0.00010083 -4.12026
7854 1 59.2934 28.4602 7.00405 3 0.000107615 -4.12022
7855 1 61.7927 28.4603 6.999 3 9.16039e-05 -4.12031
7856 1 60.9595 28.4603 4.66929 3 9.55617e-05 -4.12029
7857 1 63.4591 28.4603 4.66436 3 8.7341e-05 -4.12034
7858 1 62.6259 28.4603 2.33463 3 8.89242e-05 -4.12033
7859 1 32.9633 26.1714 47.811 3 0.00960164 -4.11429
7860 1 35.4079 26.2327 47.8604 3 0.00356947 -4.12193
7861 1 34.5928 26.2083 45.5168 3 0.00443349 -4.12078
7862 1 37.0379 26.2828 45.5427 3 0.00270402 -4.12349
7863 1 36.2237 26.2585 43.2058 3 0.00322313 -4.12373
7864 1 38.6707 26.3231 43.213 3 0.00253655 -4.12157
7865 1 37.8538 26.3041 40.8816 3 0.00259635 -4.12219
7866 1 40.3044 26.356 40.8794 3 0.00242576 -4.12132
7867 1 39.4867 26.3415 38.5501 3 0.00249975 -4.12221
7868 1 41.943 26.378 38.5415 3 0.00186971 -4.12017
7869 1 41.1234 26.3679 36.2136 3 0.00221009 -4.12044
7870 1 43.5858 26.3934 36.2024 3 0.00138945 -4.11976
7871 1 42.7639 26.3863 33.8749 3 0.00161523 -4.11988
7872 1 45.2321 26.4047 33.8635 3 0.00102489 -4.11984
7873 1 44.4085 26.3995 31.5359 3 0.00119292 -4.11984
7874 1 46.8814 26.4129 31.5251 3 0.000743912 -4.11996
7875 1 46.0564 26.4091 29.1972 3 0.000872325 -4.11987
7876 1 48.5333 26.4189 29.1872 3 0.000535789 -4.12007
7877 1 47.7071 26.4161 26.859 3 0.000632901 -4.12001
7878 1 50.1874 26.4232 26.8498 3 0.000387257 -4.12021
7879 1 49.3601 26.4212 24.5214 3 0.000455557 -4.12015
7880 1 51.8432 26.4263 24.5129 3 0.000280837 -4.12034
7881 1 51.0151 26.4249 22.1843 3 0.000328903 -4.12028
7882 1 53.5005 26.4283 22.1764 3 0.000205992 -4.12045
7883 1 52.6717 26.4274 19.8476 3 0.000240231 -4.1204
7884 1 55.159 26.4297 19.8402 3 0.000154012 -4.12056
7885 1 54.3296 26.4291 17.5112 3 0.000177741 -4.12051
7886 1 56.8184 26.4306 17.5042 3 0.000117893 -4.12064
7887 1 55.9886 26.4302 15.1751 3 0.000134239 -4.1206
7888 1 58.4786 26.4311 15.1684 3 9.31828e-05 -4.12071
7889 1 57.6484 26.4309 12.8393 3 0.000104313 -4.12068
7890 1 60.1393 26.4314 12.8328 3 7.68698e-05 -4.12076
7891 1 59.3089 26.4313 10.5036 3 8.41623e-05 -4.12073
7892 1 61.8004 26.4316 10.4973 3 6.69749e-05 -4.12079
7893 1 60.9698 26.4315 8.168 3 7.11953e-05 -4.12078
7894 1 63.4617 26.4316 8.16182 3 6.2287e-05 -4.12081
7895 1 62.631 26.4316 5.8325 3 6.40226e-05 -4.1208
7896 1 36.2504 24.2304 46.6735 3 0.00103223 -4.12292
7897 1 38.7073 24.2866 46.6881 3 0.000942039 -4.12252
7898 1 37.8882 24.2694 44.3535 3 0.000890561 -4.12299
7899 1 40.3459 24.3164 44.3603 3 0.000884572 -4.12224
7900 1 39.5267 24.302 42.0275 3 0.000915784 -4.12218
7901 1 41.9866 24.339 42.0285 3 0.000793814 -4.12154
7902 1 41.1659 24.3286 39.6978 3 0.000852825 -4.12188
7903 1 43.6293 24.3557 39.6941 3 0.000623091 -4.12114
7904 1 42.8076 24.348 37.3645 3 0.000697935 -4.12134
7905 1 45.2745 24.368 37.3583 3 0.00049893 -4.12096
7906 1 44.4517 24.3623 35.0292 3 0.000559055 -4.12101
7907 1 46.9217 24.3772 35.0218 3 0.000400063 -4.12086
7908 1 46.0979 24.373 32.6931 3 0.000447393 -4.12091
7909 1 48.5708 24.3841 32.6852 3 0.000315312 -4.12084
7910 1 47.7461 24.3809 30.3565 3 0.00035533 -4.12085
7911 1 50.2216 24.3891 30.3486 3 0.000245271 -4.12085
7912 1 49.396 24.3868 28.0199 3 0.000278721 -4.12084
7913 1 51.8738 24.3927 28.012 3 0.000188817 -4.12087
7914 1 51.0475 24.391 25.6833 3 0.000215508 -4.12085
7915 1 53.5272 24.3953 25.6756 3 0.000144175 -4.1209
7916 1 52.7004 24.3941 23.3468 3 0.000165048 -4.12088
7917 1 55.1817 24.3971 23.3393 3 0.000109773 -4.12094
7918 1 54.3544 24.3963 21.0104 3 0.000125794 -4.12092
7919 1 56.8371 24.3983 21.0031 3 8.38841e-05 -4.12097
7920 1 56.0093 24.3978 18.6741 3 9.58963e-05 -4.12096
7921 1 58.4931 24.3991 18.667 3 6.50271e-05 -4.12101
7922 1 57.665 24.3987 16.338 3 7.36744e-05 -4.12099
7923 1 60.1497 24.3996 16.331 3 5.19585e-05 -4.12103
7924 1 59.3213 24.3994 14.0019 3 5.7818e-05 -4.12102
7925 1 61.8066 24.3999 13.995 3 4.36992e-05 -4.12105
7926 1 60.9781 24.3997 11.6659 3 4.72763e-05 -4.12104
7927 1 63.4638 24.4 11.6591 3 3.97215e-05 -4.12106
7928 1 62.6352 24.3999 9.33001 3 4.12123e-05 -4.12106
7929 1 37.9079 22.2388 47.831 3 0.000390738 -4.12272
7930 1 40.3713 22.28 47.841 3 0.000399913 -4.12228
7931 1 39.5501 22.2675 45.5071 3 0.000400036 -4.12247
7932 1 42.0139 22.3016 45.5125 3 0.000368054 -4.12203
7933 1 41.1924 22.2915 43.1801 3 0.000385065 -4.12223
7934 1 43.6578 22.3183 43.1814 3 0.000309049 -4.1217
7935 1 42.8357 22.3105 40.8502 3 0.000344028 -4.12184
7936 1 45.3029 22.3309 40.8484 3 0.000252583 -4.12146
7937 1 44.4802 22.325 38.5181 3 0.000278697 -4.12156
7938 1 46.9494 22.3405 38.5142 3 0.000207491 -4.12133
7939 1 46.126 22.3361 36.1844 3 0.000228489 -4.12139
7940 1 48.5972 22.3478 36.1792 3 0.000170843 -4.12124
7941 1 47.7732 22.3444 33.8497 3 0.000188621 -4.12127
7942 1 50.2461 22.3532 33.8438 3 0.000139139 -4.12119
7943 1 49.4215 22.3507 31.5145 3 0.000154376 -4.12121
7944 1 51.8961 22.3572 31.5081 3 0.000111557 -4.12116
7945 1 51.071 22.3554 29.1789 3 0.000124819 -4.12117
7946 1 53.547 22.3602 29.1722 3 8.81848e-05 -4.12115
7947 1 52.7214 22.3588 26.8431 3 9.93764e-05 -4.12115
7948 1 55.1988 22.3623 26.8362 3 6.86729e-05 -4.12115
7949 1 54.3728 22.3613 24.5072 3 7.79472e-05 -4.12115
7950 1 56.8512 22.3637 24.5002 3 5.29814e-05 -4.12115
7951 1 56.0249 22.3631 22.1712 3 6.03627e-05 -4.12115
7952 1 58.5042 22.3647 22.1642 3 4.08571e-05 -4.12116
7953 1 57.6776 22.3643 19.8352 3 4.64865e-05 -4.12116
7954 1 60.1577 22.3654 19.8282 3 3.19742e-05 -4.12117
7955 1 59.3309 22.3651 17.4992 3 3.60295e-05 -4.12116
7956 1 61.8114 22.3658 17.4922 3 2.6215e-05 -4.12118
7957 1 60.9845 22.3656 15.1632 3 2.87085e-05 -4.12117
7958 1 63.4654 22.3659 15.1562 3 2.33734e-05 -4.12118
7959 1 62.6384 22.3659 12.8271 3 2.44366e-05 -4.12118
7960 1 41.2089 20.2571 46.6637 3 0.000195796 -4.12225
7961 1 43.6763 20.2819 46.6677 3 0.000168778 -4.12192
7962 1 42.8537 20.2746 44.3356 3 0.000180503 -4.12205
7963 1 45.3219 20.2942 44.3367 3 0.000139213 -4.12171
7964 1 44.499 20.2884 42.0054 3 0.000153538 -4.12181
7965 1 46.9682 20.3036 42.0043 3 0.000114314 -4.12156
7966 1 46.1449 20.2992 39.6736 3 0.000126253 -4.12162
7967 1 48.6154 20.3109 39.6708 3 9.4415e-05 -4.12145
7968 1 47.7917 20.3075 37.3406 3 0.000103818 -4.1215
7969 1 50.2633 20.3164 37.3367 3 7.78494e-05 -4.12137
7970 1 49.4392 20.3138 35.0068 3 8.58048e-05 -4.1214
7971 1 51.9119 20.3205 35.002 3 6.35758e-05 -4.12131
7972 1 51.0875 20.3186 32.6723 3 7.04686e-05 -4.12134
7973 1 53.5612 20.3236 32.6669 3 5.11013e-05 -4.12128
7974 1 52.7365 20.3222 30.3374 3 5.71186e-05 -4.12129
7975 1 55.2111 20.3259 30.3316 3 4.03573e-05 -4.12125
7976 1 54.3861 20.3248 28.0022 3 4.55093e-05 -4.12126
7977 1 56.8615 20.3275 27.9961 3 3.13502e-05 -4.12124
7978 1 56.0362 20.3268 25.6668 3 3.5656e-05 -4.12125
7979 1 58.5124 20.3286 25.6604 3 2.40917e-05 -4.12123
7980 1 57.6869 20.3281 23.3312 3 2.74791e-05 -4.12124
7981 1 60.1635 20.3294 23.3247 3 1.86231e-05 -4.12123
7982 1 59.3379 20.329 20.9955 3 2.11354e-05 -4.12123
7983 1 61.815 20.3298 20.9889 3 1.49752e-05 -4.12123
7984 1 60.9892 20.3296 18.6598 3 1.6574e-05 -4.12123
7985 1 63.4666 20.3301 18.6531 3 1.31439e-05 -4.12123
7986 1 62.6408 20.33 16.324 3 1.38356e-05 -4.12123
7987 1 42.865 18.2403 47.822 3 0.000103086 -4.12212
7988 1 45.3342 18.2581 47.8248 3 8.36506e-05 -4.12184
7989 1 44.5111 18.2528 45.4929 3 9.14508e-05 -4.12193
7990 1 46.9807 18.2669 45.4937 3 6.88321e-05 -4.12169
7991 1 46.1574 18.2628 43.1624 3 7.59839e-05 -4.12176
7992 1 48.6276 18.2738 43.1615 3 5.62216e-05 -4.12156
7993 1 47.8041 18.2706 40.8306 3 6.21674e-05 -4.12162
7994 1 50.275 18.2791 40.8284 3 4.59492e-05 -4.12147
7995 1 49.4512 18.2766 38.498 3 5.08623e-05 -4.12151
7996 1 51.9228 18.2831 38.4947 3 3.74029e-05 -4.1214
7997 1 51.0988 18.2813 36.1646 3 4.14974e-05 -4.12143
7998 1 53.571 18.2862 36.1604 3 3.00528e-05 -4.12135
7999 1 52.7469 18.2848 33.8306 3 3.35796e-05 -4.12137
8000 1 55.2197 18.2884 33.8258 3 2.37711e-05 -4.12131
8001 1 54.3953 18.2874 31.4961 3 2.67886e-05 -4.12133
8002 1 56.8688 18.2901 31.491 3 1.84107e-05 -4.12128
8003 1 56.0442 18.2893 29.1614 3 2.09722e-05 -4.12129
8004 1 58.5181 18.2913 29.1559 3 1.40407e-05 -4.12126
8005 1 57.6934 18.2907 26.8264 3 1.61087e-05 -4.12127
8006 1 60.1677 18.2921 26.8207 3 1.06657e-05 -4.12125
8007 1 59.3429 18.2917 24.4912 3 1.22128e-05 -4.12126
8008 1 61.8175 18.2925 24.4853 3 8.38125e-06 -4.12124
8009 1 60.9926 18.2923 22.156 3 9.39266e-06 -4.12125
8010 1 63.4674 18.2928 22.15 3 7.23823e-06 -4.12124
8011 1 62.6425 18.2927 19.8206 3 7.66159e-06 -4.12124
8012 1 46.1653 16.227 46.6516 3 4.97277e-05 -4.12184
8013 1 48.6355 16.2369 46.6519 3 3.6764e-05 -4.12164
8014 1 47.8121 16.234 44.3207 3 4.08175e-05 -4.1217
8015 1 50.2826 16.2417 44.3197 3 2.96514e-05 -4.12153
8016 1 49.459 16.2394 41.9889 3 3.3033e-05 -4.12158
8017 1 51.93 16.2454 41.9869 3 2.38271e-05 -4.12145
8018 1 51.1063 16.2436 39.6563 3 2.66114e-05 -4.12149
8019 1 53.5776 16.2482 39.6534 3 1.89217e-05 -4.12139
8020 1 52.7537 16.2469 37.3231 3 2.12736e-05 -4.12142
8021 1 55.2255 16.2503 37.3196 3 1.47552e-05 -4.12134
8022 1 54.4015 16.2493 34.9895 3 1.67508e-05 -4.12136
8023 1 56.8736 16.2519 34.9854 3 1.12736e-05 -4.1213
8024 1 56.0495 16.2512 32.6554 3 1.29271e-05 -4.12132
8025 1 58.522 16.253 32.6509 3 8.44024e-06 -4.12128
8026 1 57.6978 16.2525 30.3211 3 9.78719e-06 -4.12129
8027 1 60.1705 16.2538 30.3163 3 6.22844e-06 -4.12126
8028 1 59.3463 16.2534 27.9866 3 7.24539e-06 -4.12126
8029 1 61.8192 16.2543 27.9815 3 4.73587e-06 -4.12125
8030 1 60.9949 16.254 25.6519 3 5.3944e-06 -4.12125
8031 1 63.468 16.2545 25.6467 3 3.9781e-06 -4.12124
8032 1 62.6436 16.2544 23.3171 3 4.25859e-06 -4.12124
8033 1 47.8167 14.1977 47.8113 3 2.92764e-05 -4.12175
8034 1 50.2871 14.2042 47.8112 3 2.11522e-05 -4.12158
8035 1 49.4636 14.2023 45.4801 3 2.36476e-05 -4.12163
8036 1 51.9343 14.2074 45.479 3 1.67473e-05 -4.12149
8037 1 51.1107 14.2059 43.1481 3 1.88353e-05 -4.12153
8038 1 53.5816 14.2099 43.1462 3 1.30888e-05 -4.12141
8039 1 52.7579 14.2087 40.8156 3 1.48334e-05 -4.12145
8040 1 55.229 14.2117 40.813 3 1.00079e-05 -4.12135
8041 1 54.4053 14.2109 38.4826 3 1.14808e-05 -4.12138
8042 1 56.8766 14.2131 38.4795 3 7.47029e-06 -4.12131
8043 1 56.0528 14.2125 36.1493 3 8.67982e-06 -4.12133
8044 1 58.5244 14.2141 36.1457 3 5.39305e-06 -4.12128
8045 1 57.7005 14.2137 33.8156 3 6.36415e-06 -4.12129
8046 1 60.1723 14.2148 33.8117 3 3.83512e-06 -4.12126
8047 1 59.3483 14.2145 31.4817 3 4.55723e-06 -4.12127
8048 1 61.8203 14.2153 31.4776 3 2.76884e-06 -4.12124
8049 1 60.9963 14.2151 29.1477 3 3.23214e-06 -4.12125
8050 1 63.4683 14.2155 29.1435 3 2.23758e-06 -4.12124
8051 1 62.6443 14.2154 26.8135 3 2.44038e-06 -4.12124
8052 1 51.1126 12.1683 46.6403 3 1.50383e-05 -4.12155
8053 1 53.5834 12.1715 46.6391 3 1.0204e-05 -4.12143
8054 1 52.7597 12.1705 44.3082 3 1.16842e-05 -4.12147
8055 1 55.2306 12.173 44.3065 3 7.64719e-06 -4.12137
8056 1 54.407 12.1723 41.9758 3 8.86561e-06 -4.1214
8057 1 56.878 12.1741 41.9736 3 5.54986e-06 -4.12132
8058 1 56.0543 12.1736 39.643 3 6.53893e-06 -4.12134
8059 1 58.5255 12.1749 39.6404 3 3.88782e-06 -4.12128
8060 1 57.7018 12.1745 37.31 3 4.66645e-06 -4.1213
8061 1 60.1731 12.1755 37.3071 3 2.63711e-06 -4.12126
8062 1 59.3493 12.1752 34.9767 3 3.21513e-06 -4.12127
8063 1 61.8208 12.1759 34.9737 3 1.80395e-06 -4.12124
8064 1 60.997 12.1757 32.6433 3 2.16766e-06 -4.12125
8065 1 63.4685 12.176 32.6402 3 1.39442e-06 -4.12123
8066 1 62.6447 12.176 30.3099 3 1.54489e-06 -4.12124
8067 1 52.7595 10.1324 47.8011 3 1.07709e-05 -4.12148
8068 1 55.2306 10.1341 47.8 3 6.83214e-06 -4.12137
8069 1 54.4069 10.1336 45.469 3 8.00336e-06 -4.1214
8070 1 56.8781 10.1349 45.4676 3 4.85968e-06 -4.12132
8071 1 56.0543 10.1346 43.1368 3 5.78122e-06 -4.12135
8072 1 58.5256 10.1355 43.1351 3 3.34687e-06 -4.12129
8073 1 57.7018 10.1353 40.8043 3 4.052e-06 -4.12131
8074 1 60.1732 10.136 40.8024 3 2.24957e-06 -4.12126
8075 1 59.3494 10.1358 38.4717 3 2.74922e-06 -4.12127
8076 1 61.8209 10.1362 38.4697 3 1.53108e-06 -4.12125
8077 1 60.997 10.1361 36.139 3 1.8446e-06 -4.12125
8078 1 63.4685 10.1364 36.1369 3 1.17498e-06 -4.12124
8079 1 62.6447 10.1363 33.8062 3 1.30774e-06 -4.12124
8080 1 56.0528 8.09567 46.6306 3 6.20256e-06 -4.12232
8081 1 58.5246 8.09619 46.6297 3 3.58431e-06 -4.12229
8082 1 57.7006 8.09604 44.2987 3 4.31279e-06 -4.1223
8083 1 60.1725 8.09642 44.2977 3 2.50178e-06 -4.12228
8084 1 59.3485 8.09632 41.9667 3 2.9817e-06 -4.12229
8085 1 61.8204 8.09656 41.9656 3 1.82514e-06 -4.12227
8086 1 60.9965 8.0965 39.6346 3 2.11595e-06 -4.12228
8087 1 63.4684 8.09664 39.6335 3 1.50246e-06 -4.12227
8088 1 62.6444 8.09661 37.3025 3 1.6245e-06 -4.12227
8089 1 57.6983 6.05706 47.7929 3 0.0008228 -4.12211
8090 1 60.1711 6.05706 47.7929 3 0.000837583 -4.12209
8091 1 59.3468 6.05706 45.4616 3 0.00083369 -4.1221
8092 1 61.8196 6.05706 45.4616 3 0.000842842 -4.12208
8093 1 60.9953 6.05706 43.1302 3 0.000840622 -4.12209
8094 1 63.4681 6.05706 43.1302 3 0.000845304 -4.12208
8095 1 62.6439 6.05706 40.7989 3 0.000844393 -4.12208
8096 1 60.9953 4.03804 46.6273 3 1.0169e-16 -4.12139
8097 1 63.4681 4.03804 46.6273 3 2.473e-17 -4.12138
8098 1 62.6439 4.03804 44.2959 3 5.76e-18 -4.12138
8099 1 62.6439 2.01902 47.7929 3 1.083e-17 -4.10627
8100 1 32.892 30.2303 47.8953 5 3.42045 -3.89887
8101 1 35.263 30.3016 47.997 5 4.50623 -3.98757
8102 1 34.4771 30.2835 45.6557 5 4.18412 -3.97113
8103 1 36.868 30.3474 45.6202 3 5.11537 -4.00147
8104 1 36.0733 30.3187 43.3193 5 4.75702 -3.99009
8105 1 38.472 30.414 43.2307 3 0.0954364 -4.05808
8106 1 37.6547 30.3951 40.9251 3 0.167103 -4.03237
8107 1 40.1062 30.4356 40.8711 3 0.0215462 -4.09544
8108 1 39.2891 30.4266 38.5514 3 0.0487191 -4.07866
8109 1 41.7604 30.4496 38.5232 3 0.00806511 -4.10618
8110 1 40.9335 30.4432 36.1988 3 0.0130334 -4.10166
8111 1 43.4188 30.4599 36.1807 3 0.00325419 -4.11174
8112 1 42.5877 30.455 33.8546 3 0.00467582 -4.10997
8113 1 45.0814 30.4677 33.8415 3 0.00152376 -4.11468
8114 1 44.2499 30.4641 31.5138 3 0.00225363 -4.11327
8115 1 46.7476 30.4737 31.5041 3 0.000873927 -4.11615
8116 1 45.9144 30.4709 29.1755 3 0.00115263 -4.11545
8117 1 48.4152 30.478 29.1679 3 0.000536516 -4.11718
8118 1 47.581 30.476 26.8389 3 0.000663448 -4.11678
8119 1 50.0841 30.481 26.8325 3 0.000360429 -4.11788
8120 1 49.2495 30.4796 24.5031 3 0.00043741 -4.11755
8121 1 51.7541 30.483 24.4977 3 0.000264672 -4.11835
8122 1 50.919 30.4821 22.168 3 0.000307261 -4.11813
8123 1 53.4247 30.4843 22.1633 3 0.000205009 -4.11871
8124 1 52.5893 30.4837 19.8334 3 0.000230689 -4.11855
8125 1 55.0959 30.485 19.8292 3 0.000166986 -4.11899
8126 1 54.2602 30.4847 17.4992 3 0.000184032 -4.11886
8127 1 56.7675 30.4854 17.4953 3 0.00014236 -4.11919
8128 1 55.9316 30.4852 15.1652 3 0.000153492 -4.1191
8129 1 58.4394 30.4855 15.1615 3 0.00012591 -4.11935
8130 1 57.6034 30.4855 12.8313 3 0.000133238 -4.11928
8131 1 60.1115 30.4855 12.8279 3 0.00011515 -4.11946
8132 1 59.2754 30.4855 10.4977 3 0.000119916 -4.11941
8133 1 61.7838 30.4855 10.4943 3 0.000108707 -4.11953
8134 1 60.9476 30.4855 8.16407 3 0.000111484 -4.1195
8135 1 63.4562 30.4855 8.16084 3 0.000105686 -4.11957
8136 1 62.62 30.4855 5.83054 3 0.000106788 -4.11955
8137 1 36.1671 28.2912 46.7495 3 0.0108747 -4.11667
8138 1 38.6031 28.3672 46.7331 3 0.0118046 -4.12298
8139 1 37.794 28.342 44.4063 3 0.0117188 -4.12211
8140 1 40.2349 28.3979 44.3848 3 0.00848892 -4.1156
8141 1 39.4174 28.3848 42.0616 3 0.0101215 -4.1172
8142 1 41.8729 28.4167 42.0388 3 0.00483509 -4.11549
8143 1 41.0525 28.4085 39.7146 3 0.00657172 -4.11542
8144 1 43.5187 28.4297 39.6958 3 0.00297164 -4.11672
8145 1 42.6955 28.4237 37.3699 3 0.00380236 -4.11608
8146 1 45.1697 28.4391 37.3548 3 0.00177465 -4.11755
8147 1 44.3435 28.4347 35.028 3 0.00224084 -4.11713
8148 1 46.8241 28.4459 35.0155 3 0.00108856 -4.11827
8149 1 45.9964 28.4428 32.688 3 0.00140198 -4.11796
8150 1 48.4817 28.4509 32.6776 3 0.00070721 -4.1188
8151 1 47.6526 28.4486 30.3494 3 0.000876386 -4.11854
8152 1 50.1415 28.4544 30.3405 3 0.000468853 -4.11918
8153 1 49.3113 28.4528 28.0119 3 0.000568438 -4.119
8154 1 51.8031 28.4568 28.0041 3 0.000324049 -4.1195
8155 1 50.9721 28.4557 25.6752 3 0.000389026 -4.11935
8156 1 53.4661 28.4583 25.6682 3 0.000235341 -4.11973
8157 1 52.6344 28.4577 23.3391 3 0.000274991 -4.11962
8158 1 55.1301 28.4593 23.3328 3 0.000177766 -4.11992
8159 1 54.298 28.4589 21.0034 3 0.000203071 -4.11983
8160 1 56.795 28.4599 20.9976 3 0.000140466 -4.12007
8161 1 55.9624 28.4596 18.6681 3 0.000157242 -4.12
8162 1 58.4605 28.4601 18.6626 3 0.0001163 -4.12018
8163 1 57.6276 28.46 16.333 3 0.000127086 -4.12013
8164 1 60.1264 28.4603 16.3278 3 0.00010083 -4.12026
8165 1 59.2934 28.4602 13.9981 3 0.000107615 -4.12022
8166 1 61.7927 28.4603 13.9931 3 9.16039e-05 -4.12031
8167 1 60.9595 28.4603 11.6634 3 9.55617e-05 -4.12029
8168 1 63.4591 28.4603 11.6584 3 8.7341e-05 -4.12034
8169 1 62.6259 28.4603 9.32872 3 8.89242e-05 -4.12033
8170 1 37.8538 26.3041 47.8757 3 0.00259635 -4.12219
8171 1 40.3044 26.356 47.8735 3 0.00242576 -4.12132
8172 1 39.4867 26.3415 45.5442 3 0.00249975 -4.12221
8173 1 41.943 26.378 45.5356 3 0.00186971 -4.12017
8174 1 41.1234 26.3679 43.2077 3 0.00221009 -4.12044
8175 1 43.5858 26.3934 43.1965 3 0.00138945 -4.11976
8176 1 42.7639 26.3863 40.869 3 0.00161523 -4.11988
8177 1 45.2321 26.4047 40.8576 3 0.00102489 -4.11984
8178 1 44.4085 26.3995 38.53 3 0.00119292 -4.11984
8179 1 46.8814 26.4129 38.5192 3 0.000743912 -4.11996
8180 1 46.0564 26.4091 36.1913 3 0.000872325 -4.11987
8181 1 48.5333 26.4189 36.1813 3 0.000535789 -4.12007
8182 1 47.7071 26.4161 33.8531 3 0.000632901 -4.12001
8183 1 50.1874 26.4232 33.8439 3 0.000387257 -4.12021
8184 1 49.3601 26.4212 31.5155 3 0.000455557 -4.12015
8185 1 51.8432 26.4263 31.507 3 0.000280837 -4.12034
8186 1 51.0151 26.4249 29.1784 3 0.000328903 -4.12028
8187 1 53.5005 26.4283 29.1705 3 0.000205992 -4.12045
8188 1 52.6717 26.4274 26.8417 3 0.000240231 -4.1204
8189 1 55.159 26.4297 26.8343 3 0.000154012 -4.12056
8190 1 54.3296 26.4291 24.5053 3 0.000177741 -4.12051
8191 1 56.8184 26.4306 24.4983 3 0.000117893 -4.12064
8192 1 55.9886 26.4302 22.1692 3 0.000134239 -4.1206
8193 1 58.4786 26.4311 22.1625 3 9.31828e-05 -4.12071
8194 1 57.6484 26.4309 19.8334 3 0.000104313 -4.12068
8195 1 60.1393 26.4314 19.8269 3 7.68698e-05 -4.12076
8196 1 59.3089 26.4313 17.4977 3 8.41623e-05 -4.12073
8197 1 61.8004 26.4316 17.4914 3 6.69749e-05 -4.12079
8198 1 60.9698 26.4315 15.1621 3 7.11953e-05 -4.12078
8199 1 63.4617 26.4316 15.1559 3 6.2287e-05 -4.12081
8200 1 62.631 26.4316 12.8266 3 6.40226e-05 -4.1208
8201 1 41.1659 24.3286 46.6918 3 0.000852825 -4.12188
8202 1 43.6293 24.3557 46.6882 3 0.000623091 -4.12114
8203 1 42.8076 24.348 44.3586 3 0.000697935 -4.12134
8204 1 45.2745 24.368 44.3524 3 0.00049893 -4.12096
8205 1 44.4517 24.3623 42.0233 3 0.000559055 -4.12101
8206 1 46.9217 24.3772 42.0159 3 0.000400063 -4.12086
8207 1 46.0979 24.373 39.6871 3 0.000447393 -4.12091
8208 1 48.5708 24.3841 39.6793 3 0.000315312 -4.12084
8209 1 47.7461 24.3809 37.3506 3 0.00035533 -4.12085
8210 1 50.2216 24.3891 37.3427 3 0.000245271 -4.12085
8211 1 49.396 24.3868 35.0139 3 0.000278721 -4.12084
8212 1 51.8738 24.3927 35.0061 3 0.000188817 -4.12087
8213 1 51.0475 24.391 32.6773 3 0.000215508 -4.12085
8214 1 53.5272 24.3953 32.6697 3 0.000144175 -4.1209
8215 1 52.7004 24.3941 30.3409 3 0.000165048 -4.12088
8216 1 55.1817 24.3971 30.3334 3 0.000109773 -4.12094
8217 1 54.3544 24.3963 28.0045 3 0.000125794 -4.12092
8218 1 56.8371 24.3983 27.9972 3 8.38841e-05 -4.12097
8219 1 56.0093 24.3978 25.6682 3 9.58963e-05 -4.12096
8220 1 58.4931 24.3991 25.6611 3 6.50271e-05 -4.12101
8221 1 57.665 24.3987 23.3321 3 7.36744e-05 -4.12099
8222 1 60.1497 24.3996 23.3251 3 5.19585e-05 -4.12103
8223 1 59.3213 24.3994 20.996 3 5.7818e-05 -4.12102
8224 1 61.8066 24.3999 20.9891 3 4.36992e-05 -4.12105
8225 1 60.9781 24.3997 18.66 3 4.72763e-05 -4.12104
8226 1 63.4638 24.4 18.6532 3 3.97215e-05 -4.12106
8227 1 62.6352 24.3999 16.3241 3 4.12123e-05 -4.12106
8228 1 42.8357 22.3105 47.8443 3 0.000344028 -4.12184
8229 1 45.3029 22.3309 47.8425 3 0.000252583 -4.12146
8230 1 44.4802 22.325 45.5122 3 0.000278697 -4.12156
8231 1 46.9494 22.3405 45.5083 3 0.000207491 -4.12133
8232 1 46.126 22.3361 43.1785 3 0.000228489 -4.12139
8233 1 48.5972 22.3478 43.1733 3 0.000170843 -4.12124
8234 1 47.7732 22.3444 40.8438 3 0.000188621 -4.12127
8235 1 50.2461 22.3532 40.8379 3 0.000139139 -4.12119
8236 1 49.4215 22.3507 38.5086 3 0.000154376 -4.12121
8237 1 51.8961 22.3572 38.5022 3 0.000111557 -4.12116
8238 1 51.071 22.3554 36.173 3 0.000124819 -4.12117
8239 1 53.547 22.3602 36.1663 3 8.81848e-05 -4.12115
8240 1 52.7214 22.3588 33.8372 3 9.93764e-05 -4.12115
8241 1 55.1988 22.3623 33.8303 3 6.86729e-05 -4.12115
8242 1 54.3728 22.3613 31.5013 3 7.79472e-05 -4.12115
8243 1 56.8512 22.3637 31.4943 3 5.29814e-05 -4.12115
8244 1 56.0249 22.3631 29.1653 3 6.03627e-05 -4.12115
8245 1 58.5042 22.3647 29.1583 3 4.08571e-05 -4.12116
8246 1 57.6776 22.3643 26.8293 3 4.64865e-05 -4.12116
8247 1 60.1577 22.3654 26.8223 3 3.19742e-05 -4.12117
8248 1 59.3309 22.3651 24.4933 3 3.60295e-05 -4.12116
8249 1 61.8114 22.3658 24.4863 3 2.6215e-05 -4.12118
8250 1 60.9845 22.3656 22.1573 3 2.87085e-05 -4.12117
8251 1 63.4654 22.3659 22.1503 3 2.33734e-05 -4.12118
8252 1 62.6384 22.3659 19.8212 3 2.44366e-05 -4.12118
8253 1 46.1449 20.2992 46.6677 3 0.000126253 -4.12162
8254 1 48.6154 20.3109 46.6649 3 9.4415e-05 -4.12145
8255 1 47.7917 20.3075 44.3347 3 0.000103818 -4.1215
8256 1 50.2633 20.3164 44.3308 3 7.78494e-05 -4.12137
8257 1 49.4392 20.3138 42.0009 3 8.58048e-05 -4.1214
8258 1 51.9119 20.3205 41.9961 3 6.35758e-05 -4.12131
8259 1 51.0875 20.3186 39.6664 3 7.04686e-05 -4.12134
8260 1 53.5612 20.3236 39.661 3 5.11013e-05 -4.12128
8261 1 52.7365 20.3222 37.3315 3 5.71186e-05 -4.12129
8262 1 55.2111 20.3259 37.3257 3 4.03573e-05 -4.12125
8263 1 54.3861 20.3248 34.9963 3 4.55093e-05 -4.12126
8264 1 56.8615 20.3275 34.9901 3 3.13502e-05 -4.12124
8265 1 56.0362 20.3268 32.6609 3 3.5656e-05 -4.12125
8266 1 58.5124 20.3286 32.6545 3 2.40917e-05 -4.12123
8267 1 57.6869 20.3281 30.3253 3 2.74791e-05 -4.12124
8268 1 60.1635 20.3294 30.3188 3 1.86231e-05 -4.12123
8269 1 59.3379 20.329 27.9896 3 2.11354e-05 -4.12123
8270 1 61.815 20.3298 27.983 3 1.49752e-05 -4.12123
8271 1 60.9892 20.3296 25.6539 3 1.6574e-05 -4.12123
8272 1 63.4666 20.3301 25.6472 3 1.31439e-05 -4.12123
8273 1 62.6408 20.33 23.3181 3 1.38356e-05 -4.12123
8274 1 47.8041 18.2706 47.8247 3 6.21674e-05 -4.12162
8275 1 50.275 18.2791 47.8225 3 4.59492e-05 -4.12147
8276 1 49.4512 18.2766 45.4921 3 5.08623e-05 -4.12151
8277 1 51.9228 18.2831 45.4888 3 3.74029e-05 -4.1214
8278 1 51.0988 18.2813 43.1586 3 4.14974e-05 -4.12143
8279 1 53.571 18.2862 43.1545 3 3.00528e-05 -4.12135
8280 1 52.7469 18.2848 40.8247 3 3.35796e-05 -4.12137
8281 1 55.2197 18.2884 40.8199 3 2.37711e-05 -4.12131
8282 1 54.3953 18.2874 38.4902 3 2.67886e-05 -4.12133
8283 1 56.8688 18.2901 38.4851 3 1.84107e-05 -4.12128
8284 1 56.0442 18.2893 36.1555 3 2.09722e-05 -4.12129
8285 1 58.5181 18.2913 36.15 3 1.40407e-05 -4.12126
8286 1 57.6934 18.2907 33.8205 3 1.61087e-05 -4.12127
8287 1 60.1677 18.2921 33.8148 3 1.06657e-05 -4.12125
8288 1 59.3429 18.2917 31.4853 3 1.22128e-05 -4.12126
8289 1 61.8175 18.2925 31.4794 3 8.38125e-06 -4.12124
8290 1 60.9926 18.2923 29.1501 3 9.39266e-06 -4.12125
8291 1 63.4674 18.2928 29.1441 3 7.23823e-06 -4.12124
8292 1 62.6425 18.2927 26.8147 3 7.66159e-06 -4.12124
8293 1 51.1063 16.2436 46.6504 3 2.66114e-05 -4.12149
8294 1 53.5776 16.2482 46.6475 3 1.89217e-05 -4.12139
8295 1 52.7537 16.2469 44.3172 3 2.12736e-05 -4.12142
8296 1 55.2255 16.2503 44.3136 3 1.47552e-05 -4.12134
8297 1 54.4015 16.2493 41.9836 3 1.67508e-05 -4.12136
8298 1 56.8736 16.2519 41.9794 3 1.12736e-05 -4.1213
8299 1 56.0495 16.2512 39.6495 3 1.29271e-05 -4.12132
8300 1 58.522 16.253 39.645 3 8.44024e-06 -4.12128
8301 1 57.6978 16.2525 37.3152 3 9.78719e-06 -4.12129
8302 1 60.1705 16.2538 37.3104 3 6.22844e-06 -4.12126
8303 1 59.3463 16.2534 34.9807 3 7.24539e-06 -4.12126
8304 1 61.8192 16.2543 34.9756 3 4.73587e-06 -4.12125
8305 1 60.9949 16.254 32.646 3 5.3944e-06 -4.12125
8306 1 63.468 16.2545 32.6408 3 3.9781e-06 -4.12124
8307 1 62.6436 16.2544 30.3112 3 4.25859e-06 -4.12124
8308 1 52.7579 14.2087 47.8097 3 1.48334e-05 -4.12145
8309 1 55.229 14.2117 47.8071 3 1.00079e-05 -4.12135
8310 1 54.4053 14.2109 45.4767 3 1.14808e-05 -4.12138
8311 1 56.8766 14.2131 45.4736 3 7.47029e-06 -4.12131
8312 1 56.0528 14.2125 43.1433 3 8.67982e-06 -4.12133
8313 1 58.5244 14.2141 43.1398 3 5.39305e-06 -4.12128
8314 1 57.7005 14.2137 40.8097 3 6.36415e-06 -4.12129
8315 1 60.1723 14.2148 40.8058 3 3.83512e-06 -4.12126
8316 1 59.3483 14.2145 38.4758 3 4.55723e-06 -4.12127
8317 1 61.8203 14.2153 38.4717 3 2.76884e-06 -4.12124
8318 1 60.9963 14.2151 36.1417 3 3.23214e-06 -4.12125
8319 1 63.4683 14.2155 36.1375 3 2.23758e-06 -4.12124
8320 1 62.6443 14.2154 33.8076 3 2.44038e-06 -4.12124
8321 1 56.0543 12.1736 46.6371 3 6.53893e-06 -4.12134
8322 1 58.5255 12.1749 46.6345 3 3.88782e-06 -4.12128
8323 1 57.7018 12.1745 44.3041 3 4.66645e-06 -4.1213
8324 1 60.1731 12.1755 44.3012 3 2.63711e-06 -4.12126
8325 1 59.3493 12.1752 41.9708 3 3.21513e-06 -4.12127
8326 1 61.8208 12.1759 41.9678 3 1.80395e-06 -4.12124
8327 1 60.997 12.1757 39.6374 3 2.16766e-06 -4.12125
8328 1 63.4685 12.176 39.6343 3 1.39442e-06 -4.12123
8329 1 62.6447 12.176 37.304 3 1.54489e-06 -4.12124
8330 1 57.7018 10.1353 47.7984 3 4.052e-06 -4.12131
8331 1 60.1732 10.136 47.7965 3 2.24957e-06 -4.12126
8332 1 59.3494 10.1358 45.4658 3 2.74922e-06 -4.12127
8333 1 61.8209 10.1362 45.4638 3 1.53108e-06 -4.12125
8334 1 60.997 10.1361 43.1331 3 1.8446e-06 -4.12125
8335 1 63.4685 10.1364 43.1309 3 1.17498e-06 -4.12124
8336 1 62.6447 10.1363 40.8003 3 1.30774e-06 -4.12124
8337 1 60.9965 8.0965 46.6287 3 2.11595e-06 -4.12228
8338 1 63.4684 8.09664 46.6276 3 1.50246e-06 -4.12227
8339 1 62.6444 8.09661 44.2966 3 1.6245e-06 -4.12227
8340 1 62.6439 6.05706 47.7929 3 0.000844393 -4.12208
8341 1 37.6547 30.3951 47.9192 3 0.167103 -4.03237
8342 1 40.1062 30.4356 47.8652 3 0.0215462 -4.09544
8343 1 39.2891 30.4266 45.5455 3 0.0487191 -4.07866
8344 1 41.7604 30.4496 45.5173 3 0.00806511 -4.10618
8345 1 40.9335 30.4432 43.1929 3 0.0130334 -4.10166
8346 1 43.4188 30.4599 43.1748 3 0.00325419 -4.11174
8347 1 42.5877 30.455 40.8486 3 0.00467582 -4.10997
8348 1 45.0814 30.4677 40.8356 3 0.00152376 -4.11468
8349 1 44.2499 30.4641 38.5079 3 0.00225363 -4.11327
8350 1 46.7476 30.4737 38.4982 3 0.000873927 -4.11615
8351 1 45.9144 30.4709 36.1696 3 0.00115263 -4.11545
8352 1 48.4152 30.478 36.162 3 0.000536516 -4.11718
8353 1 47.581 30.476 33.8329 3 0.000663448 -4.11678
8354 1 50.0841 30.481 33.8266 3 0.000360429 -4.11788
8355 1 49.2495 30.4796 31.4972 3 0.00043741 -4.11755
8356 1 51.7541 30.483 31.4918 3 0.000264672 -4.11835
8357 1 50.919 30.4821 29.1621 3 0.000307261 -4.11813
8358 1 53.4247 30.4843 29.1574 3 0.000205009 -4.11871
8359 1 52.5893 30.4837 26.8275 3 0.000230689 -4.11855
8360 1 55.0959 30.485 26.8233 3 0.000166986 -4.11899
8361 1 54.2602 30.4847 24.4933 3 0.000184032 -4.11886
8362 1 56.7675 30.4854 24.4894 3 0.00014236 -4.11919
8363 1 55.9316 30.4852 22.1592 3 0.000153492 -4.1191
8364 1 58.4394 30.4855 22.1556 3 0.00012591 -4.11935
8365 1 57.6034 30.4855 19.8254 3 0.000133238 -4.11928
8366 1 60.1115 30.4855 19.822 3 0.00011515 -4.11946
8367 1 59.2754 30.4855 17.4917 3 0.000119916 -4.11941
8368 1 61.7838 30.4855 17.4884 3 0.000108707 -4.11953
8369 1 60.9476 30.4855 15.1582 3 0.000111484 -4.1195
8370 1 63.4562 30.4855 15.1549 3 0.000105686 -4.11957
8371 1 62.62 30.4855 12.8246 3 0.000106788 -4.11955
8372 1 41.0525 28.4085 46.7087 3 0.00657172 -4.11542
8373 1 43.5187 28.4297 46.6898 3 0.00297164 -4.11672
8374 1 42.6955 28.4237 44.364 3 0.00380236 -4.11608
8375 1 45.1697 28.4391 44.3489 3 0.00177465 -4.11755
8376 1 44.3435 28.4347 42.022 3 0.00224084 -4.11713
8377 1 46.8241 28.4459 42.0096 3 0.00108856 -4.11827
8378 1 45.9964 28.4428 39.6821 3 0.00140198 -4.11796
8379 1 48.4817 28.4509 39.6717 3 0.00070721 -4.1188
8380 1 47.6526 28.4486 37.3435 3 0.000876386 -4.11854
8381 1 50.1415 28.4544 37.3346 3 0.000468853 -4.11918
8382 1 49.3113 28.4528 35.006 3 0.000568438 -4.119
8383 1 51.8031 28.4568 34.9982 3 0.000324049 -4.1195
8384 1 50.9721 28.4557 32.6693 3 0.000389026 -4.11935
8385 1 53.4661 28.4583 32.6623 3 0.000235341 -4.11973
8386 1 52.6344 28.4577 30.3332 3 0.000274991 -4.11962
8387 1 55.1301 28.4593 30.3268 3 0.000177766 -4.11992
8388 1 54.298 28.4589 27.9975 3 0.000203071 -4.11983
8389 1 56.795 28.4599 27.9917 3 0.000140466 -4.12007
8390 1 55.9624 28.4596 25.6622 3 0.000157242 -4.12
8391 1 58.4605 28.4601 25.6567 3 0.0001163 -4.12018
8392 1 57.6276 28.46 23.3271 3 0.000127086 -4.12013
8393 1 60.1264 28.4603 23.3219 3 0.00010083 -4.12026
8394 1 59.2934 28.4602 20.9922 3 0.000107615 -4.12022
8395 1 61.7927 28.4603 20.9872 3 9.16039e-05 -4.12031
8396 1 60.9595 28.4603 18.6575 3 9.55617e-05 -4.12029
8397 1 63.4591 28.4603 18.6525 3 8.7341e-05 -4.12034
8398 1 62.6259 28.4603 16.3228 3 8.89242e-05 -4.12033
8399 1 42.7639 26.3863 47.8631 3 0.00161523 -4.11988
8400 1 45.2321 26.4047 47.8517 3 0.00102489 -4.11984
8401 1 44.4085 26.3995 45.5241 3 0.00119292 -4.11984
8402 1 46.8814 26.4129 45.5133 3 0.000743912 -4.11996
8403 1 46.0564 26.4091 43.1854 3 0.000872325 -4.11987
8404 1 48.5333 26.4189 43.1754 3 0.000535789 -4.12007
8405 1 47.7071 26.4161 40.8472 3 0.000632901 -4.12001
8406 1 50.1874 26.4232 40.838 3 0.000387257 -4.12021
8407 1 49.3601 26.4212 38.5096 3 0.000455557 -4.12015
8408 1 51.8432 26.4263 38.5011 3 0.000280837 -4.12034
8409 1 51.0151 26.4249 36.1725 3 0.000328903 -4.12028
8410 1 53.5005 26.4283 36.1646 3 0.000205992 -4.12045
8411 1 52.6717 26.4274 33.8357 3 0.000240231 -4.1204
8412 1 55.159 26.4297 33.8284 3 0.000154012 -4.12056
8413 1 54.3296 26.4291 31.4994 3 0.000177741 -4.12051
8414 1 56.8184 26.4306 31.4924 3 0.000117893 -4.12064
8415 1 55.9886 26.4302 29.1633 3 0.000134239 -4.1206
8416 1 58.4786 26.4311 29.1566 3 9.31828e-05 -4.12071
8417 1 57.6484 26.4309 26.8274 3 0.000104313 -4.12068
8418 1 60.1393 26.4314 26.821 3 7.68698e-05 -4.12076
8419 1 59.3089 26.4313 24.4918 3 8.41623e-05 -4.12073
8420 1 61.8004 26.4316 24.4855 3 6.69749e-05 -4.12079
8421 1 60.9698 26.4315 22.1562 3 7.11953e-05 -4.12078
8422 1 63.4617 26.4316 22.15 3 6.2287e-05 -4.12081
8423 1 62.631 26.4316 19.8207 3 6.40226e-05 -4.1208
8424 1 46.0979 24.373 46.6812 3 0.000447393 -4.12091
8425 1 48.5708 24.3841 46.6734 3 0.000315312 -4.12084
8426 1 47.7461 24.3809 44.3447 3 0.00035533 -4.12085
8427 1 50.2216 24.3891 44.3368 3 0.000245271 -4.12085
8428 1 49.396 24.3868 42.008 3 0.000278721 -4.12084
8429 1 51.8738 24.3927 42.0002 3 0.000188817 -4.12087
8430 1 51.0475 24.391 39.6714 3 0.000215508 -4.12085
8431 1 53.5272 24.3953 39.6638 3 0.000144175 -4.1209
8432 1 52.7004 24.3941 37.3349 3 0.000165048 -4.12088
8433 1 55.1817 24.3971 37.3275 3 0.000109773 -4.12094
8434 1 54.3544 24.3963 34.9986 3 0.000125794 -4.12092
8435 1 56.8371 24.3983 34.9913 3 8.38841e-05 -4.12097
8436 1 56.0093 24.3978 32.6623 3 9.58963e-05 -4.12096
8437 1 58.4931 24.3991 32.6552 3 6.50271e-05 -4.12101
8438 1 57.665 24.3987 30.3262 3 7.36744e-05 -4.12099
8439 1 60.1497 24.3996 30.3192 3 5.19585e-05 -4.12103
8440 1 59.3213 24.3994 27.9901 3 5.7818e-05 -4.12102
8441 1 61.8066 24.3999 27.9832 3 4.36992e-05 -4.12105
8442 1 60.9781 24.3997 25.6541 3 4.72763e-05 -4.12104
8443 1 63.4638 24.4 25.6473 3 3.97215e-05 -4.12106
8444 1 62.6352 24.3999 23.3182 3 4.12123e-05 -4.12106
8445 1 47.7732 22.3444 47.8379 3 0.000188621 -4.12127
8446 1 50.2461 22.3532 47.832 3 0.000139139 -4.12119
8447 1 49.4215 22.3507 45.5027 3 0.000154376 -4.12121
8448 1 51.8961 22.3572 45.4962 3 0.000111557 -4.12116
8449 1 51.071 22.3554 43.1671 3 0.000124819 -4.12117
8450 1 53.547 22.3602 43.1604 3 8.81848e-05 -4.12115
8451 1 52.7214 22.3588 40.8313 3 9.93764e-05 -4.12115
8452 1 55.1988 22.3623 40.8244 3 6.86729e-05 -4.12115
8453 1 54.3728 22.3613 38.4954 3 7.79472e-05 -4.12115
8454 1 56.8512 22.3637 38.4884 3 5.29814e-05 -4.12115
8455 1 56.0249 22.3631 36.1594 3 6.03627e-05 -4.12115
8456 1 58.5042 22.3647 36.1524 3 4.08571e-05 -4.12116
8457 1 57.6776 22.3643 33.8234 3 4.64865e-05 -4.12116
8458 1 60.1577 22.3654 33.8164 3 3.19742e-05 -4.12117
8459 1 59.3309 22.3651 31.4874 3 3.60295e-05 -4.12116
8460 1 61.8114 22.3658 31.4804 3 2.6215e-05 -4.12118
8461 1 60.9845 22.3656 29.1513 3 2.87085e-05 -4.12117
8462 1 63.4654 22.3659 29.1444 3 2.33734e-05 -4.12118
8463 1 62.6384 22.3659 26.8153 3 2.44366e-05 -4.12118
8464 1 51.0875 20.3186 46.6605 3 7.04686e-05 -4.12134
8465 1 53.5612 20.3236 46.6551 3 5.11013e-05 -4.12128
8466 1 52.7365 20.3222 44.3256 3 5.71186e-05 -4.12129
8467 1 55.2111 20.3259 44.3197 3 4.03573e-05 -4.12125
8468 1 54.3861 20.3248 41.9904 3 4.55093e-05 -4.12126
8469 1 56.8615 20.3275 41.9842 3 3.13502e-05 -4.12124
8470 1 56.0362 20.3268 39.655 3 3.5656e-05 -4.12125
8471 1 58.5124 20.3286 39.6486 3 2.40917e-05 -4.12123
8472 1 57.6869 20.3281 37.3194 3 2.74791e-05 -4.12124
8473 1 60.1635 20.3294 37.3129 3 1.86231e-05 -4.12123
8474 1 59.3379 20.329 34.9837 3 2.11354e-05 -4.12123
8475 1 61.815 20.3298 34.9771 3 1.49752e-05 -4.12123
8476 1 60.9892 20.3296 32.648 3 1.6574e-05 -4.12123
8477 1 63.4666 20.3301 32.6413 3 1.31439e-05 -4.12123
8478 1 62.6408 20.33 30.3122 3 1.38356e-05 -4.12123
8479 1 52.7469 18.2848 47.8187 3 3.35796e-05 -4.12137
8480 1 55.2197 18.2884 47.814 3 2.37711e-05 -4.12131
8481 1 54.3953 18.2874 45.4843 3 2.67886e-05 -4.12133
8482 1 56.8688 18.2901 45.4792 3 1.84107e-05 -4.12128
8483 1 56.0442 18.2893 43.1496 3 2.09722e-05 -4.12129
8484 1 58.5181 18.2913 43.1441 3 1.40407e-05 -4.12126
8485 1 57.6934 18.2907 40.8146 3 1.61087e-05 -4.12127
8486 1 60.1677 18.2921 40.8088 3 1.06657e-05 -4.12125
8487 1 59.3429 18.2917 38.4794 3 1.22128e-05 -4.12126
8488 1 61.8175 18.2925 38.4735 3 8.38125e-06 -4.12124
8489 1 60.9926 18.2923 36.1441 3 9.39266e-06 -4.12125
8490 1 63.4674 18.2928 36.1381 3 7.23823e-06 -4.12124
8491 1 62.6425 18.2927 33.8088 3 7.66159e-06 -4.12124
8492 1 56.0495 16.2512 46.6436 3 1.29271e-05 -4.12132
8493 1 58.522 16.253 46.6391 3 8.44024e-06 -4.12128
8494 1 57.6978 16.2525 44.3093 3 9.78719e-06 -4.12129
8495 1 60.1705 16.2538 44.3045 3 6.22844e-06 -4.12126
8496 1 59.3463 16.2534 41.9748 3 7.24539e-06 -4.12126
8497 1 61.8192 16.2543 41.9697 3 4.73587e-06 -4.12125
8498 1 60.9949 16.254 39.6401 3 5.3944e-06 -4.12125
8499 1 63.468 16.2545 39.6349 3 3.9781e-06 -4.12124
8500 1 62.6436 16.2544 37.3053 3 4.25859e-06 -4.12124
8501 1 57.7005 14.2137 47.8038 3 6.36415e-06 -4.12129
8502 1 60.1723 14.2148 47.7999 3 3.83512e-06 -4.12126
8503 1 59.3483 14.2145 45.4699 3 4.55723e-06 -4.12127
8504 1 61.8203 14.2153 45.4658 3 2.76884e-06 -4.12124
8505 1 60.9963 14.2151 43.1358 3 3.23214e-06 -4.12125
8506 1 63.4683 14.2155 43.1316 3 2.23758e-06 -4.12124
8507 1 62.6443 14.2154 40.8017 3 2.44038e-06 -4.12124
8508 1 60.997 12.1757 46.6315 3 2.16766e-06 -4.12125
8509 1 63.4685 12.176 46.6283 3 1.39442e-06 -4.12123
8510 1 62.6447 12.176 44.2981 3 1.54489e-06 -4.12124
8511 1 62.6447 10.1363 47.7944 3 1.30774e-06 -4.12124
8512 1 42.5877 30.455 47.8427 3 0.00467582 -4.10997
8513 1 45.0814 30.4677 47.8297 3 0.00152376 -4.11468
8514 1 44.2499 30.4641 45.502 3 0.00225363 -4.11327
8515 1 46.7476 30.4737 45.4923 3 0.000873927 -4.11615
8516 1 45.9144 30.4709 43.1637 3 0.00115263 -4.11545
8517 1 48.4152 30.478 43.1561 3 0.000536516 -4.11718
8518 1 47.581 30.476 40.827 3 0.000663448 -4.11678
8519 1 50.0841 30.481 40.8207 3 0.000360429 -4.11788
8520 1 49.2495 30.4796 38.4913 3 0.00043741 -4.11755
8521 1 51.7541 30.483 38.4859 3 0.000264672 -4.11835
8522 1 50.919 30.4821 36.1562 3 0.000307261 -4.11813
8523 1 53.4247 30.4843 36.1515 3 0.000205009 -4.11871
8524 1 52.5893 30.4837 33.8216 3 0.000230689 -4.11855
8525 1 55.0959 30.485 33.8174 3 0.000166986 -4.11899
8526 1 54.2602 30.4847 31.4873 3 0.000184032 -4.11886
8527 1 56.7675 30.4854 31.4835 3 0.00014236 -4.11919
8528 1 55.9316 30.4852 29.1533 3 0.000153492 -4.1191
8529 1 58.4394 30.4855 29.1497 3 0.00012591 -4.11935
8530 1 57.6034 30.4855 26.8195 3 0.000133238 -4.11928
8531 1 60.1115 30.4855 26.8161 3 0.00011515 -4.11946
8532 1 59.2754 30.4855 24.4858 3 0.000119916 -4.11941
8533 1 61.7838 30.4855 24.4825 3 0.000108707 -4.11953
8534 1 60.9476 30.4855 22.1523 3 0.000111484 -4.1195
8535 1 63.4562 30.4855 22.149 3 0.000105686 -4.11957
8536 1 62.62 30.4855 19.8187 3 0.000106788 -4.11955
8537 1 45.9964 28.4428 46.6761 3 0.00140198 -4.11796
8538 1 48.4817 28.4509 46.6657 3 0.00070721 -4.1188
8539 1 47.6526 28.4486 44.3375 3 0.000876386 -4.11854
8540 1 50.1415 28.4544 44.3287 3 0.000468853 -4.11918
8541 1 49.3113 28.4528 42.0001 3 0.000568438 -4.119
8542 1 51.8031 28.4568 41.9923 3 0.000324049 -4.1195
8543 1 50.9721 28.4557 39.6634 3 0.000389026 -4.11935
8544 1 53.4661 28.4583 39.6564 3 0.000235341 -4.11973
8545 1 52.6344 28.4577 37.3272 3 0.000274991 -4.11962
8546 1 55.1301 28.4593 37.3209 3 0.000177766 -4.11992
8547 1 54.298 28.4589 34.9916 3 0.000203071 -4.11983
8548 1 56.795 28.4599 34.9857 3 0.000140466 -4.12007
8549 1 55.9624 28.4596 32.6563 3 0.000157242 -4.12
8550 1 58.4605 28.4601 32.6508 3 0.0001163 -4.12018
8551 1 57.6276 28.46 30.3212 3 0.000127086 -4.12013
8552 1 60.1264 28.4603 30.316 3 0.00010083 -4.12026
8553 1 59.2934 28.4602 27.9863 3 0.000107615 -4.12022
8554 1 61.7927 28.4603 27.9813 3 9.16039e-05 -4.12031
8555 1 60.9595 28.4603 25.6516 3 9.55617e-05 -4.12029
8556 1 63.4591 28.4603 25.6466 3 8.7341e-05 -4.12034
8557 1 62.6259 28.4603 23.3169 3 8.89242e-05 -4.12033
8558 1 47.7071 26.4161 47.8413 3 0.000632901 -4.12001
8559 1 50.1874 26.4232 47.8321 3 0.000387257 -4.12021
8560 1 49.3601 26.4212 45.5037 3 0.000455557 -4.12015
8561 1 51.8432 26.4263 45.4952 3 0.000280837 -4.12034
8562 1 51.0151 26.4249 43.1665 3 0.000328903 -4.12028
8563 1 53.5005 26.4283 43.1587 3 0.000205992 -4.12045
8564 1 52.6717 26.4274 40.8298 3 0.000240231 -4.1204
8565 1 55.159 26.4297 40.8225 3 0.000154012 -4.12056
8566 1 54.3296 26.4291 38.4935 3 0.000177741 -4.12051
8567 1 56.8184 26.4306 38.4865 3 0.000117893 -4.12064
8568 1 55.9886 26.4302 36.1574 3 0.000134239 -4.1206
8569 1 58.4786 26.4311 36.1507 3 9.31828e-05 -4.12071
8570 1 57.6484 26.4309 33.8215 3 0.000104313 -4.12068
8571 1 60.1393 26.4314 33.8151 3 7.68698e-05 -4.12076
8572 1 59.3089 26.4313 31.4858 3 8.41623e-05 -4.12073
8573 1 61.8004 26.4316 31.4796 3 6.69749e-05 -4.12079
8574 1 60.9698 26.4315 29.1503 3 7.11953e-05 -4.12078
8575 1 63.4617 26.4316 29.1441 3 6.2287e-05 -4.12081
8576 1 62.631 26.4316 26.8148 3 6.40226e-05 -4.1208
8577 1 51.0475 24.391 46.6655 3 0.000215508 -4.12085
8578 1 53.5272 24.3953 46.6579 3 0.000144175 -4.1209
8579 1 52.7004 24.3941 44.329 3 0.000165048 -4.12088
8580 1 55.1817 24.3971 44.3216 3 0.000109773 -4.12094
8581 1 54.3544 24.3963 41.9927 3 0.000125794 -4.12092
8582 1 56.8371 24.3983 41.9854 3 8.38841e-05 -4.12097
8583 1 56.0093 24.3978 39.6564 3 9.58963e-05 -4.12096
8584 1 58.4931 24.3991 39.6493 3 6.50271e-05 -4.12101
8585 1 57.665 24.3987 37.3203 3 7.36744e-05 -4.12099
8586 1 60.1497 24.3996 37.3132 3 5.19585e-05 -4.12103
8587 1 59.3213 24.3994 34.9842 3 5.7818e-05 -4.12102
8588 1 61.8066 24.3999 34.9773 3 4.36992e-05 -4.12105
8589 1 60.9781 24.3997 32.6482 3 4.72763e-05 -4.12104
8590 1 63.4638 24.4 32.6414 3 3.97215e-05 -4.12106
8591 1 62.6352 24.3999 30.3123 3 4.12123e-05 -4.12106
8592 1 52.7214 22.3588 47.8254 3 9.93764e-05 -4.12115
8593 1 55.1988 22.3623 47.8185 3 6.86729e-05 -4.12115
8594 1 54.3728 22.3613 45.4894 3 7.79472e-05 -4.12115
8595 1 56.8512 22.3637 45.4825 3 5.29814e-05 -4.12115
8596 1 56.0249 22.3631 43.1535 3 6.03627e-05 -4.12115
8597 1 58.5042 22.3647 43.1465 3 4.08571e-05 -4.12116
8598 1 57.6776 22.3643 40.8175 3 4.64865e-05 -4.12116
8599 1 60.1577 22.3654 40.8105 3 3.19742e-05 -4.12117
8600 1 59.3309 22.3651 38.4814 3 3.60295e-05 -4.12116
8601 1 61.8114 22.3658 38.4745 3 2.6215e-05 -4.12118
8602 1 60.9845 22.3656 36.1454 3 2.87085e-05 -4.12117
8603 1 63.4654 22.3659 36.1385 3 2.33734e-05 -4.12118
8604 1 62.6384 22.3659 33.8094 3 2.44366e-05 -4.12118
8605 1 56.0362 20.3268 46.6491 3 3.5656e-05 -4.12125
8606 1 58.5124 20.3286 46.6427 3 2.40917e-05 -4.12123
8607 1 57.6869 20.3281 44.3135 3 2.74791e-05 -4.12124
8608 1 60.1635 20.3294 44.307 3 1.86231e-05 -4.12123
8609 1 59.3379 20.329 41.9778 3 2.11354e-05 -4.12123
8610 1 61.815 20.3298 41.9712 3 1.49752e-05 -4.12123
8611 1 60.9892 20.3296 39.642 3 1.6574e-05 -4.12123
8612 1 63.4666 20.3301 39.6354 3 1.31439e-05 -4.12123
8613 1 62.6408 20.33 37.3063 3 1.38356e-05 -4.12123
8614 1 57.6934 18.2907 47.8087 3 1.61087e-05 -4.12127
8615 1 60.1677 18.2921 47.8029 3 1.06657e-05 -4.12125
8616 1 59.3429 18.2917 45.4735 3 1.22128e-05 -4.12126
8617 1 61.8175 18.2925 45.4676 3 8.38125e-06 -4.12124
8618 1 60.9926 18.2923 43.1382 3 9.39267e-06 -4.12125
8619 1 63.4674 18.2928 43.1322 3 7.23823e-06 -4.12124
8620 1 62.6425 18.2927 40.8029 3 7.66159e-06 -4.12124
8621 1 60.9949 16.254 46.6342 3 5.3944e-06 -4.12125
8622 1 63.468 16.2545 46.629 3 3.9781e-06 -4.12124
8623 1 62.6436 16.2544 44.2994 3 4.25859e-06 -4.12124
8624 1 62.6443 14.2154 47.7958 3 2.44038e-06 -4.12124
8625 1 47.581 30.476 47.8211 3 0.000663448 -4.11678
8626 1 50.0841 30.481 47.8148 3 0.000360429 -4.11788
8627 1 49.2495 30.4796 45.4854 3 0.00043741 -4.11755
8628 1 51.7541 30.483 45.48 3 0.000264672 -4.11835
8629 1 50.919 30.4821 43.1503 3 0.000307261 -4.11813
8630 1 53.4247 30.4843 43.1456 3 0.000205009 -4.11871
8631 1 52.5893 30.4837 40.8157 3 0.000230689 -4.11855
8632 1 55.0959 30.485 40.8114 3 0.000166986 -4.11899
8633 1 54.2602 30.4847 38.4814 3 0.000184032 -4.11886
8634 1 56.7675 30.4854 38.4775 3 0.00014236 -4.11919
8635 1 55.9316 30.4852 36.1474 3 0.000153492 -4.1191
8636 1 58.4394 30.4855 36.1438 3 0.00012591 -4.11935
8637 1 57.6034 30.4855 33.8136 3 0.000133238 -4.11928
8638 1 60.1115 30.4855 33.8102 3 0.00011515 -4.11946
8639 1 59.2754 30.4855 31.4799 3 0.000119916 -4.11941
8640 1 61.7838 30.4855 31.4766 3 0.000108707 -4.11953
8641 1 60.9476 30.4855 29.1463 3 0.000111484 -4.1195
8642 1 63.4562 30.4855 29.1431 3 0.000105686 -4.11957
8643 1 62.62 30.4855 26.8128 3 0.000106788 -4.11955
8644 1 50.9721 28.4557 46.6574 3 0.000389026 -4.11935
8645 1 53.4661 28.4583 46.6505 3 0.000235341 -4.11973
8646 1 52.6344 28.4577 44.3213 3 0.000274991 -4.11962
8647 1 55.1301 28.4593 44.315 3 0.000177766 -4.11992
8648 1 54.298 28.4589 41.9857 3 0.000203071 -4.11983
8649 1 56.795 28.4599 41.9798 3 0.000140466 -4.12007
8650 1 55.9624 28.4596 39.6504 3 0.000157242 -4.12
8651 1 58.4605 28.4601 39.6449 3 0.0001163 -4.12018
8652 1 57.6276 28.46 37.3153 3 0.000127086 -4.12013
8653 1 60.1264 28.4603 37.3101 3 0.00010083 -4.12026
8654 1 59.2934 28.4602 34.9804 3 0.000107615 -4.12022
8655 1 61.7927 28.4603 34.9754 3 9.16039e-05 -4.12031
8656 1 60.9595 28.4603 32.6457 3 9.55617e-05 -4.12029
8657 1 63.4591 28.4603 32.6407 3 8.7341e-05 -4.12034
8658 1 62.6259 28.4603 30.311 3 8.89242e-05 -4.12033
8659 1 52.6717 26.4274 47.8239 3 0.000240231 -4.1204
8660 1 55.159 26.4297 47.8165 3 0.000154012 -4.12056
8661 1 54.3296 26.4291 45.4876 3 0.000177741 -4.12051
8662 1 56.8184 26.4306 45.4806 3 0.000117893 -4.12064
8663 1 55.9886 26.4302 43.1515 3 0.000134239 -4.1206
8664 1 58.4786 26.4311 43.1448 3 9.31828e-05 -4.12071
8665 1 57.6484 26.4309 40.8156 3 0.000104313 -4.12068
8666 1 60.1393 26.4314 40.8092 3 7.68698e-05 -4.12076
8667 1 59.3089 26.4313 38.4799 3 8.41623e-05 -4.12073
8668 1 61.8004 26.4316 38.4736 3 6.69749e-05 -4.12079
8669 1 60.9698 26.4315 36.1444 3 7.11953e-05 -4.12078
8670 1 63.4617 26.4316 36.1382 3 6.2287e-05 -4.12081
8671 1 62.631 26.4316 33.8089 3 6.40226e-05 -4.1208
8672 1 56.0093 24.3978 46.6505 3 9.58963e-05 -4.12096
8673 1 58.4931 24.3991 46.6434 3 6.50271e-05 -4.12101
8674 1 57.665 24.3987 44.3143 3 7.36744e-05 -4.12099
8675 1 60.1497 24.3996 44.3073 3 5.19585e-05 -4.12103
8676 1 59.3213 24.3994 41.9783 3 5.7818e-05 -4.12102
8677 1 61.8066 24.3999 41.9714 3 4.36992e-05 -4.12105
8678 1 60.9781 24.3997 39.6423 3 4.72763e-05 -4.12104
8679 1 63.4638 24.4 39.6354 3 3.97215e-05 -4.12106
8680 1 62.6352 24.3999 37.3064 3 4.12123e-05 -4.12106
8681 1 57.6776 22.3643 47.8116 3 4.64865e-05 -4.12116
8682 1 60.1577 22.3654 47.8046 3 3.19742e-05 -4.12117
8683 1 59.3309 22.3651 45.4755 3 3.60295e-05 -4.12116
8684 1 61.8114 22.3658 45.4686 3 2.6215e-05 -4.12118
8685 1 60.9845 22.3656 43.1395 3 2.87085e-05 -4.12117
8686 1 63.4654 22.3659 43.1325 3 2.33734e-05 -4.12118
8687 1 62.6384 22.3659 40.8035 3 2.44366e-05 -4.12118
8688 1 60.9892 20.3296 46.6361 3 1.6574e-05 -4.12123
8689 1 63.4666 20.3301 46.6295 3 1.31439e-05 -4.12123
8690 1 62.6408 20.33 44.3003 3 1.38356e-05 -4.12123
8691 1 62.6425 18.2927 47.797 3 7.66159e-06 -4.12124
8692 1 52.5893 30.4837 47.8098 3 0.000230689 -4.11855
8693 1 55.0959 30.485 47.8055 3 0.000166986 -4.11899
8694 1 54.2602 30.4847 45.4755 3 0.000184032 -4.11886
8695 1 56.7675 30.4854 45.4716 3 0.00014236 -4.11919
8696 1 55.9316 30.4852 43.1415 3 0.000153492 -4.1191
8697 1 58.4394 30.4855 43.1379 3 0.00012591 -4.11935
8698 1 57.6034 30.4855 40.8077 3 0.000133238 -4.11928
8699 1 60.1115 30.4855 40.8043 3 0.00011515 -4.11946
8700 1 59.2754 30.4855 38.474 3 0.000119916 -4.11941
8701 1 61.7838 30.4855 38.4707 3 0.000108707 -4.11953
8702 1 60.9476 30.4855 36.1404 3 0.000111484 -4.1195
8703 1 63.4562 30.4855 36.1372 3 0.000105686 -4.11957
8704 1 62.62 30.4855 33.8069 3 0.000106788 -4.11955
8705 1 55.9624 28.4596 46.6444 3 0.000157242 -4.12
8706 1 58.4605 28.4601 46.639 3 0.0001163 -4.12018
8707 1 57.6276 28.46 44.3094 3 0.000127086 -4.12013
8708 1 60.1264 28.4603 44.3041 3 0.00010083 -4.12026
8709 1 59.2934 28.4602 41.9745 3 0.000107615 -4.12022
8710 1 61.7927 28.4603 41.9694 3 9.16039e-05 -4.12031
8711 1 60.9595 28.4603 39.6397 3 9.55617e-05 -4.12029
8712 1 63.4591 28.4603 39.6348 3 8.7341e-05 -4.12034
8713 1 62.6259 28.4603 37.3051 3 8.89242e-05 -4.12033
8714 1 57.6484 26.4309 47.8097 3 0.000104313 -4.12068
8715 1 60.1393 26.4314 47.8033 3 7.68698e-05 -4.12076
8716 1 59.3089 26.4313 45.474 3 8.41623e-05 -4.12073
8717 1 61.8004 26.4316 45.4677 3 6.69749e-05 -4.12079
8718 1 60.9698 26.4315 43.1384 3 7.11953e-05 -4.12078
8719 1 63.4617 26.4316 43.1323 3 6.2287e-05 -4.12081
8720 1 62.631 26.4316 40.803 3 6.40226e-05 -4.1208
8721 1 60.9781 24.3997 46.6364 3 4.72763e-05 -4.12104
8722 1 63.4638 24.4 46.6295 3 3.97215e-05 -4.12106
8723 1 62.6352 24.3999 44.3005 3 4.12123e-05 -4.12106
8724 1 62.6384 22.3659 47.7976 3 2.44366e-05 -4.12118
8725 1 57.6034 30.4855 47.8018 3 0.000133238 -4.11928
8726 1 60.1115 30.4855 47.7983 3 0.00011515 -4.11946
8727 1 59.2754 30.4855 45.4681 3 0.000119916 -4.11941
8728 1 61.7838 30.4855 45.4648 3 0.000108707 -4.11953
8729 1 60.9476 30.4855 43.1345 3 0.000111484 -4.1195
8730 1 63.4562 30.4855 43.1313 3 0.000105686 -4.11957
8731 1 62.62 30.4855 40.801 3 0.000106788 -4.11955
8732 1 60.9595 28.4603 46.6338 3 9.55617e-05 -4.12029
8733 1 63.4591 28.4603 46.6289 3 8.7341e-05 -4.12034
8734 1 62.6259 28.4603 44.2992 3 8.89242e-05 -4.12033
8735 1 62.631 26.4316 47.797 3 6.40226e-05 -4.1208
8736 1 62.62 30.4855 47.7951 3 0.000106788 -4.11955
8737 1 0.839328 32.5069 2.33092 3 0.000109647 -4.11845
8738 1 1.12269e-11 32.5069 6.47409e-10 3 0.000109343 -4.11846
8739 1 2.51799 32.5069 48.9573 3 0.000112312 -4.11841
8740 1 0.845257 36.5383 2.332 3 8.34506e-05 -4.11551
8741 1 8.21843e-12 36.5383 6.55812e-10 3 8.30989e-05 -4.11552
8742 1 2.53584 36.5382 0.00192426 3 8.62987e-05 -4.11544
8743 1 0.842399 34.5244 5.82856 3 0.000100115 -4.11706
8744 1 1.77699e-12 34.5244 3.49704 3 9.9771e-05 -4.11707
8745 1 2.52724 34.5244 3.49749 3 0.000102928 -4.117
8746 1 1.68481 34.5244 1.16598 3 0.000101178 -4.11704
8747 1 4.21222 34.5243 1.16642 3 0.00010893 -4.11688
8748 1 0.839328 32.5069 9.32501 3 0.000109647 -4.11845
8749 1 64.2924 32.5069 6.99409 3 0.000109343 -4.11846
8750 1 2.51799 32.5069 6.99276 3 0.000112312 -4.11841
8751 1 1.67866 32.5069 4.66184 3 0.000110635 -4.11844
8752 1 4.19669 32.5069 4.66048 3 0.000117929 -4.11831
8753 1 3.35734 32.5069 2.32958 3 0.000114696 -4.11837
8754 1 5.87544 32.5069 2.32818 3 0.00012712 -4.11817
8755 1 5.03606 32.5069 48.9559 3 0.000122039 -4.11825
8756 1 7.55428 32.5067 48.9545 3 0.000141077 -4.11797
8757 1 0.850065 40.5563 2.33261 3 4.91519e-05 -4.11244
8758 1 64.2924 40.5563 6.63834e-10 3 4.88622e-05 -4.11245
8759 1 2.55028 40.5561 0.00372734 3 5.13916e-05 -4.11236
8760 1 0.847822 38.5488 5.82942 3 6.54262e-05 -4.11394
8761 1 64.2924 38.5488 3.49704 3 6.51277e-05 -4.11395
8762 1 2.54355 38.5486 3.50007 3 6.80542e-05 -4.11386
8763 1 1.69566 38.5487 1.1677 3 6.63748e-05 -4.11391
8764 1 4.23952 38.5483 1.17071 3 7.3456e-05 -4.1137
8765 1 0.845257 36.5383 9.32609 3 8.34506e-05 -4.11551
8766 1 64.2924 36.5383 6.99409 3 8.30989e-05 -4.11552
8767 1 2.53584 36.5382 6.99601 3 8.62987e-05 -4.11544
8768 1 1.69053 36.5382 4.66401 3 8.45085e-05 -4.11548
8769 1 4.22663 36.538 4.66594 3 9.22731e-05 -4.1153
8770 1 3.3812 36.5381 2.33393 3 8.88578e-05 -4.11538
8771 1 5.91778 36.5376 2.33587 3 0.000102039 -4.11508
8772 1 5.07215 36.5378 0.00385744 3 9.66157e-05 -4.1152
8773 1 7.60944 36.537 0.00580179 3 0.000116846 -4.11477
8774 1 0.842399 34.5244 12.8226 3 0.000100115 -4.11706
8775 1 64.2924 34.5244 10.4911 3 9.9771e-05 -4.11707
8776 1 2.52724 34.5244 10.4916 3 0.000102928 -4.117
8777 1 1.68481 34.5244 8.16007 3 0.000101178 -4.11704
8778 1 4.21222 34.5243 8.16051 3 0.00010893 -4.11688
8779 1 3.3697 34.5244 5.829 3 0.000105486 -4.11695
8780 1 5.89743 34.5242 5.82945 3 0.000118807 -4.11669
8781 1 5.05479 34.5243 3.49793 3 0.000113274 -4.11679
8782 1 7.58299 34.5238 3.49838 3 0.000133924 -4.11644
8783 1 6.74016 34.524 1.16687 3 0.000125593 -4.11657
8784 1 9.26904 34.5231 1.16732 3 0.000156629 -4.1161
8785 1 0.839328 32.5069 16.3191 3 0.000109647 -4.11845
8786 1 5.151e-13 32.5069 13.9882 3 0.000109343 -4.11846
8787 1 2.51799 32.5069 13.9868 3 0.000112312 -4.11841
8788 1 1.67866 32.5069 11.6559 3 0.000110635 -4.11844
8789 1 4.19669 32.5069 11.6546 3 0.000117929 -4.11831
8790 1 3.35734 32.5069 9.32367 3 0.000114696 -4.11837
8791 1 5.87544 32.5069 9.32227 3 0.00012712 -4.11817
8792 1 5.03606 32.5069 6.99138 3 0.000122039 -4.11825
8793 1 7.55428 32.5067 6.98993 3 0.000141077 -4.11797
8794 1 6.71485 32.5068 4.65906 3 0.000133417 -4.11808
8795 1 9.23325 32.5063 4.65752 3 0.000161637 -4.11771
8796 1 8.39374 32.5065 2.32669 3 0.000150226 -4.11785
8797 1 10.9124 32.5054 2.32504 3 0.000192013 -4.11739
8798 1 10.0728 32.5059 48.9529 3 0.000175519 -4.11756
8799 1 12.5919 32.504 48.9511 3 0.00023953 -4.11697
8800 1 0.853596 44.5641 2.33275 3 2.49202e-05 -4.10988
8801 1 64.2924 44.5641 6.72241e-10 3 2.4701e-05 -4.10989
8802 1 2.56087 44.5637 0.00412551 3 2.66081e-05 -4.1098
8803 1 0.851985 42.5613 5.82977 3 3.56627e-05 -4.11108
8804 1 64.2924 42.5613 3.49704 3 3.54118e-05 -4.11109
8805 1 2.55604 42.561 3.50112 3 3.75856e-05 -4.111
8806 1 1.70399 42.5612 1.16841 3 3.63613e-05 -4.11105
8807 1 4.26038 42.5604 1.17243 3 4.15799e-05 -4.11084
8808 1 0.850065 40.5563 9.3267 3 4.91519e-05 -4.11244
8809 1 64.2924 40.5563 6.99409 3 4.88622e-05 -4.11245
8810 1 2.55028 40.5561 6.99782 3 5.13916e-05 -4.11236
8811 1 1.70015 40.5562 4.66521 3 4.9966e-05 -4.11241
8812 1 4.25077 40.5556 4.66891 3 5.61058e-05 -4.1122
8813 1 3.40048 40.5559 2.33632 3 5.34147e-05 -4.11229
8814 1 5.95171 40.5548 2.33996 3 6.36053e-05 -4.11195
8815 1 5.10117 40.5552 0.00739887 3 5.94724e-05 -4.11209
8816 1 7.6533 40.5535 0.0109477 3 7.44571e-05 -4.11161
8817 1 0.847822 38.5488 12.8235 3 6.54262e-05 -4.11394
8818 1 64.2924 38.5488 10.4911 3 6.51277e-05 -4.11395
8819 1 2.54355 38.5486 10.4942 3 6.80542e-05 -4.11386
8820 1 1.69566 38.5487 8.16179 3 6.63748e-05 -4.11391
8821 1 4.23952 38.5483 8.1648 3 7.3456e-05 -4.1137
8822 1 3.39149 38.5485 5.83243 3 7.03797e-05 -4.11379
8823 1 5.93592 38.5477 5.83543 3 8.22134e-05 -4.11346
8824 1 5.08766 38.548 3.50307 3 7.738e-05 -4.11359
8825 1 7.63294 38.5467 3.50604 3 9.52062e-05 -4.11313
8826 1 6.78434 38.5472 1.17369 3 8.81217e-05 -4.11331
8827 1 9.33078 38.5451 1.17661 3 0.000113716 -4.11271
8828 1 0.845257 36.5383 16.3202 3 8.34506e-05 -4.11551
8829 1 1.12961e-12 36.5383 13.9882 3 8.30989e-05 -4.11552
8830 1 2.53584 36.5382 13.9901 3 8.62987e-05 -4.11544
8831 1 1.69053 36.5382 11.6581 3 8.45085e-05 -4.11548
8832 1 4.22663 36.538 11.66 3 9.22731e-05 -4.1153
8833 1 3.3812 36.5381 9.32802 3 8.88578e-05 -4.11538
8834 1 5.91778 36.5376 9.32996 3 0.000102039 -4.11508
8835 1 5.07215 36.5378 6.99795 3 9.66157e-05 -4.1152
8836 1 7.60944 36.537 6.99989 3 0.000116846 -4.11477
8837 1 6.76353 36.5373 4.66788 3 0.000108721 -4.11494
8838 1 9.30183 36.5358 4.66983 3 0.000138424 -4.11437
8839 1 8.45553 36.5365 2.33782 3 0.000126611 -4.11459
8840 1 10.9952 36.5341 2.33977 3 0.000169651 -4.11387
8841 1 10.1484 36.535 0.00775518 3 0.000152629 -4.11414
8842 1 12.6897 36.5313 0.0096937 3 0.000215238 -4.11322
8843 1 0.842399 34.5244 19.8167 3 0.000100115 -4.11706
8844 1 4.90389e-12 34.5244 17.4852 3 9.9771e-05 -4.11707
8845 1 2.52724 34.5244 17.4857 3 0.000102928 -4.117
8846 1 1.68481 34.5244 15.1542 3 0.000101178 -4.11704
8847 1 4.21222 34.5243 15.1546 3 0.00010893 -4.11688
8848 1 3.3697 34.5244 12.8231 3 0.000105486 -4.11695
8849 1 5.89743 34.5242 12.8235 3 0.000118807 -4.11669
8850 1 5.05479 34.5243 10.492 3 0.000113274 -4.11679
8851 1 7.58299 34.5238 10.4925 3 0.000133924 -4.11644
8852 1 6.74016 34.524 8.16096 3 0.000125593 -4.11657
8853 1 9.26904 34.5231 8.16141 3 0.000156629 -4.1161
8854 1 8.42594 34.5235 5.82989 3 0.000144167 -4.11628
8855 1 10.9558 34.5218 5.83035 3 0.000190723 -4.11567
8856 1 10.1123 34.5225 3.49883 3 0.000171836 -4.1159
8857 1 12.6434 34.5199 3.49929 3 0.000242188 -4.11512
8858 1 11.7994 34.521 1.16777 3 0.000213748 -4.11541
8859 1 14.3322 34.5168 1.16821 3 0.000322982 -4.11441
8860 1 0.839328 32.5069 23.3132 3 0.000109647 -4.11845
8861 1 8.72567e-12 32.5069 20.9823 3 0.000109343 -4.11846
8862 1 2.51799 32.5069 20.9809 3 0.000112312 -4.11841
8863 1 1.67866 32.5069 18.65 3 0.000110635 -4.11844
8864 1 4.19669 32.5069 18.6487 3 0.000117929 -4.11831
8865 1 3.35734 32.5069 16.3178 3 0.000114696 -4.11837
8866 1 5.87544 32.5069 16.3164 3 0.00012712 -4.11817
8867 1 5.03606 32.5069 13.9855 3 0.000122039 -4.11825
8868 1 7.55428 32.5067 13.984 3 0.000141077 -4.11797
8869 1 6.71485 32.5068 11.6532 3 0.000133417 -4.11808
8870 1 9.23325 32.5063 11.6516 3 0.000161637 -4.11771
8871 1 8.39374 32.5065 9.32078 3 0.000150226 -4.11785
8872 1 10.9124 32.5054 9.31913 3 0.000192013 -4.11739
8873 1 10.0728 32.5059 6.98834 3 0.000175519 -4.11756
8874 1 12.5919 32.504 6.98655 3 0.00023953 -4.11697
8875 1 11.7521 32.5048 4.65581 3 0.000213233 -4.11719
8876 1 14.2717 32.5017 4.65384 3 0.000314636 -4.11645
8877 1 13.4317 32.503 2.32317 3 0.000271177 -4.11673
8878 1 15.9523 32.4983 2.32095 3 0.000439292 -4.11582
8879 1 15.1119 32.5002 48.949 3 0.00037052 -4.11615
8880 1 17.6339 32.4934 48.9465 3 0.000686325 -4.11496
8881 1 0.85595 48.5646 2.33256 3 1.03618e-05 -4.10807
8882 1 64.2924 48.5646 6.72684e-10 3 1.02026e-05 -4.10808
8883 1 2.56793 48.5642 0.00355467 3 1.16332e-05 -4.108
8884 1 0.854913 46.565 5.82973 3 1.66562e-05 -4.10888
8885 1 64.2924 46.5651 3.49704 3 1.64701e-05 -4.10888
8886 1 2.56482 46.5647 3.50098 3 1.809e-05 -4.1088
8887 1 1.70985 46.5649 1.16831 3 1.71883e-05 -4.10885
8888 1 4.27498 46.564 1.17215 3 2.10665e-05 -4.10866
8889 1 0.853596 44.5641 9.32683 3 2.49202e-05 -4.10988
8890 1 64.2924 44.5641 6.99409 3 2.4701e-05 -4.10989
8891 1 2.56087 44.5637 6.99821 3 2.66081e-05 -4.1098
8892 1 1.70721 44.5639 4.66549 3 2.55411e-05 -4.10985
8893 1 4.26842 44.563 4.66953 3 2.99929e-05 -4.10965
8894 1 3.4146 44.5634 2.33684 3 2.80714e-05 -4.10974
8895 1 5.97641 44.5619 2.34074 3 3.54152e-05 -4.10942
8896 1 5.12235 44.5625 0.00810863 3 3.24567e-05 -4.10954
8897 1 7.68503 44.5602 0.0117875 3 4.31812e-05 -4.1091
8898 1 0.851985 42.5613 12.8239 3 3.56627e-05 -4.11108
8899 1 64.2924 42.5613 10.4911 3 3.54118e-05 -4.11109
8900 1 2.55604 42.561 10.4952 3 3.75856e-05 -4.111
8901 1 1.70399 42.5612 8.16249 3 3.63613e-05 -4.11105
8902 1 4.26038 42.5604 8.16652 3 4.15799e-05 -4.11084
8903 1 3.40816 42.5607 5.83383 3 3.93075e-05 -4.11093
8904 1 5.96516 42.5594 5.83774 3 4.79016e-05 -4.11059
8905 1 5.1127 42.5599 3.5051 3 4.44245e-05 -4.11072
8906 1 7.67061 42.5579 3.50885 3 5.70569e-05 -4.11026
8907 1 6.81779 42.5587 1.17627 3 5.20948e-05 -4.11044
8908 1 9.37693 42.5556 1.1798 3 6.97246e-05 -4.10984
8909 1 0.850065 40.5563 16.3208 3 4.91519e-05 -4.11244
8910 1 1.60556e-12 40.5563 13.9882 3 4.88622e-05 -4.11245
8911 1 2.55028 40.5561 13.9919 3 5.13916e-05 -4.11236
8912 1 1.70015 40.5562 11.6593 3 4.9966e-05 -4.11241
8913 1 4.25077 40.5556 11.663 3 5.61058e-05 -4.1122
8914 1 3.40048 40.5559 9.33041 3 5.34147e-05 -4.11229
8915 1 5.95171 40.5548 9.33405 3 6.36053e-05 -4.11195
8916 1 5.10117 40.5552 7.00149 3 5.94724e-05 -4.11209
8917 1 7.6533 40.5535 7.00504 3 7.44571e-05 -4.11161
8918 1 6.80241 40.5542 4.67251 3 6.85581e-05 -4.11179
8919 1 9.35577 40.5515 4.67593 3 8.98292e-05 -4.11118
8920 1 8.50441 40.5526 2.34345 3 8.15436e-05 -4.11141
8921 1 11.0594 40.5487 2.34667 3 0.00011106 -4.11063
8922 1 10.2074 40.5503 0.0142753 3 9.9578e-05 -4.11092
8923 1 12.7644 40.5446 0.01723 3 0.000140532 -4.10995
8924 1 0.847822 38.5488 19.8176 3 6.54262e-05 -4.11394
8925 1 4.35508e-12 38.5488 17.4852 3 6.51277e-05 -4.11395
8926 1 2.54355 38.5486 17.4882 3 6.80542e-05 -4.11386
8927 1 1.69566 38.5487 15.1559 3 6.63748e-05 -4.11391
8928 1 4.23952 38.5483 15.1589 3 7.3456e-05 -4.1137
8929 1 3.39149 38.5485 12.8265 3 7.03797e-05 -4.11379
8930 1 5.93592 38.5477 12.8295 3 8.22134e-05 -4.11346
8931 1 5.08766 38.548 10.4972 3 7.738e-05 -4.11359
8932 1 7.63294 38.5467 10.5001 3 9.52062e-05 -4.11313
8933 1 6.78434 38.5472 8.16778 3 8.81217e-05 -4.11331
8934 1 9.33078 38.5451 8.1707 3 0.000113716 -4.11271
8935 1 8.48174 38.546 5.83838 3 0.000103655 -4.11293
8936 1 11.0297 38.5428 5.84122 3 0.000139759 -4.11216
8937 1 10.1801 38.5441 3.50893 3 0.000125644 -4.11245
8938 1 12.73 38.5393 3.51165 3 0.000176425 -4.11148
8939 1 11.8797 38.5412 1.1794 3 0.000156521 -4.11184
8940 1 14.4321 38.5344 1.18193 3 0.00022877 -4.11063
8941 1 0.845257 36.5383 23.3143 3 8.34506e-05 -4.11551
8942 1 7.22457e-12 36.5383 20.9823 3 8.30989e-05 -4.11552
8943 1 2.53584 36.5382 20.9842 3 8.62987e-05 -4.11544
8944 1 1.69053 36.5382 18.6522 3 8.45085e-05 -4.11548
8945 1 4.22663 36.538 18.6541 3 9.22731e-05 -4.1153
8946 1 3.3812 36.5381 16.3221 3 8.88578e-05 -4.11538
8947 1 5.91778 36.5376 16.324 3 0.000102039 -4.11508
8948 1 5.07215 36.5378 13.992 3 9.66157e-05 -4.1152
8949 1 7.60944 36.537 13.994 3 0.000116846 -4.11477
8950 1 6.76353 36.5373 11.662 3 0.000108721 -4.11494
8951 1 9.30183 36.5358 11.6639 3 0.000138424 -4.11437
8952 1 8.45553 36.5365 9.3319 3 0.000126611 -4.11459
8953 1 10.9952 36.5341 9.33386 3 0.000169651 -4.11387
8954 1 10.1484 36.535 7.00184 3 0.000152629 -4.11414
8955 1 12.6897 36.5313 7.00378 3 0.000215238 -4.11322
8956 1 11.8423 36.5328 4.67178 3 0.000190284 -4.11357
8957 1 14.3859 36.5273 4.67367 3 0.00028186 -4.11242
8958 1 13.5376 36.5295 2.34169 3 0.000245275 -4.11284
8959 1 16.0842 36.5215 2.34347 3 0.000381385 -4.11138
8960 1 15.2347 36.5247 0.0115381 3 0.00032674 -4.11193
8961 1 17.7851 36.5134 0.0130898 3 0.000533808 -4.11003
8962 1 0.842399 34.5244 26.8108 3 0.000100115 -4.11706
8963 1 1.04415e-11 34.5244 24.4793 3 9.9771e-05 -4.11707
8964 1 2.52724 34.5244 24.4798 3 0.000102928 -4.117
8965 1 1.68481 34.5244 22.1482 3 0.000101178 -4.11704
8966 1 4.21222 34.5243 22.1487 3 0.00010893 -4.11688
8967 1 3.3697 34.5244 19.8172 3 0.000105486 -4.11695
8968 1 5.89743 34.5242 19.8176 3 0.000118807 -4.11669
8969 1 5.05479 34.5243 17.4861 3 0.000113274 -4.11679
8970 1 7.58299 34.5238 17.4866 3 0.000133924 -4.11644
8971 1 6.74016 34.524 15.155 3 0.000125593 -4.11657
8972 1 9.26904 34.5231 15.1555 3 0.000156629 -4.1161
8973 1 8.42594 34.5235 12.824 3 0.000144167 -4.11628
8974 1 10.9558 34.5218 12.8244 3 0.000190723 -4.11567
8975 1 10.1123 34.5225 10.4929 3 0.000171836 -4.1159
8976 1 12.6434 34.5199 10.4934 3 0.000242188 -4.11512
8977 1 11.7994 34.521 8.16186 3 0.000213748 -4.11541
8978 1 14.3322 34.5168 8.1623 3 0.000322982 -4.11441
8979 1 13.4876 34.5185 5.8308 3 0.000278421 -4.11479
8980 1 16.0226 34.5123 5.8312 3 0.000452612 -4.1135
8981 1 15.1772 34.5148 3.49971 3 0.000379088 -4.114
8982 1 17.7154 34.5058 3.5 3 0.000662642 -4.11231
8983 1 16.8687 34.5094 1.16858 3 0.000544517 -4.11294
8984 1 19.4112 34.4967 1.16864 3 0.0010314 -4.11059
8985 1 0.839328 32.5069 30.3073 3 0.000109647 -4.11845
8986 1 1.37968e-11 32.5069 27.9764 3 0.000109343 -4.11846
8987 1 2.51799 32.5069 27.975 3 0.000112312 -4.11841
8988 1 1.67866 32.5069 25.6441 3 0.000110635 -4.11844
8989 1 4.19669 32.5069 25.6428 3 0.000117929 -4.11831
8990 1 3.35734 32.5069 23.3118 3 0.000114696 -4.11837
8991 1 5.87544 32.5069 23.3105 3 0.00012712 -4.11817
8992 1 5.03606 32.5069 20.9796 3 0.000122039 -4.11825
8993 1 7.55428 32.5067 20.9781 3 0.000141077 -4.11797
8994 1 6.71485 32.5068 18.6472 3 0.000133417 -4.11808
8995 1 9.23325 32.5063 18.6457 3 0.000161637 -4.11771
8996 1 8.39374 32.5065 16.3149 3 0.000150226 -4.11785
8997 1 10.9124 32.5054 16.3132 3 0.000192013 -4.11739
8998 1 10.0728 32.5059 13.9824 3 0.000175519 -4.11756
8999 1 12.5919 32.504 13.9806 3 0.00023953 -4.11697
9000 1 11.7521 32.5048 11.6499 3 0.000213233 -4.11719
9001 1 14.2717 32.5017 11.6479 3 0.000314636 -4.11645
9002 1 13.4317 32.503 9.31726 3 0.000271177 -4.11673
9003 1 15.9523 32.4983 9.31504 3 0.000439292 -4.11582
9004 1 15.1119 32.5002 6.98447 3 0.00037052 -4.11615
9005 1 17.6339 32.4934 6.98193 3 0.000686325 -4.11496
9006 1 16.7929 32.4961 4.65148 3 0.000543753 -4.11541
9007 1 19.317 32.4865 4.64843 3 0.00118508 -4.11381
9008 1 18.4753 32.4902 2.31817 3 0.000870441 -4.11448
9009 1 21.0032 32.477 2.31415 3 0.00232825 -4.11213
9010 1 20.1596 32.4822 48.943 3 0.00165626 -4.11302
9011 1 22.6938 32.4646 48.9372 3 0.00575021 -4.10828
9012 1 0.857222 52.5607 2.33217 3 2.74717e-06 -4.10707
9013 1 64.2924 52.5607 6.24844e-10 3 2.6156e-06 -4.10707
9014 1 2.57172 52.5604 0.00239621 3 3.82552e-06 -4.10702
9015 1 0.856718 50.563 5.82943 3 5.78117e-06 -4.10746
9016 1 64.2924 50.5631 3.49704 3 5.63395e-06 -4.10747
9017 1 2.57022 50.5627 3.50008 3 6.95854e-06 -4.10741
9018 1 1.71345 50.5629 1.16771 3 6.22142e-06 -4.10744
9019 1 4.28392 50.562 1.17064 3 9.34806e-06 -4.10729
9020 1 0.85595 48.5646 9.32665 3 1.03618e-05 -4.10807
9021 1 64.2924 48.5646 6.99409 3 1.02026e-05 -4.10808
9022 1 2.56793 48.5642 6.99764 3 1.16332e-05 -4.108
9023 1 1.71192 48.5645 4.66511 3 1.0833e-05 -4.10804
9024 1 4.28013 48.5635 4.66856 3 1.42836e-05 -4.10787
9025 1 3.42399 48.5639 2.33607 3 1.27857e-05 -4.10795
9026 1 5.99272 48.5623 2.33932 3 1.84348e-05 -4.10768
9027 1 5.13637 48.563 0.0069162 3 1.61641e-05 -4.10778
9028 1 7.70583 48.5605 0.00987215 3 2.42822e-05 -4.10742
9029 1 0.854913 46.565 12.8238 3 1.66562e-05 -4.10888
9030 1 64.2924 46.5651 10.4911 3 1.64701e-05 -4.10888
9031 1 2.56482 46.5647 10.4951 3 1.809e-05 -4.1088
9032 1 1.70985 46.5649 8.1624 3 1.71883e-05 -4.10885
9033 1 4.27498 46.564 8.16624 3 2.10665e-05 -4.10866
9034 1 3.41986 46.5644 5.83362 3 1.93806e-05 -4.10874
9035 1 5.98556 46.5628 5.83728 3 2.57534e-05 -4.10844
9036 1 5.13021 46.5634 3.50474 3 2.31807e-05 -4.10856
9037 1 7.69673 46.561 3.50813 3 3.24265e-05 -4.10815
9038 1 6.84106 46.5619 1.17569 3 2.8816e-05 -4.10831
9039 1 9.40866 46.5584 1.1787 3 4.14914e-05 -4.10779
9040 1 0.853596 44.5641 16.3209 3 2.49202e-05 -4.10988
9041 1 64.2924 44.5641 13.9882 3 2.4701e-05 -4.10989
9042 1 2.56087 44.5637 13.9923 3 2.66081e-05 -4.1098
9043 1 1.70721 44.5639 11.6596 3 2.55411e-05 -4.10985
9044 1 4.26842 44.563 11.6636 3 2.99929e-05 -4.10965
9045 1 3.4146 44.5634 9.33093 3 2.80714e-05 -4.10974
9046 1 5.97641 44.5619 9.33483 3 3.54152e-05 -4.10942
9047 1 5.12235 44.5625 7.0022 3 3.24567e-05 -4.10954
9048 1 7.68503 44.5602 7.00588 3 4.31812e-05 -4.1091
9049 1 6.83063 44.5611 4.67333 3 3.89599e-05 -4.10927
9050 1 9.39448 44.5577 4.6767 3 5.38302e-05 -4.1087
9051 1 8.53964 44.5591 2.34428 3 4.81043e-05 -4.10891
9052 1 11.105 44.5542 2.34723 3 6.82774e-05 -4.10821
9053 1 10.2496 44.5561 0.0149622 3 6.04978e-05 -4.10847
9054 1 12.8167 44.5494 0.0173732 3 8.78852e-05 -4.10762
9055 1 0.851985 42.5613 19.818 3 3.56627e-05 -4.11108
9056 1 64.2924 42.5613 17.4852 3 3.54118e-05 -4.11109
9057 1 2.55604 42.561 17.4893 3 3.75856e-05 -4.111
9058 1 1.70399 42.5612 15.1566 3 3.63613e-05 -4.11105
9059 1 4.26038 42.5604 15.1606 3 4.15799e-05 -4.11084
9060 1 3.40816 42.5607 12.8279 3 3.93075e-05 -4.11093
9061 1 5.96516 42.5594 12.8318 3 4.79016e-05 -4.11059
9062 1 5.1127 42.5599 10.4992 3 4.44245e-05 -4.11072
9063 1 7.67061 42.5579 10.5029 3 5.70569e-05 -4.11026
9064 1 6.81779 42.5587 8.17036 3 5.20948e-05 -4.11044
9065 1 9.37693 42.5556 8.17389 3 6.97246e-05 -4.10984
9066 1 8.52365 42.5568 5.8414 3 6.28703e-05 -4.11006
9067 1 11.0844 42.5523 5.84462 3 8.71759e-05 -4.10931
9068 1 10.2305 42.5541 3.51224 3 7.77779e-05 -4.10959
9069 1 12.7932 42.5478 3.51505 3 0.000111213 -4.10866
9070 1 11.9386 42.5502 1.18283 3 9.82295e-05 -4.109
9071 1 14.5037 42.5415 1.18508 3 0.000144591 -4.10788
9072 1 0.850065 40.5563 23.3149 3 4.91519e-05 -4.11244
9073 1 7.69698e-13 40.5563 20.9823 3 4.88622e-05 -4.11245
9074 1 2.55028 40.5561 20.986 3 5.13916e-05 -4.11236
9075 1 1.70015 40.5562 18.6534 3 4.9966e-05 -4.11241
9076 1 4.25077 40.5556 18.6571 3 5.61058e-05 -4.1122
9077 1 3.40048 40.5559 16.3245 3 5.34147e-05 -4.11229
9078 1 5.95171 40.5548 16.3281 3 6.36053e-05 -4.11195
9079 1 5.10117 40.5552 13.9956 3 5.94724e-05 -4.11209
9080 1 7.6533 40.5535 13.9991 3 7.44571e-05 -4.11161
9081 1 6.80241 40.5542 11.6666 3 6.85581e-05 -4.11179
9082 1 9.35577 40.5515 11.67 3 8.98292e-05 -4.11118
9083 1 8.50441 40.5526 9.33754 3 8.15436e-05 -4.11141
9084 1 11.0594 40.5487 9.34076 3 0.00011106 -4.11063
9085 1 10.2074 40.5503 7.00836 3 9.9578e-05 -4.11092
9086 1 12.7644 40.5446 7.01132 3 0.000140532 -4.10995
9087 1 11.9117 40.5468 4.67903 3 0.000124584 -4.11031
9088 1 14.4712 40.5389 4.6816 3 0.000182154 -4.10912
9089 1 13.6175 40.542 2.34946 3 0.00015952 -4.10956
9090 1 16.1802 40.5309 2.3515 3 0.000241917 -4.10809
9091 1 15.3254 40.5352 0.0195618 3 0.000209224 -4.10863
9092 1 17.892 40.5201 0.0208614 3 0.000330859 -4.10679
9093 1 0.847822 38.5488 26.8117 3 6.54262e-05 -4.11394
9094 1 3.90858e-12 38.5488 24.4793 3 6.51277e-05 -4.11395
9095 1 2.54355 38.5486 24.4823 3 6.80542e-05 -4.11386
9096 1 1.69566 38.5487 22.15 3 6.63748e-05 -4.11391
9097 1 4.23952 38.5483 22.153 3 7.3456e-05 -4.1137
9098 1 3.39149 38.5485 19.8206 3 7.03797e-05 -4.11379
9099 1 5.93592 38.5477 19.8236 3 8.22134e-05 -4.11346
9100 1 5.08766 38.548 17.4913 3 7.738e-05 -4.11359
9101 1 7.63294 38.5467 17.4942 3 9.52062e-05 -4.11313
9102 1 6.78434 38.5472 15.1619 3 8.81217e-05 -4.11331
9103 1 9.33078 38.5451 15.1648 3 0.000113716 -4.11271
9104 1 8.48174 38.546 12.8325 3 0.000103655 -4.11293
9105 1 11.0297 38.5428 12.8353 3 0.000139759 -4.11216
9106 1 10.1801 38.5441 10.503 3 0.000125644 -4.11245
9107 1 12.73 38.5393 10.5057 3 0.000176425 -4.11148
9108 1 11.8797 38.5412 8.17349 3 0.000156521 -4.11184
9109 1 14.4321 38.5344 8.17602 3 0.00022877 -4.11063
9110 1 13.5808 38.5371 5.84386 3 0.000200182 -4.11108
9111 1 16.1365 38.5274 5.84607 3 0.000304374 -4.10957
9112 1 15.284 38.5312 3.51403 3 0.000262943 -4.11013
9113 1 17.8436 38.5177 3.51577 3 0.000418448 -4.10821
9114 1 16.9896 38.523 1.18393 3 0.000355448 -4.10893
9115 1 19.5545 38.5044 1.18493 3 0.000601529 -4.10638
9116 1 0.845257 36.5383 30.3084 3 8.34506e-05 -4.11551
9117 1 9.28805e-12 36.5383 27.9764 3 8.30989e-05 -4.11552
9118 1 2.53584 36.5382 27.9783 3 8.62987e-05 -4.11544
9119 1 1.69053 36.5382 25.6463 3 8.45085e-05 -4.11548
9120 1 4.22663 36.538 25.6482 3 9.22731e-05 -4.1153
9121 1 3.3812 36.5381 23.3162 3 8.88578e-05 -4.11538
9122 1 5.91778 36.5376 23.3181 3 0.000102039 -4.11508
9123 1 5.07215 36.5378 20.9861 3 9.66157e-05 -4.1152
9124 1 7.60944 36.537 20.9881 3 0.000116846 -4.11477
9125 1 6.76353 36.5373 18.6561 3 0.000108721 -4.11494
9126 1 9.30183 36.5358 18.658 3 0.000138424 -4.11437
9127 1 8.45553 36.5365 16.326 3 0.000126611 -4.11459
9128 1 10.9952 36.5341 16.3279 3 0.000169651 -4.11387
9129 1 10.1484 36.535 13.9959 3 0.000152629 -4.11414
9130 1 12.6897 36.5313 13.9979 3 0.000215238 -4.11322
9131 1 11.8423 36.5328 11.6659 3 0.000190284 -4.11357
9132 1 14.3859 36.5273 11.6678 3 0.00028186 -4.11242
9133 1 13.5376 36.5295 9.33578 3 0.000245275 -4.11284
9134 1 16.0842 36.5215 9.33755 3 0.000381385 -4.11138
9135 1 15.2347 36.5247 7.00563 3 0.00032674 -4.11193
9136 1 17.7851 36.5134 7.00718 3 0.000533808 -4.11003
9137 1 16.9343 36.5178 4.67534 3 0.000448906 -4.11076
9138 1 19.4898 36.502 4.67646 3 0.00077966 -4.10821
9139 1 18.6369 36.5081 2.34484 3 0.000641136 -4.10919
9140 1 21.1995 36.4861 2.34524 3 0.00124811 -4.10542
9141 1 20.3438 36.4947 0.013904 3 0.000962799 -4.10695
9142 1 22.9163 36.4641 0.013297 3 0.00251009 -4.10069
9143 1 0.842399 34.5244 33.8049 3 0.000100115 -4.11706
9144 1 1.59671e-11 34.5244 31.4734 3 9.9771e-05 -4.11707
9145 1 2.52724 34.5244 31.4738 3 0.000102928 -4.117
9146 1 1.68481 34.5244 29.1423 3 0.000101178 -4.11704
9147 1 4.21222 34.5243 29.1428 3 0.00010893 -4.11688
9148 1 3.3697 34.5244 26.8113 3 0.000105486 -4.11695
9149 1 5.89743 34.5242 26.8117 3 0.000118807 -4.11669
9150 1 5.05479 34.5243 24.4802 3 0.000113274 -4.11679
9151 1 7.58299 34.5238 24.4806 3 0.000133924 -4.11644
9152 1 6.74016 34.524 22.1491 3 0.000125593 -4.11657
9153 1 9.26904 34.5231 22.1496 3 0.000156629 -4.1161
9154 1 8.42594 34.5235 19.8181 3 0.000144167 -4.11628
9155 1 10.9558 34.5218 19.8185 3 0.000190723 -4.11567
9156 1 10.1123 34.5225 17.487 3 0.000171836 -4.1159
9157 1 12.6434 34.5199 17.4875 3 0.000242188 -4.11512
9158 1 11.7994 34.521 15.156 3 0.000213748 -4.11541
9159 1 14.3322 34.5168 15.1564 3 0.000322982 -4.11441
9160 1 13.4876 34.5185 12.8249 3 0.000278421 -4.11479
9161 1 16.0226 34.5123 12.8253 3 0.000452612 -4.1135
9162 1 15.1772 34.5148 10.4938 3 0.000379088 -4.114
9163 1 17.7154 34.5058 10.4941 3 0.000662642 -4.11231
9164 1 16.8687 34.5094 8.16267 3 0.000544517 -4.11294
9165 1 19.4112 34.4967 8.16273 3 0.0010314 -4.11059
9166 1 18.5628 34.5017 5.8314 3 0.00082256 -4.11151
9167 1 21.1115 34.484 5.83093 3 0.00171058 -4.10786
9168 1 20.2607 34.4908 3.49982 3 0.00131102 -4.10947
9169 1 22.8192 34.4661 3.49824 3 0.00352723 -4.10307
9170 1 21.9642 34.4759 1.16774 3 0.00235013 -4.10581
9171 1 24.5395 34.4403 1.16513 3 0.00816224 -4.09364
9172 1 0.839328 32.5069 37.3014 3 0.000109647 -4.11845
9173 1 2.1981e-11 32.5069 34.9704 3 0.000109343 -4.11846
9174 1 2.51799 32.5069 34.9691 3 0.000112312 -4.11841
9175 1 1.67866 32.5069 32.6382 3 0.000110635 -4.11844
9176 1 4.19669 32.5069 32.6368 3 0.000117929 -4.11831
9177 1 3.35734 32.5069 30.3059 3 0.000114696 -4.11837
9178 1 5.87544 32.5069 30.3045 3 0.00012712 -4.11817
9179 1 5.03606 32.5069 27.9737 3 0.000122039 -4.11825
9180 1 7.55428 32.5067 27.9722 3 0.000141077 -4.11797
9181 1 6.71485 32.5068 25.6413 3 0.000133417 -4.11808
9182 1 9.23325 32.5063 25.6398 3 0.000161637 -4.11771
9183 1 8.39374 32.5065 23.309 3 0.000150226 -4.11785
9184 1 10.9124 32.5054 23.3073 3 0.000192013 -4.11739
9185 1 10.0728 32.5059 20.9765 3 0.000175519 -4.11756
9186 1 12.5919 32.504 20.9747 3 0.00023953 -4.11697
9187 1 11.7521 32.5048 18.644 3 0.000213233 -4.11719
9188 1 14.2717 32.5017 18.642 3 0.000314636 -4.11645
9189 1 13.4317 32.503 16.3113 3 0.000271177 -4.11673
9190 1 15.9523 32.4983 16.3091 3 0.000439292 -4.11582
9191 1 15.1119 32.5002 13.9786 3 0.00037052 -4.11615
9192 1 17.6339 32.4934 13.976 3 0.000686325 -4.11496
9193 1 16.7929 32.4961 11.6456 3 0.000543753 -4.11541
9194 1 19.317 32.4865 11.6425 3 0.00118508 -4.11381
9195 1 18.4753 32.4902 9.31226 3 0.000870441 -4.11448
9196 1 21.0032 32.477 9.30824 3 0.00232825 -4.11213
9197 1 20.1596 32.4822 6.97851 3 0.00165626 -4.11302
9198 1 22.6938 32.4646 6.9727 3 0.00575021 -4.10828
9199 1 21.8474 32.4714 4.64369 3 0.00359885 -4.11056
9200 1 24.3931 32.4477 4.63415 3 0.0199622 -4.10077
9201 1 23.5428 32.4566 2.30653 3 0.00962052 -4.10511
9202 1 26.1203 32.4177 2.29418 3 5.44731 -4.08656
9203 1 25.2509 32.4359 48.9252 3 0.0366545 -4.09445
9204 1 27.9135 32.3699 48.9171 5 4.98126 -4.05262
9205 1 0.857473 56.5548 2.33166 3 1.06806e-06 -4.10574
9206 1 64.2924 56.5548 4.07318e-10 3 9.48041e-07 -4.10574
9207 1 2.57244 56.5547 0.000871304 3 2.06605e-06 -4.10573
9208 1 0.857472 54.5578 5.82897 3 1.17353e-06 -4.10689
9209 1 64.2924 54.5579 3.49704 3 1.0502e-06 -4.10689
9210 1 2.57246 54.5576 3.49872 3 2.17642e-06 -4.10685
9211 1 1.71495 54.5578 1.1668 3 1.54511e-06 -4.10688
9212 1 4.28757 54.5571 1.1684 3 4.27623e-06 -4.10678
9213 1 0.857222 52.5607 9.32626 3 2.74717e-06 -4.10707
9214 1 1.01588e-11 52.5607 6.99409 3 2.6156e-06 -4.10707
9215 1 2.57172 52.5604 6.99649 3 3.82552e-06 -4.10702
9216 1 1.71446 52.5606 4.66433 3 3.14933e-06 -4.10705
9217 1 4.28639 52.5598 4.66664 3 6.02882e-06 -4.10692
9218 1 3.42903 52.5601 2.33453 3 4.7783e-06 -4.10698
9219 1 6.00134 52.5588 2.33666 3 9.49839e-06 -4.10678
9220 1 5.14382 52.5593 0.004622 3 7.59679e-06 -4.10686
9221 1 7.71666 52.5574 0.00649113 3 1.44333e-05 -4.1066
9222 1 0.856718 50.563 12.8235 3 5.78117e-06 -4.10746
9223 1 64.2924 50.5631 10.4911 3 5.63395e-06 -4.10747
9224 1 2.57022 50.5627 10.4942 3 6.95854e-06 -4.10741
9225 1 1.71345 50.5629 8.1618 3 6.22142e-06 -4.10744
9226 1 4.28392 50.562 8.16473 3 9.34806e-06 -4.10729
9227 1 3.42704 50.5624 5.83242 3 8.00006e-06 -4.10736
9228 1 5.99796 50.5609 5.83515 3 1.30822e-05 -4.10712
9229 1 5.14089 50.5615 3.50292 3 1.10349e-05 -4.10721
9230 1 7.71245 50.5592 3.50535 3 1.83377e-05 -4.1069
9231 1 6.85514 50.5601 1.17324 3 1.55084e-05 -4.10701
9232 1 9.42752 50.5569 1.17527 3 2.53059e-05 -4.10662
9233 1 0.85595 48.5646 16.3207 3 1.03618e-05 -4.10807
9234 1 64.2924 48.5646 13.9882 3 1.02026e-05 -4.10808
9235 1 2.56793 48.5642 13.9917 3 1.16332e-05 -4.108
9236 1 1.71192 48.5645 11.6592 3 1.0833e-05 -4.10804
9237 1 4.28013 48.5635 11.6626 3 1.42836e-05 -4.10787
9238 1 3.42399 48.5639 9.33016 3 1.27857e-05 -4.10795
9239 1 5.99272 48.5623 9.33341 3 1.84348e-05 -4.10768
9240 1 5.13637 48.563 7.00101 3 1.61641e-05 -4.10778
9241 1 7.70583 48.5605 7.00396 3 2.42822e-05 -4.10742
9242 1 6.8492 48.5615 4.67167 3 2.11128e-05 -4.10755
9243 1 9.41963 48.558 4.67422 3 3.21178e-05 -4.10709
9244 1 8.56264 48.5594 2.34209 3 2.79348e-05 -4.10726
9245 1 11.1342 48.5546 2.34411 3 4.23927e-05 -4.10672
9246 1 10.2768 48.5564 0.0121751 3 3.69292e-05 -4.10691
9247 1 12.8498 48.55 0.0135342 3 5.5309e-05 -4.10629
9248 1 0.854913 46.565 19.8179 3 1.66562e-05 -4.10888
9249 1 64.2924 46.5651 17.4852 3 1.64701e-05 -4.10888
9250 1 2.56482 46.5647 17.4892 3 1.809e-05 -4.1088
9251 1 1.70985 46.5649 15.1565 3 1.71883e-05 -4.10885
9252 1 4.27498 46.564 15.1603 3 2.10665e-05 -4.10866
9253 1 3.41986 46.5644 12.8277 3 1.93806e-05 -4.10874
9254 1 5.98556 46.5628 12.8314 3 2.57534e-05 -4.10844
9255 1 5.13021 46.5634 10.4988 3 2.31807e-05 -4.10856
9256 1 7.69673 46.561 10.5022 3 3.24265e-05 -4.10815
9257 1 6.84106 46.5619 8.16978 3 2.8816e-05 -4.10831
9258 1 9.40866 46.5584 8.17279 3 4.14914e-05 -4.10779
9259 1 8.55259 46.5598 5.8405 3 3.66203e-05 -4.10798
9260 1 11.1215 46.5548 5.84302 3 5.35734e-05 -4.10735
9261 1 10.265 46.5568 3.51091 3 4.71272e-05 -4.10758
9262 1 12.8355 46.55 3.51281 3 6.94899e-05 -4.10683
9263 1 11.9784 46.5526 1.18093 3 6.10093e-05 -4.1071
9264 1 14.5508 46.5435 1.18204 3 8.98417e-05 -4.10624
9265 1 0.853596 44.5641 23.315 3 2.49202e-05 -4.10988
9266 1 64.2924 44.5641 20.9823 3 2.4701e-05 -4.10989
9267 1 2.56087 44.5637 20.9864 3 2.66081e-05 -4.1098
9268 1 1.70721 44.5639 18.6537 3 2.55411e-05 -4.10985
9269 1 4.26842 44.563 18.6577 3 2.99929e-05 -4.10965
9270 1 3.4146 44.5634 16.325 3 2.80714e-05 -4.10974
9271 1 5.97641 44.5619 16.3289 3 3.54152e-05 -4.10942
9272 1 5.12235 44.5625 13.9963 3 3.24567e-05 -4.10954
9273 1 7.68503 44.5602 14 3 4.31812e-05 -4.1091
9274 1 6.83063 44.5611 11.6674 3 3.89599e-05 -4.10927
9275 1 9.39448 44.5577 11.6708 3 5.38302e-05 -4.1087
9276 1 8.53964 44.5591 9.33837 3 4.81043e-05 -4.10891
9277 1 11.105 44.5542 9.34132 3 6.82774e-05 -4.10821
9278 1 10.2496 44.5561 7.00905 3 6.04978e-05 -4.10847
9279 1 12.8167 44.5494 7.01146 3 8.78852e-05 -4.10762
9280 1 11.9607 44.552 4.6794 3 7.73617e-05 -4.10793
9281 1 14.53 44.5428 4.68112 3 0.000114335 -4.10692
9282 1 13.6732 44.5464 2.34931 3 0.000100116 -4.10729
9283 1 16.2451 44.534 2.35015 3 0.000149442 -4.10611
9284 1 15.3873 44.5387 0.0186772 3 0.000130694 -4.10653
9285 1 17.9622 44.5224 0.0184283 3 0.000194065 -4.10517
9286 1 0.851985 42.5613 26.812 3 3.56627e-05 -4.11108
9287 1 64.2924 42.5613 24.4793 3 3.54118e-05 -4.11109
9288 1 2.55604 42.561 24.4834 3 3.75856e-05 -4.111
9289 1 1.70399 42.5612 22.1507 3 3.63613e-05 -4.11105
9290 1 4.26038 42.5604 22.1547 3 4.15799e-05 -4.11084
9291 1 3.40816 42.5607 19.822 3 3.93075e-05 -4.11093
9292 1 5.96516 42.5594 19.8259 3 4.79016e-05 -4.11059
9293 1 5.1127 42.5599 17.4933 3 4.44245e-05 -4.11072
9294 1 7.67061 42.5579 17.497 3 5.70569e-05 -4.11026
9295 1 6.81779 42.5587 15.1645 3 5.20948e-05 -4.11044
9296 1 9.37693 42.5556 15.168 3 6.97246e-05 -4.10984
9297 1 8.52365 42.5568 12.8355 3 6.28703e-05 -4.11006
9298 1 11.0844 42.5523 12.8387 3 8.71759e-05 -4.10931
9299 1 10.2305 42.5541 10.5063 3 7.77779e-05 -4.10959
9300 1 12.7932 42.5478 10.5091 3 0.000111213 -4.10866
9301 1 11.9386 42.5502 8.17692 3 9.82295e-05 -4.109
9302 1 14.5037 42.5415 8.17917 3 0.000144591 -4.10788
9303 1 13.6482 42.5449 5.84717 3 0.000126503 -4.10829
9304 1 16.2162 42.5329 5.84868 3 0.000191662 -4.10693
9305 1 15.3596 42.5375 3.51696 3 0.000166097 -4.10743
9306 1 17.9312 42.5214 3.51752 3 0.000258139 -4.10578
9307 1 17.0734 42.5276 1.18615 3 0.000222109 -4.10638
9308 1 19.6493 42.5061 1.18549 3 0.000348477 -4.10439
9309 1 0.850065 40.5563 30.309 3 4.91519e-05 -4.11244
9310 1 64.2924 40.5563 27.9764 3 4.88622e-05 -4.11245
9311 1 2.55028 40.5561 27.9801 3 5.13916e-05 -4.11236
9312 1 1.70015 40.5562 25.6475 3 4.9966e-05 -4.11241
9313 1 4.25077 40.5556 25.6512 3 5.61058e-05 -4.1122
9314 1 3.40048 40.5559 23.3186 3 5.34147e-05 -4.11229
9315 1 5.95171 40.5548 23.3222 3 6.36053e-05 -4.11195
9316 1 5.10117 40.5552 20.9897 3 5.94724e-05 -4.11209
9317 1 7.6533 40.5535 20.9932 3 7.44571e-05 -4.11161
9318 1 6.80241 40.5542 18.6607 3 6.85581e-05 -4.11179
9319 1 9.35577 40.5515 18.6641 3 8.98292e-05 -4.11118
9320 1 8.50441 40.5526 16.3316 3 8.15436e-05 -4.11141
9321 1 11.0594 40.5487 16.3349 3 0.00011106 -4.11063
9322 1 10.2074 40.5503 14.0025 3 9.9578e-05 -4.11092
9323 1 12.7644 40.5446 14.0054 3 0.000140532 -4.10995
9324 1 11.9117 40.5468 11.6731 3 0.000124584 -4.11031
9325 1 14.4712 40.5389 11.6757 3 0.000182154 -4.10912
9326 1 13.6175 40.542 9.34355 3 0.00015952 -4.10956
9327 1 16.1802 40.5309 9.34559 3 0.000241917 -4.10809
9328 1 15.3254 40.5352 7.01365 3 0.000209224 -4.10863
9329 1 17.892 40.5201 7.01495 3 0.000330859 -4.10679
9330 1 17.0357 40.5259 4.6833 3 0.000281858 -4.10748
9331 1 19.6072 40.5054 4.68358 3 0.000470604 -4.10512
9332 1 18.7491 40.5133 2.35233 3 0.000391777 -4.10601
9333 1 21.3269 40.4858 2.35123 3 0.000674869 -4.10288
9334 1 20.4665 40.4963 0.0204941 3 0.000568832 -4.10409
9335 1 23.0524 40.4595 0.0174942 3 0.0007533 -4.10038
9336 1 0.847822 38.5488 33.8058 3 6.54262e-05 -4.11394
9337 1 3.44937e-12 38.5488 31.4734 3 6.51277e-05 -4.11395
9338 1 2.54355 38.5486 31.4764 3 6.80542e-05 -4.11386
9339 1 1.69566 38.5487 29.1441 3 6.63748e-05 -4.11391
9340 1 4.23952 38.5483 29.1471 3 7.3456e-05 -4.1137
9341 1 3.39149 38.5485 26.8147 3 7.03797e-05 -4.11379
9342 1 5.93592 38.5477 26.8177 3 8.22134e-05 -4.11346
9343 1 5.08766 38.548 24.4853 3 7.738e-05 -4.11359
9344 1 7.63294 38.5467 24.4883 3 9.52062e-05 -4.11313
9345 1 6.78434 38.5472 22.156 3 8.81217e-05 -4.11331
9346 1 9.33078 38.5451 22.1589 3 0.000113716 -4.11271
9347 1 8.48174 38.546 19.8266 3 0.000103655 -4.11293
9348 1 11.0297 38.5428 19.8294 3 0.000139759 -4.11216
9349 1 10.1801 38.5441 17.4971 3 0.000125644 -4.11245
9350 1 12.73 38.5393 17.4998 3 0.000176425 -4.11148
9351 1 11.8797 38.5412 15.1676 3 0.000156521 -4.11184
9352 1 14.4321 38.5344 15.1701 3 0.00022877 -4.11063
9353 1 13.5808 38.5371 12.8379 3 0.000200182 -4.11108
9354 1 16.1365 38.5274 12.8402 3 0.000304374 -4.10957
9355 1 15.284 38.5312 10.5081 3 0.000262943 -4.11013
9356 1 17.8436 38.5177 10.5099 3 0.000418448 -4.10821
9357 1 16.9896 38.523 8.17802 3 0.000355448 -4.10893
9358 1 19.5545 38.5044 8.17902 3 0.000601529 -4.10638
9359 1 18.6986 38.5116 5.84747 3 0.000497936 -4.10738
9360 1 21.2704 38.4862 5.84739 3 0.000956126 -4.10379
9361 1 20.4117 38.496 3.51628 3 0.000745357 -4.10521
9362 1 22.9931 38.461 3.5147 3 0.00140074 -4.09991
9363 1 22.1306 38.4747 1.1842 3 0.00123353 -4.10194
9364 1 24.7265 38.4263 1.18017 3 0.00134931 -4.09617
9365 1 0.845257 36.5383 37.3025 3 8.34506e-05 -4.11551
9366 1 1.53711e-11 36.5383 34.9704 3 8.30989e-05 -4.11552
9367 1 2.53584 36.5382 34.9724 3 8.62987e-05 -4.11544
9368 1 1.69053 36.5382 32.6404 3 8.45085e-05 -4.11548
9369 1 4.22663 36.538 32.6423 3 9.22731e-05 -4.1153
9370 1 3.3812 36.5381 30.3103 3 8.88578e-05 -4.11538
9371 1 5.91778 36.5376 30.3122 3 0.000102039 -4.11508
9372 1 5.07215 36.5378 27.9802 3 9.66157e-05 -4.1152
9373 1 7.60944 36.537 27.9822 3 0.000116846 -4.11477
9374 1 6.76353 36.5373 25.6501 3 0.000108721 -4.11494
9375 1 9.30183 36.5358 25.6521 3 0.000138424 -4.11437
9376 1 8.45553 36.5365 23.3201 3 0.000126611 -4.11459
9377 1 10.9952 36.5341 23.322 3 0.000169651 -4.11387
9378 1 10.1484 36.535 20.99 3 0.000152629 -4.11414
9379 1 12.6897 36.5313 20.992 3 0.000215238 -4.11322
9380 1 11.8423 36.5328 18.66 3 0.000190284 -4.11357
9381 1 14.3859 36.5273 18.6618 3 0.00028186 -4.11242
9382 1 13.5376 36.5295 16.3299 3 0.000245275 -4.11284
9383 1 16.0842 36.5215 16.3316 3 0.000381385 -4.11138
9384 1 15.2347 36.5247 13.9997 3 0.00032674 -4.11193
9385 1 17.7851 36.5134 14.0013 3 0.000533808 -4.11003
9386 1 16.9343 36.5178 11.6694 3 0.000448906 -4.11076
9387 1 19.4898 36.502 11.6706 3 0.00077966 -4.10821
9388 1 18.6369 36.5081 9.33893 3 0.000641136 -4.10919
9389 1 21.1995 36.4861 9.33933 3 0.00124811 -4.10542
9390 1 20.3438 36.4947 7.00799 3 0.000962799 -4.10695
9391 1 22.9163 36.4641 7.00739 3 0.00251009 -4.10069
9392 1 22.0569 36.4759 4.67634 3 0.00172688 -4.10345
9393 1 24.6474 36.4312 4.67421 3 0.00321826 -4.09408
9394 1 23.7795 36.4493 2.34397 3 0.00306559 -4.09744
9395 1 26.3958 36.3874 2.33956 3 0.00318988 -4.08774
9396 1 25.5201 36.4098 0.00955904 3 0.00308206 -4.0913
9397 1 28.1566 36.341 0.00540881 3 0.00417114 -4.08046
9398 1 0.842399 34.5244 40.799 3 0.000100115 -4.11706
9399 1 2.40061e-11 34.5244 38.4675 3 9.9771e-05 -4.11707
9400 1 2.52724 34.5244 38.4679 3 0.000102928 -4.117
9401 1 1.68481 34.5244 36.1364 3 0.000101178 -4.11704
9402 1 4.21222 34.5243 36.1369 3 0.00010893 -4.11688
9403 1 3.3697 34.5244 33.8054 3 0.000105486 -4.11695
9404 1 5.89743 34.5242 33.8058 3 0.000118807 -4.11669
9405 1 5.05479 34.5243 31.4743 3 0.000113274 -4.11679
9406 1 7.58299 34.5238 31.4747 3 0.000133924 -4.11644
9407 1 6.74016 34.524 29.1432 3 0.000125593 -4.11657
9408 1 9.26904 34.5231 29.1437 3 0.000156629 -4.1161
9409 1 8.42594 34.5235 26.8122 3 0.000144167 -4.11628
9410 1 10.9558 34.5218 26.8126 3 0.000190723 -4.11567
9411 1 10.1123 34.5225 24.4811 3 0.000171836 -4.1159
9412 1 12.6434 34.5199 24.4816 3 0.000242188 -4.11512
9413 1 11.7994 34.521 22.15 3 0.000213748 -4.11541
9414 1 14.3322 34.5168 22.1505 3 0.000322982 -4.11441
9415 1 13.4876 34.5185 19.819 3 0.000278421 -4.11479
9416 1 16.0226 34.5123 19.8194 3 0.000452612 -4.1135
9417 1 15.1772 34.5148 17.4879 3 0.000379088 -4.114
9418 1 17.7154 34.5058 17.4882 3 0.000662642 -4.11231
9419 1 16.8687 34.5094 15.1568 3 0.000544517 -4.11294
9420 1 19.4112 34.4967 15.1568 3 0.0010314 -4.11059
9421 1 18.5628 34.5017 12.8255 3 0.00082256 -4.11151
9422 1 21.1115 34.484 12.825 3 0.00171058 -4.10786
9423 1 20.2607 34.4908 10.4939 3 0.00131102 -4.10947
9424 1 22.8192 34.4661 10.4923 3 0.00352723 -4.10307
9425 1 21.9642 34.4759 8.16183 3 0.00235013 -4.10581
9426 1 24.5395 34.4403 8.15922 3 0.00816224 -4.09364
9427 1 23.6764 34.4548 5.82884 3 0.00592012 -4.09891
9428 1 26.2903 34.396 5.82499 3 0.0105301 -4.0821
9429 1 25.4104 34.4208 3.49567 3 0.0097437 -4.08763
9430 1 28.0656 34.3478 3.49462 3 0.0138828 -4.06229
9431 1 27.1743 34.3716 1.16193 3 0.0124144 -4.0745
9432 1 29.8721 34.3014 1.16002 3 0.0265573 -4.04467
9433 1 0.839328 32.5069 44.2955 3 0.000109647 -4.11845
9434 1 2.53746e-11 32.5069 41.9645 3 0.000109343 -4.11846
9435 1 2.51799 32.5069 41.9632 3 0.000112312 -4.11841
9436 1 1.67866 32.5069 39.6323 3 0.000110635 -4.11844
9437 1 4.19669 32.5069 39.6309 3 0.000117929 -4.11831
9438 1 3.35734 32.5069 37.3 3 0.000114696 -4.11837
9439 1 5.87544 32.5069 37.2986 3 0.00012712 -4.11817
9440 1 5.03606 32.5069 34.9677 3 0.000122039 -4.11825
9441 1 7.55428 32.5067 34.9663 3 0.000141077 -4.11797
9442 1 6.71485 32.5068 32.6354 3 0.000133417 -4.11808
9443 1 9.23325 32.5063 32.6339 3 0.000161637 -4.11771
9444 1 8.39374 32.5065 30.303 3 0.000150226 -4.11785
9445 1 10.9124 32.5054 30.3014 3 0.000192013 -4.11739
9446 1 10.0728 32.5059 27.9706 3 0.000175519 -4.11756
9447 1 12.5919 32.504 27.9688 3 0.00023953 -4.11697
9448 1 11.7521 32.5048 25.6381 3 0.000213233 -4.11719
9449 1 14.2717 32.5017 25.6361 3 0.000314636 -4.11645
9450 1 13.4317 32.503 23.3054 3 0.000271177 -4.11673
9451 1 15.9523 32.4983 23.3032 3 0.000439292 -4.11582
9452 1 15.1119 32.5002 20.9727 3 0.00037052 -4.11615
9453 1 17.6339 32.4934 20.9701 3 0.000686325 -4.11496
9454 1 16.7929 32.4961 18.6397 3 0.000543753 -4.11541
9455 1 19.317 32.4865 18.6366 3 0.00118508 -4.11381
9456 1 18.4753 32.4902 16.3063 3 0.000870441 -4.11448
9457 1 21.0032 32.477 16.3023 3 0.00232825 -4.11213
9458 1 20.1596 32.4822 13.9726 3 0.00165626 -4.11302
9459 1 22.6938 32.4646 13.9668 3 0.00575021 -4.10828
9460 1 21.8474 32.4714 11.6378 3 0.00359885 -4.11056
9461 1 24.3931 32.4477 11.6282 3 0.0199622 -4.10077
9462 1 23.5428 32.4566 9.30062 3 0.00962052 -4.10511
9463 1 26.1203 32.4177 9.28827 3 5.44731 -4.08656
9464 1 25.2509 32.4359 6.96064 3 0.0366545 -4.09445
9465 1 27.9135 32.3699 6.95258 5 4.98126 -4.05262
9466 1 27.0111 32.3907 4.62143 3 5.2658 -4.0762
9467 1 29.7822 32.3586 4.63822 5 4.33741 -4.00223
9468 1 28.8278 32.3602 2.29355 5 4.64227 -4.02379
9469 1 31.6882 32.3221 2.32727 5 3.36755 -4.03647
9470 1 30.7596 32.3358 48.9398 5 4.29487 -4.01722
9471 1 33.5328 32.3358 0.0188549 5 4.29487 -4.01722
9472 1 0.857232 60.5706 2.33136 3 5.76e-18 -4.09064
9473 1 0 60.5706 0 3 2.811e-17 -4.09064
9474 1 2.5717 60.5706 0 3 4.0507e-16 -4.09063
9475 1 0.857232 58.5516 5.82841 3 0.000989617 -4.10599
9476 1 0 58.5516 3.49704 3 0.00099079 -4.10599
9477 1 2.5717 58.5516 3.49704 3 0.000980179 -4.10598
9478 1 1.71446 58.5516 1.16568 3 0.000986078 -4.10599
9479 1 4.28616 58.5516 1.16568 3 0.000961107 -4.10597
9480 1 0.857473 56.5548 9.32575 3 1.06806e-06 -4.10574
9481 1 64.2924 56.5548 6.99409 3 9.48043e-07 -4.10574
9482 1 2.57244 56.5547 6.99496 3 2.06606e-06 -4.10573
9483 1 1.71495 56.5548 4.66331 3 1.43672e-06 -4.10574
9484 1 4.28749 56.5544 4.66414 3 4.20209e-06 -4.1057
9485 1 3.42995 56.5546 2.33251 3 2.97657e-06 -4.10572
9486 1 6.00264 56.554 2.33328 3 7.72884e-06 -4.10566
9487 1 5.14505 56.5542 0.00167335 3 5.77088e-06 -4.10568
9488 1 7.71796 56.5534 0.00233014 3 1.30196e-05 -4.10562
9489 1 0.857472 54.5578 12.8231 3 1.17353e-06 -4.10689
9490 1 64.2924 54.5579 10.4911 3 1.0502e-06 -4.10689
9491 1 2.57246 54.5576 10.4928 3 2.17642e-06 -4.10685
9492 1 1.71495 54.5578 8.16089 3 1.54511e-06 -4.10688
9493 1 4.28757 54.5571 8.16249 3 4.27623e-06 -4.10678
9494 1 3.42999 54.5574 5.83061 3 3.08042e-06 -4.10682
9495 1 6.00289 54.5564 5.83208 3 7.66455e-06 -4.10667
9496 1 5.1452 54.5568 3.50026 3 5.79416e-06 -4.10673
9497 1 7.71848 54.5553 3.50153 3 1.25246e-05 -4.10653
9498 1 6.86065 54.5559 1.16979 3 9.89856e-06 -4.1066
9499 1 9.43439 54.5539 1.17079 3 1.91666e-05 -4.10637
9500 1 0.857222 52.5607 16.3203 3 2.74717e-06 -4.10707
9501 1 64.2924 52.5607 13.9882 3 2.6156e-06 -4.10707
9502 1 2.57172 52.5604 13.9906 3 3.82552e-06 -4.10702
9503 1 1.71446 52.5606 11.6584 3 3.14933e-06 -4.10705
9504 1 4.28639 52.5598 11.6607 3 6.02882e-06 -4.10692
9505 1 3.42903 52.5601 9.32862 3 4.7783e-06 -4.10698
9506 1 6.00134 52.5588 9.33075 3 9.49839e-06 -4.10678
9507 1 5.14382 52.5593 6.99871 3 7.59679e-06 -4.10686
9508 1 7.71666 52.5574 7.00058 3 1.44333e-05 -4.1066
9509 1 6.85894 52.5581 4.66865 3 1.17649e-05 -4.10669
9510 1 9.43243 52.5554 4.67016 3 2.10083e-05 -4.10638
9511 1 8.57448 52.5565 2.33836 3 1.7502e-05 -4.10649
9512 1 11.1487 52.5528 2.33942 3 2.9395e-05 -4.10614
9513 1 10.2905 52.5542 0.00778856 3 2.49661e-05 -4.10626
9514 1 12.8655 52.5494 0.00828421 3 3.9559e-05 -4.10589
9515 1 0.856718 50.563 19.8176 3 5.78117e-06 -4.10746
9516 1 64.2924 50.5631 17.4852 3 5.63395e-06 -4.10747
9517 1 2.57022 50.5627 17.4883 3 6.95854e-06 -4.10741
9518 1 1.71345 50.5629 15.1559 3 6.22142e-06 -4.10744
9519 1 4.28392 50.562 15.1588 3 9.34806e-06 -4.10729
9520 1 3.42704 50.5624 12.8265 3 8.00006e-06 -4.10736
9521 1 5.99796 50.5609 12.8292 3 1.30822e-05 -4.10712
9522 1 5.14089 50.5615 10.497 3 1.10349e-05 -4.10721
9523 1 7.71245 50.5592 10.4994 3 1.83377e-05 -4.1069
9524 1 6.85514 50.5601 8.16732 3 1.55084e-05 -4.10701
9525 1 9.42752 50.5569 8.16936 3 2.53059e-05 -4.10662
9526 1 8.56991 50.5581 5.8374 3 2.15863e-05 -4.10677
9527 1 11.1433 50.5538 5.83891 3 3.42973e-05 -4.10631
9528 1 10.2853 50.5555 3.50714 3 2.95545e-05 -4.10647
9529 1 12.8597 50.5497 3.50802 3 4.53321e-05 -4.10598
9530 1 12.0014 50.5519 1.17648 3 3.95353e-05 -4.10615
9531 1 14.5769 50.5443 1.17659 3 5.80676e-05 -4.10565
9532 1 0.85595 48.5646 23.3148 3 1.03618e-05 -4.10807
9533 1 64.2924 48.5646 20.9823 3 1.02026e-05 -4.10808
9534 1 2.56793 48.5642 20.9858 3 1.16332e-05 -4.108
9535 1 1.71192 48.5645 18.6533 3 1.0833e-05 -4.10804
9536 1 4.28013 48.5635 18.6567 3 1.42836e-05 -4.10787
9537 1 3.42399 48.5639 16.3242 3 1.27857e-05 -4.10795
9538 1 5.99272 48.5623 16.3275 3 1.84348e-05 -4.10768
9539 1 5.13637 48.563 13.9951 3 1.61641e-05 -4.10778
9540 1 7.70583 48.5605 13.9981 3 2.42822e-05 -4.10742
9541 1 6.8492 48.5615 11.6658 3 2.11128e-05 -4.10755
9542 1 9.41963 48.558 11.6683 3 3.21178e-05 -4.10709
9543 1 8.56264 48.5594 9.33618 3 2.79348e-05 -4.10726
9544 1 11.1342 48.5546 9.3382 3 4.23927e-05 -4.10672
9545 1 10.2768 48.5564 7.00626 3 3.69292e-05 -4.10691
9546 1 12.8498 48.55 7.00762 3 5.5309e-05 -4.10629
9547 1 11.9919 48.5524 4.67593 3 4.84785e-05 -4.10651
9548 1 14.5663 48.5439 4.67648 3 7.1026e-05 -4.10583
9549 1 13.7079 48.5471 2.34508 3 6.28605e-05 -4.10606
9550 1 16.2839 48.5359 2.34468 3 8.8415e-05 -4.10536
9551 1 15.425 48.5401 0.0136225 3 7.96234e-05 -4.10559
9552 1 18.0024 48.526 0.0121462 3 0.000105127 -4.10495
9553 1 0.854913 46.565 26.812 3 1.66562e-05 -4.10888
9554 1 64.2924 46.5651 24.4793 3 1.64701e-05 -4.10888
9555 1 2.56482 46.5647 24.4832 3 1.809e-05 -4.1088
9556 1 1.70985 46.5649 22.1506 3 1.71883e-05 -4.10885
9557 1 4.27498 46.564 22.1544 3 2.10665e-05 -4.10866
9558 1 3.41986 46.5644 19.8218 3 1.93806e-05 -4.10874
9559 1 5.98556 46.5628 19.8255 3 2.57534e-05 -4.10844
9560 1 5.13021 46.5634 17.4929 3 2.31807e-05 -4.10856
9561 1 7.69673 46.561 17.4963 3 3.24265e-05 -4.10815
9562 1 6.84106 46.5619 15.1639 3 2.8816e-05 -4.10831
9563 1 9.40866 46.5584 15.1669 3 4.14914e-05 -4.10779
9564 1 8.55259 46.5598 12.8346 3 3.66203e-05 -4.10798
9565 1 11.1215 46.5548 12.8371 3 5.35734e-05 -4.10735
9566 1 10.265 46.5568 10.505 3 4.71272e-05 -4.10758
9567 1 12.8355 46.55 10.5069 3 6.94899e-05 -4.10683
9568 1 11.9784 46.5526 8.17502 3 6.10093e-05 -4.1071
9569 1 14.5508 46.5435 8.17613 3 8.98417e-05 -4.10624
9570 1 13.693 46.547 5.84455 3 7.90868e-05 -4.10655
9571 1 16.2675 46.5349 5.84471 3 0.000114647 -4.10559
9572 1 15.409 46.5395 3.51347 3 0.000101775 -4.10592
9573 1 17.9857 46.5238 3.51249 3 0.000141292 -4.10492
9574 1 17.1264 46.5297 1.18166 3 0.000128135 -4.10526
9575 1 19.7053 46.5098 1.17941 3 0.000162836 -4.10431
9576 1 0.853596 44.5641 30.3091 3 2.49202e-05 -4.10988
9577 1 64.2924 44.5641 27.9764 3 2.4701e-05 -4.10989
9578 1 2.56087 44.5637 27.9805 3 2.66081e-05 -4.1098
9579 1 1.70721 44.5639 25.6478 3 2.55411e-05 -4.10985
9580 1 4.26842 44.563 25.6518 3 2.99929e-05 -4.10965
9581 1 3.4146 44.5634 23.3191 3 2.80714e-05 -4.10974
9582 1 5.97641 44.5619 23.323 3 3.54152e-05 -4.10942
9583 1 5.12235 44.5625 20.9904 3 3.24567e-05 -4.10954
9584 1 7.68503 44.5602 20.9941 3 4.31812e-05 -4.1091
9585 1 6.83063 44.5611 18.6615 3 3.89599e-05 -4.10927
9586 1 9.39448 44.5577 18.6649 3 5.38302e-05 -4.1087
9587 1 8.53964 44.5591 16.3325 3 4.81043e-05 -4.10891
9588 1 11.105 44.5542 16.3354 3 6.82774e-05 -4.10821
9589 1 10.2496 44.5561 14.0031 3 6.04978e-05 -4.10847
9590 1 12.8167 44.5494 14.0056 3 8.78852e-05 -4.10762
9591 1 11.9607 44.552 11.6735 3 7.73617e-05 -4.10793
9592 1 14.53 44.5428 11.6752 3 0.000114335 -4.10692
9593 1 13.6732 44.5464 9.3434 3 0.000100116 -4.10729
9594 1 16.2451 44.534 9.34424 3 0.000149442 -4.10611
9595 1 15.3873 44.5387 7.01277 3 0.000130694 -4.10653
9596 1 17.9622 44.5224 7.01252 3 0.000194065 -4.10517
9597 1 17.1034 44.5286 4.68144 3 0.000170679 -4.10565
9598 1 19.6816 44.5074 4.67988 3 0.000239108 -4.10415
9599 1 18.8216 44.5154 2.34927 3 0.000217854 -4.10467
9600 1 21.4033 44.4885 2.34618 3 0.000265741 -4.10323
9601 1 20.5422 44.4984 0.0161176 3 0.000254382 -4.10366
9602 1 23.1263 44.4661 0.0115819 3 0.000295317 -4.10269
9603 1 0.851985 42.5613 33.8061 3 3.56627e-05 -4.11108
9604 1 64.2924 42.5613 31.4734 3 3.54118e-05 -4.11109
9605 1 2.55604 42.561 31.4775 3 3.75856e-05 -4.111
9606 1 1.70399 42.5612 29.1448 3 3.63613e-05 -4.11105
9607 1 4.26038 42.5604 29.1488 3 4.15799e-05 -4.11084
9608 1 3.40816 42.5607 26.8161 3 3.93075e-05 -4.11093
9609 1 5.96516 42.5594 26.82 3 4.79016e-05 -4.11059
9610 1 5.1127 42.5599 24.4874 3 4.44245e-05 -4.11072
9611 1 7.67061 42.5579 24.4911 3 5.70569e-05 -4.11026
9612 1 6.81779 42.5587 22.1585 3 5.20948e-05 -4.11044
9613 1 9.37693 42.5556 22.1621 3 6.97246e-05 -4.10984
9614 1 8.52365 42.5568 19.8296 3 6.28703e-05 -4.11006
9615 1 11.0844 42.5523 19.8328 3 8.71759e-05 -4.10931
9616 1 10.2305 42.5541 17.5004 3 7.77779e-05 -4.10959
9617 1 12.7932 42.5478 17.5032 3 0.000111213 -4.10866
9618 1 11.9386 42.5502 15.171 3 9.82295e-05 -4.109
9619 1 14.5037 42.5415 15.1733 3 0.000144591 -4.10788
9620 1 13.6482 42.5449 12.8413 3 0.000126503 -4.10829
9621 1 16.2162 42.5329 12.8428 3 0.000191662 -4.10693
9622 1 15.3596 42.5375 10.511 3 0.000166097 -4.10743
9623 1 17.9312 42.5214 10.5116 3 0.000258139 -4.10578
9624 1 17.0734 42.5276 8.18024 3 0.000222109 -4.10638
9625 1 19.6493 42.5061 8.17958 3 0.000348477 -4.10439
9626 1 18.7898 42.5143 5.84867 3 0.000300849 -4.10512
9627 1 21.3708 42.4862 5.84646 3 0.00042324 -4.10279
9628 1 20.5096 42.4968 3.51613 3 0.000393942 -4.10359
9629 1 23.096 42.4611 3.51208 3 0.000450511 -4.10145
9630 1 22.233 42.4743 1.18237 3 0.000438746 -4.10206
9631 1 24.8233 42.4324 1.17688 3 0.000529361 -4.10061
9632 1 0.850065 40.5563 37.3031 3 4.91519e-05 -4.11244
9633 1 64.2924 40.5563 34.9704 3 4.88622e-05 -4.11245
9634 1 2.55028 40.5561 34.9742 3 5.13916e-05 -4.11236
9635 1 1.70015 40.5562 32.6416 3 4.9966e-05 -4.11241
9636 1 4.25077 40.5556 32.6453 3 5.61058e-05 -4.1122
9637 1 3.40048 40.5559 30.3127 3 5.34147e-05 -4.11229
9638 1 5.95171 40.5548 30.3163 3 6.36053e-05 -4.11195
9639 1 5.10117 40.5552 27.9838 3 5.94724e-05 -4.11209
9640 1 7.6533 40.5535 27.9873 3 7.44571e-05 -4.11161
9641 1 6.80241 40.5542 25.6548 3 6.85581e-05 -4.11179
9642 1 9.35577 40.5515 25.6582 3 8.98292e-05 -4.11118
9643 1 8.50441 40.5526 23.3257 3 8.15436e-05 -4.11141
9644 1 11.0594 40.5487 23.3289 3 0.00011106 -4.11063
9645 1 10.2074 40.5503 20.9965 3 9.9578e-05 -4.11092
9646 1 12.7644 40.5446 20.9995 3 0.000140532 -4.10995
9647 1 11.9117 40.5468 18.6672 3 0.000124584 -4.11031
9648 1 14.4712 40.5389 18.6698 3 0.000182154 -4.10912
9649 1 13.6175 40.542 16.3376 3 0.00015952 -4.10956
9650 1 16.1802 40.5309 16.3397 3 0.000241917 -4.10809
9651 1 15.3254 40.5352 14.0077 3 0.000209224 -4.10863
9652 1 17.892 40.5201 14.009 3 0.000330859 -4.10679
9653 1 17.0357 40.5259 11.6774 3 0.000281858 -4.10748
9654 1 19.6072 40.5054 11.6777 3 0.000470604 -4.10512
9655 1 18.7491 40.5133 9.34642 3 0.000391777 -4.10601
9656 1 21.3269 40.4858 9.34532 3 0.000674869 -4.10288
9657 1 20.4665 40.4963 7.01458 3 0.000568832 -4.10409
9658 1 23.0524 40.4595 7.01158 3 0.0007533 -4.10038
9659 1 22.1889 40.4736 4.68161 3 0.000739321 -4.1016
9660 1 24.7835 40.427 4.67653 3 0.000755249 -4.09835
9661 1 23.9174 40.4438 2.3471 3 0.000740759 -4.09934
9662 1 26.518 40.392 2.34095 3 0.00102093 -4.097
9663 1 25.6506 40.4095 0.0117087 3 0.000834341 -4.09754
9664 1 28.2517 40.3604 0.00592799 3 0.00123587 -4.0965
9665 1 0.847822 38.5488 40.7999 3 6.54262e-05 -4.11394
9666 1 1.04078e-11 38.5488 38.4675 3 6.51277e-05 -4.11395
9667 1 2.54355 38.5486 38.4705 3 6.80542e-05 -4.11386
9668 1 1.69566 38.5487 36.1381 3 6.63748e-05 -4.11391
9669 1 4.23952 38.5483 36.1412 3 7.3456e-05 -4.1137
9670 1 3.39149 38.5485 33.8088 3 7.03797e-05 -4.11379
9671 1 5.93592 38.5477 33.8118 3 8.22134e-05 -4.11346
9672 1 5.08766 38.548 31.4794 3 7.738e-05 -4.11359
9673 1 7.63294 38.5467 31.4824 3 9.52062e-05 -4.11313
9674 1 6.78434 38.5472 29.1501 3 8.81217e-05 -4.11331
9675 1 9.33078 38.5451 29.153 3 0.000113716 -4.11271
9676 1 8.48174 38.546 26.8206 3 0.000103655 -4.11293
9677 1 11.0297 38.5428 26.8235 3 0.000139759 -4.11216
9678 1 10.1801 38.5441 24.4912 3 0.000125644 -4.11245
9679 1 12.73 38.5393 24.4939 3 0.000176425 -4.11148
9680 1 11.8797 38.5412 22.1617 3 0.000156521 -4.11184
9681 1 14.4321 38.5344 22.1642 3 0.00022877 -4.11063
9682 1 13.5808 38.5371 19.832 3 0.000200182 -4.11108
9683 1 16.1365 38.5274 19.8342 3 0.000304374 -4.10957
9684 1 15.284 38.5312 17.5022 3 0.000262943 -4.11013
9685 1 17.8436 38.5177 17.5039 3 0.000418448 -4.10821
9686 1 16.9896 38.523 15.1721 3 0.000355448 -4.10893
9687 1 19.5545 38.5044 15.1731 3 0.000601529 -4.10638
9688 1 18.6986 38.5116 12.8416 3 0.000497936 -4.10738
9689 1 21.2704 38.4862 12.8415 3 0.000956126 -4.10379
9690 1 20.4117 38.496 10.5104 3 0.000745357 -4.10521
9691 1 22.9931 38.461 10.5088 3 0.00140074 -4.09991
9692 1 22.1306 38.4747 8.17829 3 0.00123353 -4.10194
9693 1 24.7265 38.4263 8.17425 3 0.00134931 -4.09617
9694 1 23.8584 38.4448 5.84473 3 0.00142618 -4.09789
9695 1 26.4684 38.3862 5.83899 3 0.00138854 -4.09254
9696 1 25.5966 38.4067 3.50967 3 0.00134237 -4.0943
9697 1 28.2147 38.3464 3.50341 3 0.0022478 -4.09076
9698 1 27.3412 38.3657 1.17421 3 0.0017486 -4.09123
9699 1 29.9602 38.3177 1.16969 3 0.00244152 -4.08852
9700 1 0.845257 36.5383 44.2965 3 8.34506e-05 -4.11551
9701 1 2.01983e-11 36.5383 41.9645 3 8.30989e-05 -4.11552
9702 1 2.53584 36.5382 41.9665 3 8.62987e-05 -4.11544
9703 1 1.69053 36.5382 39.6345 3 8.45085e-05 -4.11548
9704 1 4.22663 36.538 39.6364 3 9.22731e-05 -4.1153
9705 1 3.3812 36.5381 37.3044 3 8.88578e-05 -4.11538
9706 1 5.91778 36.5376 37.3063 3 0.000102039 -4.11508
9707 1 5.07215 36.5378 34.9743 3 9.66157e-05 -4.1152
9708 1 7.60944 36.537 34.9762 3 0.000116846 -4.11477
9709 1 6.76353 36.5373 32.6442 3 0.000108721 -4.11494
9710 1 9.30183 36.5358 32.6462 3 0.000138424 -4.11437
9711 1 8.45553 36.5365 30.3142 3 0.000126611 -4.11459
9712 1 10.9952 36.5341 30.3161 3 0.000169651 -4.11387
9713 1 10.1484 36.535 27.9841 3 0.000152629 -4.11414
9714 1 12.6897 36.5313 27.9861 3 0.000215238 -4.11322
9715 1 11.8423 36.5328 25.654 3 0.000190284 -4.11357
9716 1 14.3859 36.5273 25.6559 3 0.00028186 -4.11242
9717 1 13.5376 36.5295 23.324 3 0.000245275 -4.11284
9718 1 16.0842 36.5215 23.3257 3 0.000381385 -4.11138
9719 1 15.2347 36.5247 20.9938 3 0.00032674 -4.11193
9720 1 17.7851 36.5134 20.9954 3 0.000533808 -4.11003
9721 1 16.9343 36.5178 18.6635 3 0.000448906 -4.11076
9722 1 19.4898 36.502 18.6646 3 0.00077966 -4.10821
9723 1 18.6369 36.5081 16.333 3 0.000641136 -4.10919
9724 1 21.1995 36.4861 16.3334 3 0.00124811 -4.10542
9725 1 20.3438 36.4947 14.0021 3 0.000962799 -4.10695
9726 1 22.9163 36.4641 14.0015 3 0.00251009 -4.10069
9727 1 22.0569 36.4759 11.6704 3 0.00172688 -4.10345
9728 1 24.6474 36.4312 11.6683 3 0.00321826 -4.09408
9729 1 23.7795 36.4493 9.33806 3 0.00306559 -4.09744
9730 1 26.3958 36.3874 9.33365 3 0.00318988 -4.08774
9731 1 25.5201 36.4098 7.00365 3 0.00308206 -4.0913
9732 1 28.1566 36.341 6.9995 3 0.00417114 -4.08046
9733 1 27.2748 36.3642 4.6696 3 0.00319715 -4.08379
9734 1 29.9249 36.3051 4.66531 3 0.00609461 -4.07857
9735 1 29.0408 36.3193 2.33425 3 0.00590725 -4.08035
9736 1 31.7006 36.2915 2.33269 3 0.00557803 -4.07038
9737 1 30.8112 36.2955 0.00281668 3 0.00589158 -4.07495
9738 1 33.4811 36.2955 48.9558 3 0.00589158 -4.07495
9739 1 0.842399 34.5244 47.7931 3 0.000100115 -4.11706
9740 1 1.9049e-11 34.5244 45.4616 3 9.9771e-05 -4.11707
9741 1 2.52724 34.5244 45.462 3 0.000102928 -4.117
9742 1 1.68481 34.5244 43.1305 3 0.000101178 -4.11704
9743 1 4.21222 34.5243 43.131 3 0.00010893 -4.11688
9744 1 3.3697 34.5244 40.7994 3 0.000105486 -4.11695
9745 1 5.89743 34.5242 40.7999 3 0.000118807 -4.11669
9746 1 5.05479 34.5243 38.4684 3 0.000113274 -4.11679
9747 1 7.58299 34.5238 38.4688 3 0.000133924 -4.11644
9748 1 6.74016 34.524 36.1373 3 0.000125593 -4.11657
9749 1 9.26904 34.5231 36.1378 3 0.000156629 -4.1161
9750 1 8.42594 34.5235 33.8063 3 0.000144167 -4.11628
9751 1 10.9558 34.5218 33.8067 3 0.000190723 -4.11567
9752 1 10.1123 34.5225 31.4752 3 0.000171836 -4.1159
9753 1 12.6434 34.5199 31.4756 3 0.000242188 -4.11512
9754 1 11.7994 34.521 29.1441 3 0.000213748 -4.11541
9755 1 14.3322 34.5168 29.1446 3 0.000322982 -4.11441
9756 1 13.4876 34.5185 26.8131 3 0.000278421 -4.11479
9757 1 16.0226 34.5123 26.8135 3 0.000452612 -4.1135
9758 1 15.1772 34.5148 24.482 3 0.000379088 -4.114
9759 1 17.7154 34.5058 24.4823 3 0.000662642 -4.11231
9760 1 16.8687 34.5094 22.1508 3 0.000544517 -4.11294
9761 1 19.4112 34.4967 22.1509 3 0.0010314 -4.11059
9762 1 18.5628 34.5017 19.8196 3 0.00082256 -4.11151
9763 1 21.1115 34.484 19.8191 3 0.00171058 -4.10786
9764 1 20.2607 34.4908 17.488 3 0.00131102 -4.10947
9765 1 22.8192 34.4661 17.4864 3 0.00352723 -4.10307
9766 1 21.9642 34.4759 15.1559 3 0.00235013 -4.10581
9767 1 24.5395 34.4403 15.1533 3 0.00816224 -4.09364
9768 1 23.6764 34.4548 12.8229 3 0.00592012 -4.09891
9769 1 26.2903 34.396 12.8191 3 0.0105301 -4.0821
9770 1 25.4104 34.4208 10.4898 3 0.0097437 -4.08763
9771 1 28.0656 34.3478 10.4887 3 0.0138828 -4.06229
9772 1 27.1743 34.3716 8.15602 3 0.0124144 -4.0745
9773 1 29.8721 34.3014 8.15411 3 0.0265573 -4.04467
9774 1 28.9651 34.3246 5.82721 3 0.0181084 -4.04794
9775 1 31.6902 34.2996 5.82412 3 0.00450936 -4.04392
9776 1 30.7788 34.2971 3.48942 3 0.0167218 -4.04061
9777 1 33.5136 34.2971 3.50467 3 0.0167218 -4.04061
9778 1 32.6022 34.2996 1.16997 3 0.00450936 -4.04392
9779 1 35.3273 34.3246 1.16688 3 0.0181084 -4.04794
9780 1 1.67866 32.5069 46.6264 3 0.000110635 -4.11844
9781 1 4.19669 32.5069 46.625 3 0.000117929 -4.11831
9782 1 3.35734 32.5069 44.2941 3 0.000114696 -4.11837
9783 1 5.87544 32.5069 44.2927 3 0.00012712 -4.11817
9784 1 5.03606 32.5069 41.9618 3 0.000122039 -4.11825
9785 1 7.55428 32.5067 41.9604 3 0.000141077 -4.11797
9786 1 6.71485 32.5068 39.6295 3 0.000133417 -4.11808
9787 1 9.23325 32.5063 39.628 3 0.000161637 -4.11771
9788 1 8.39374 32.5065 37.2971 3 0.000150226 -4.11785
9789 1 10.9124 32.5054 37.2955 3 0.000192013 -4.11739
9790 1 10.0728 32.5059 34.9647 3 0.000175519 -4.11756
9791 1 12.5919 32.504 34.9629 3 0.00023953 -4.11697
9792 1 11.7521 32.5048 32.6322 3 0.000213233 -4.11719
9793 1 14.2717 32.5017 32.6302 3 0.000314636 -4.11645
9794 1 13.4317 32.503 30.2995 3 0.000271177 -4.11673
9795 1 15.9523 32.4983 30.2973 3 0.000439292 -4.11582
9796 1 15.1119 32.5002 27.9667 3 0.00037052 -4.11615
9797 1 17.6339 32.4934 27.9642 3 0.000686325 -4.11496
9798 1 16.7929 32.4961 25.6337 3 0.000543753 -4.11541
9799 1 19.317 32.4865 25.6307 3 0.00118508 -4.11381
9800 1 18.4753 32.4902 23.3004 3 0.000870441 -4.11448
9801 1 21.0032 32.477 23.2964 3 0.00232825 -4.11213
9802 1 20.1596 32.4822 20.9667 3 0.00165626 -4.11302
9803 1 22.6938 32.4646 20.9609 3 0.00575021 -4.10828
9804 1 21.8474 32.4714 18.6319 3 0.00359885 -4.11056
9805 1 24.3931 32.4477 18.6223 3 0.0199622 -4.10077
9806 1 23.5428 32.4566 16.2947 3 0.00962052 -4.10511
9807 1 26.1203 32.4177 16.2824 3 5.44731 -4.08656
9808 1 25.2509 32.4359 13.9547 3 0.0366545 -4.09445
9809 1 27.9135 32.3699 13.9467 5 4.98126 -4.05262
9810 1 27.0111 32.3907 11.6155 3 5.2658 -4.0762
9811 1 29.7822 32.3586 11.6323 5 4.33741 -4.00223
9812 1 28.8278 32.3602 9.28764 5 4.64227 -4.02379
9813 1 31.6882 32.3221 9.32136 5 3.36755 -4.03647
9814 1 30.7596 32.3358 6.97523 5 4.29487 -4.01722
9815 1 33.5328 32.3358 7.01294 5 4.29487 -4.01722
9816 1 32.6042 32.3221 4.66682 5 3.36755 -4.03647
9817 1 35.4646 32.3602 4.70054 5 4.64227 -4.02379
9818 1 34.5102 32.3586 2.35587 5 4.33741 -4.00223
9819 1 37.2813 32.3907 2.37266 3 5.2658 -4.0762
9820 1 36.3789 32.3699 0.0415079 5 4.98126 -4.05262
9821 1 39.0415 32.4359 0.0334519 3 0.0366545 -4.09445
9822 1 0.857232 62.5896 5.82841 5 12.3402 -3.52387
9823 1 0 62.5896 3.49704 5 12.3402 -3.52387
9824 1 2.5717 62.5896 3.49704 5 12.3402 -3.52387
9825 1 1.71446 62.5896 1.16568 5 12.3402 -3.52387
9826 1 4.28616 62.5896 1.16568 5 12.3402 -3.52387
9827 1 0.857232 60.5706 9.32545 3 5.76e-18 -4.09064
9828 1 0 60.5706 6.99409 3 2.304e-17 -4.09064
9829 1 2.5717 60.5706 6.99409 3 4e-16 -4.09063
9830 1 1.71446 60.5706 4.66273 3 4.5376e-16 -4.09064
9831 1 4.28616 60.5706 4.66273 3 1e-16 -4.09062
9832 1 3.42893 60.5706 2.33136 3 1e-16 -4.09062
9833 1 6.00062 60.5706 2.33136 3 1e-16 -4.09059
9834 1 5.14339 60.5706 0 3 1.0507e-16 -4.09061
9835 1 7.71509 60.5706 0 3 4.0507e-16 -4.09056
9836 1 0.857232 58.5516 12.8225 3 0.000989617 -4.10599
9837 1 0 58.5516 10.4911 3 0.00099079 -4.10599
9838 1 2.5717 58.5516 10.4911 3 0.000980179 -4.10598
9839 1 1.71446 58.5516 8.15977 3 0.000986078 -4.10599
9840 1 4.28616 58.5516 8.15977 3 0.000961107 -4.10597
9841 1 3.42893 58.5516 5.82841 3 0.00097187 -4.10598
9842 1 6.00062 58.5516 5.82841 3 0.00093209 -4.10595
9843 1 5.14339 58.5516 3.49704 3 0.000947848 -4.10596
9844 1 7.71509 58.5516 3.49704 3 0.00089312 -4.10592
9845 1 6.85785 58.5516 1.16568 3 0.00091382 -4.10593
9846 1 9.42955 58.5516 1.16568 3 0.000844684 -4.10589
9847 1 0.857473 56.5548 16.3198 3 1.06806e-06 -4.10574
9848 1 64.2924 56.5548 13.9882 3 9.48043e-07 -4.10574
9849 1 2.57244 56.5547 13.989 3 2.06606e-06 -4.10573
9850 1 1.71495 56.5548 11.6574 3 1.43672e-06 -4.10574
9851 1 4.28749 56.5544 11.6582 3 4.20208e-06 -4.1057
9852 1 3.42995 56.5546 9.3266 3 2.97657e-06 -4.10572
9853 1 6.00264 56.554 9.32736 3 7.72884e-06 -4.10566
9854 1 5.14505 56.5542 6.99576 3 5.77088e-06 -4.10568
9855 1 7.71796 56.5534 6.99642 3 1.30196e-05 -4.10562
9856 1 6.86028 56.5537 4.66486 3 1.01318e-05 -4.10564
9857 1 9.43344 56.5526 4.66537 3 2.03596e-05 -4.10557
9858 1 8.57568 56.553 2.33386 3 1.64285e-05 -4.10559
9859 1 11.1491 56.5515 2.33419 3 2.9918e-05 -4.10552
9860 1 10.2913 56.5521 0.00275319 3 2.4852e-05 -4.10554
9861 1 12.8649 56.5502 0.00284987 3 4.12987e-05 -4.10547
9862 1 0.857472 54.5578 19.8171 3 1.17353e-06 -4.10689
9863 1 64.2924 54.5579 17.4852 3 1.0502e-06 -4.10689
9864 1 2.57246 54.5576 17.4869 3 2.17642e-06 -4.10685
9865 1 1.71495 54.5578 15.155 3 1.54511e-06 -4.10688
9866 1 4.28757 54.5571 15.1566 3 4.27623e-06 -4.10678
9867 1 3.42999 54.5574 12.8247 3 3.08042e-06 -4.10682
9868 1 6.00289 54.5564 12.8262 3 7.66455e-06 -4.10667
9869 1 5.1452 54.5568 10.4943 3 5.79416e-06 -4.10673
9870 1 7.71848 54.5553 10.4956 3 1.25246e-05 -4.10653
9871 1 6.86065 54.5559 8.16387 3 9.89856e-06 -4.1066
9872 1 9.43439 54.5539 8.16488 3 1.91666e-05 -4.10637
9873 1 8.57639 54.5547 5.83323 3 1.56108e-05 -4.10645
9874 1 11.1506 54.552 5.8339 3 2.76414e-05 -4.1062
9875 1 10.2925 54.553 3.50238 3 2.3151e-05 -4.10628
9876 1 12.8672 54.5496 3.50262 3 3.78003e-05 -4.10602
9877 1 12.0089 54.5508 1.17125 3 3.2574e-05 -4.10611
9878 1 14.584 54.5465 1.17101 3 4.91134e-05 -4.10588
9879 1 0.857222 52.5607 23.3144 3 2.74717e-06 -4.10707
9880 1 64.2924 52.5607 20.9823 3 2.6156e-06 -4.10707
9881 1 2.57172 52.5604 20.9847 3 3.82552e-06 -4.10702
9882 1 1.71446 52.5606 18.6525 3 3.14933e-06 -4.10705
9883 1 4.28639 52.5598 18.6548 3 6.02882e-06 -4.10692
9884 1 3.42903 52.5601 16.3227 3 4.7783e-06 -4.10698
9885 1 6.00134 52.5588 16.3248 3 9.49839e-06 -4.10678
9886 1 5.14382 52.5593 13.9928 3 7.59679e-06 -4.10686
9887 1 7.71666 52.5574 13.9947 3 1.44333e-05 -4.1066
9888 1 6.85894 52.5581 11.6627 3 1.17649e-05 -4.10669
9889 1 9.43243 52.5554 11.6642 3 2.10083e-05 -4.10638
9890 1 8.57448 52.5565 9.33245 3 1.7502e-05 -4.10649
9891 1 11.1487 52.5528 9.33351 3 2.9395e-05 -4.10614
9892 1 10.2905 52.5542 7.00188 3 2.49661e-05 -4.10626
9893 1 12.8655 52.5494 7.00237 3 3.9559e-05 -4.10589
9894 1 12.007 52.5512 4.67095 3 3.4272e-05 -4.10602
9895 1 14.5827 52.5451 4.67079 3 5.10436e-05 -4.10567
9896 1 13.7241 52.5474 2.3396 3 4.51907e-05 -4.10578
9897 1 16.3003 52.5398 2.33871 3 6.287e-05 -4.1055
9898 1 15.4415 52.5426 0.00776654 3 5.69808e-05 -4.10558
9899 1 18.0178 52.5334 0.00617739 3 7.36589e-05 -4.10544
9900 1 0.856718 50.563 26.8117 3 5.78117e-06 -4.10746
9901 1 64.2924 50.5631 24.4793 3 5.63395e-06 -4.10747
9902 1 2.57022 50.5627 24.4823 3 6.95854e-06 -4.10741
9903 1 1.71345 50.5629 22.15 3 6.22142e-06 -4.10744
9904 1 4.28392 50.562 22.1529 3 9.34806e-06 -4.10729
9905 1 3.42704 50.5624 19.8206 3 8.00006e-06 -4.10736
9906 1 5.99796 50.5609 19.8233 3 1.30822e-05 -4.10712
9907 1 5.14089 50.5615 17.4911 3 1.10349e-05 -4.10721
9908 1 7.71245 50.5592 17.4935 3 1.83377e-05 -4.1069
9909 1 6.85514 50.5601 15.1614 3 1.55084e-05 -4.10701
9910 1 9.42752 50.5569 15.1634 3 2.53059e-05 -4.10662
9911 1 8.56991 50.5581 12.8315 3 2.15863e-05 -4.10677
9912 1 11.1433 50.5538 12.833 3 3.42973e-05 -4.10631
9913 1 10.2853 50.5555 10.5012 3 2.95545e-05 -4.10647
9914 1 12.8597 50.5497 10.5021 3 4.53321e-05 -4.10598
9915 1 12.0014 50.5519 8.17057 3 3.95353e-05 -4.10615
9916 1 14.5769 50.5443 8.17068 3 5.80676e-05 -4.10565
9917 1 13.7182 50.5472 5.83942 3 5.15444e-05 -4.10581
9918 1 16.2947 50.5375 5.83865 3 7.16393e-05 -4.10535
9919 1 15.4357 50.5411 3.5077 3 6.48546e-05 -4.10549
9920 1 18.0128 50.5291 3.50601 3 8.43955e-05 -4.10515
9921 1 17.1537 50.5335 1.17536 3 7.81961e-05 -4.10524
9922 1 19.7309 50.5193 1.17283 3 9.56053e-05 -4.10512
9923 1 0.85595 48.5646 30.3089 3 1.03618e-05 -4.10807
9924 1 64.2924 48.5646 27.9764 3 1.02026e-05 -4.10808
9925 1 2.56793 48.5642 27.9799 3 1.16332e-05 -4.108
9926 1 1.71192 48.5645 25.6474 3 1.0833e-05 -4.10804
9927 1 4.28013 48.5635 25.6508 3 1.42836e-05 -4.10787
9928 1 3.42399 48.5639 23.3183 3 1.27857e-05 -4.10795
9929 1 5.99272 48.5623 23.3216 3 1.84348e-05 -4.10768
9930 1 5.13637 48.563 20.9892 3 1.61641e-05 -4.10778
9931 1 7.70583 48.5605 20.9921 3 2.42822e-05 -4.10742
9932 1 6.8492 48.5615 18.6599 3 2.11128e-05 -4.10755
9933 1 9.41963 48.558 18.6624 3 3.21178e-05 -4.10709
9934 1 8.56264 48.5594 16.3303 3 2.79348e-05 -4.10726
9935 1 11.1342 48.5546 16.3323 3 4.23927e-05 -4.10672
9936 1 10.2768 48.5564 14.0004 3 3.69292e-05 -4.10691
9937 1 12.8498 48.55 14.0017 3 5.5309e-05 -4.10629
9938 1 11.9919 48.5524 11.67 3 4.84785e-05 -4.10651
9939 1 14.5663 48.5439 11.6706 3 7.1026e-05 -4.10583
9940 1 13.7079 48.5471 9.33917 3 6.28605e-05 -4.10606
9941 1 16.2839 48.5359 9.33877 3 8.8415e-05 -4.10536
9942 1 15.425 48.5401 7.00771 3 7.96234e-05 -4.10559
9943 1 18.0024 48.526 7.00624 3 0.000105127 -4.10495
9944 1 17.143 48.5312 4.67555 3 9.70858e-05 -4.10514
9945 1 19.7214 48.5138 4.67297 3 0.000119477 -4.10468
9946 1 18.8618 48.5201 2.34265 3 0.000112472 -4.10479
9947 1 21.4403 48.4998 2.33914 3 0.000132987 -4.10466
9948 1 20.5809 48.507 0.00906205 3 0.000126257 -4.10464
9949 1 23.1582 48.4848 0.00508657 3 0.000143575 -4.10489
9950 1 0.854913 46.565 33.8061 3 1.66562e-05 -4.10888
9951 1 64.2924 46.5651 31.4734 3 1.64701e-05 -4.10888
9952 1 2.56482 46.5647 31.4773 3 1.809e-05 -4.1088
9953 1 1.70985 46.5649 29.1447 3 1.71883e-05 -4.10885
9954 1 4.27498 46.564 29.1485 3 2.10665e-05 -4.10866
9955 1 3.41986 46.5644 26.8159 3 1.93806e-05 -4.10874
9956 1 5.98556 46.5628 26.8195 3 2.57534e-05 -4.10844
9957 1 5.13021 46.5634 24.487 3 2.31807e-05 -4.10856
9958 1 7.69673 46.561 24.4904 3 3.24265e-05 -4.10815
9959 1 6.84106 46.5619 22.158 3 2.8816e-05 -4.10831
9960 1 9.40866 46.5584 22.161 3 4.14914e-05 -4.10779
9961 1 8.55259 46.5598 19.8287 3 3.66203e-05 -4.10798
9962 1 11.1215 46.5548 19.8312 3 5.35734e-05 -4.10735
9963 1 10.265 46.5568 17.4991 3 4.71272e-05 -4.10758
9964 1 12.8355 46.55 17.501 3 6.94899e-05 -4.10683
9965 1 11.9784 46.5526 15.1691 3 6.10093e-05 -4.1071
9966 1 14.5508 46.5435 15.1702 3 8.98417e-05 -4.10624
9967 1 13.693 46.547 12.8386 3 7.90868e-05 -4.10655
9968 1 16.2675 46.5349 12.8388 3 0.000114647 -4.10559
9969 1 15.409 46.5395 10.5076 3 0.000101775 -4.10592
9970 1 17.9857 46.5238 10.5066 3 0.000141292 -4.10492
9971 1 17.1264 46.5297 8.17575 3 0.000128135 -4.10526
9972 1 19.7053 46.5098 8.1735 3 0.000162836 -4.10431
9973 1 18.8454 46.5172 5.84311 3 0.000153068 -4.1046
9974 1 21.4258 46.493 5.83957 3 0.00018036 -4.10394
9975 1 20.5655 46.5017 3.50959 3 0.000171451 -4.10408
9976 1 23.1461 46.4742 3.50511 3 0.000203648 -4.10391
9977 1 22.2861 46.4838 1.17534 3 0.000191148 -4.10387
9978 1 24.865 46.455 1.17066 3 0.000222515 -4.1042
9979 1 0.853596 44.5641 37.3032 3 2.49202e-05 -4.10988
9980 1 64.2924 44.5641 34.9704 3 2.4701e-05 -4.10989
9981 1 2.56087 44.5637 34.9746 3 2.66081e-05 -4.1098
9982 1 1.70721 44.5639 32.6418 3 2.55411e-05 -4.10985
9983 1 4.26842 44.563 32.6459 3 2.99929e-05 -4.10965
9984 1 3.4146 44.5634 30.3132 3 2.80714e-05 -4.10974
9985 1 5.97641 44.5619 30.3171 3 3.54152e-05 -4.10942
9986 1 5.12235 44.5625 27.9845 3 3.24567e-05 -4.10954
9987 1 7.68503 44.5602 27.9881 3 4.31812e-05 -4.1091
9988 1 6.83063 44.5611 25.6556 3 3.89599e-05 -4.10927
9989 1 9.39448 44.5577 25.659 3 5.38302e-05 -4.1087
9990 1 8.53964 44.5591 23.3265 3 4.81043e-05 -4.10891
9991 1 11.105 44.5542 23.3295 3 6.82774e-05 -4.10821
9992 1 10.2496 44.5561 20.9972 3 6.04978e-05 -4.10847
9993 1 12.8167 44.5494 20.9996 3 8.78852e-05 -4.10762
9994 1 11.9607 44.552 18.6676 3 7.73617e-05 -4.10793
9995 1 14.53 44.5428 18.6693 3 0.000114335 -4.10692
9996 1 13.6732 44.5464 16.3375 3 0.000100116 -4.10729
9997 1 16.2451 44.534 16.3383 3 0.000149442 -4.10611
9998 1 15.3873 44.5387 14.0069 3 0.000130694 -4.10653
9999 1 17.9622 44.5224 14.0066 3 0.000194065 -4.10517
10000 1 17.1034 44.5286 11.6755 3 0.000170679 -4.10565
10001 1 19.6816 44.5074 11.674 3 0.000239108 -4.10415
10002 1 18.8216 44.5154 9.34336 3 0.000217854 -4.10467
10003 1 21.4033 44.4885 9.34027 3 0.000265741 -4.10323
10004 1 20.5422 44.4984 7.01021 3 0.000254382 -4.10366
10005 1 23.1263 44.4661 7.00567 3 0.000295317 -4.10269
10006 1 22.2647 44.4776 4.67601 3 0.00027754 -4.10291
10007 1 24.849 44.4421 4.67068 3 0.000351638 -4.10263
10008 1 23.9878 44.4542 2.34113 3 0.000321394 -4.1026
10009 1 26.5698 44.4192 2.33606 3 0.000378308 -4.10293
10010 1 25.7097 44.4303 0.00623113 3 0.00037268 -4.10277
10011 1 28.288 44.3997 0.00226359 3 0.000392975 -4.10335
10012 1 0.851985 42.5613 40.8002 3 3.56627e-05 -4.11108
10013 1 64.2924 42.5613 38.4675 3 3.54118e-05 -4.11109
10014 1 2.55604 42.561 38.4716 3 3.75856e-05 -4.111
10015 1 1.70399 42.5612 36.1389 3 3.63613e-05 -4.11105
10016 1 4.26038 42.5604 36.1429 3 4.15799e-05 -4.11084
10017 1 3.40816 42.5607 33.8102 3 3.93075e-05 -4.11093
10018 1 5.96516 42.5594 33.8141 3 4.79016e-05 -4.11059
10019 1 5.1127 42.5599 31.4815 3 4.44245e-05 -4.11072
10020 1 7.67061 42.5579 31.4852 3 5.70569e-05 -4.11026
10021 1 6.81779 42.5587 29.1526 3 5.20948e-05 -4.11044
10022 1 9.37693 42.5556 29.1562 3 6.97246e-05 -4.10984
10023 1 8.52365 42.5568 26.8237 3 6.28703e-05 -4.11006
10024 1 11.0844 42.5523 26.8269 3 8.71759e-05 -4.10931
10025 1 10.2305 42.5541 24.4945 3 7.77779e-05 -4.10959
10026 1 12.7932 42.5478 24.4973 3 0.000111213 -4.10866
10027 1 11.9386 42.5502 22.1651 3 9.82295e-05 -4.109
10028 1 14.5037 42.5415 22.1673 3 0.000144591 -4.10788
10029 1 13.6482 42.5449 19.8353 3 0.000126503 -4.10829
10030 1 16.2162 42.5329 19.8369 3 0.000191662 -4.10693
10031 1 15.3596 42.5375 17.5051 3 0.000166097 -4.10743
10032 1 17.9312 42.5214 17.5057 3 0.000258139 -4.10578
10033 1 17.0734 42.5276 15.1743 3 0.000222109 -4.10638
10034 1 19.6493 42.5061 15.1737 3 0.000348477 -4.10439
10035 1 18.7898 42.5143 12.8428 3 0.000300849 -4.10512
10036 1 21.3708 42.4862 12.8405 3 0.00042324 -4.10279
10037 1 20.5096 42.4968 10.5102 3 0.000393942 -4.10359
10038 1 23.096 42.4611 10.5062 3 0.000450511 -4.10145
10039 1 22.233 42.4743 8.17646 3 0.000438746 -4.10206
10040 1 24.8233 42.4324 8.17097 3 0.000529361 -4.10061
10041 1 23.9595 42.4471 5.84159 3 0.000477406 -4.10095
10042 1 26.5501 42.4036 5.83566 3 0.000666688 -4.10046
10043 1 25.6869 42.4177 3.50623 3 0.000607066 -4.10044
10044 1 28.2745 42.3787 3.50118 3 0.000686635 -4.10053
10045 1 27.4126 42.3905 1.17127 3 0.000677918 -4.10047
10046 1 29.9965 42.3605 1.16752 3 0.000772711 -4.10088
10047 1 0.850065 40.5563 44.2971 3 4.91519e-05 -4.11244
10048 1 1.68869e-12 40.5563 41.9645 3 4.88622e-05 -4.11245
10049 1 2.55028 40.5561 41.9683 3 5.13916e-05 -4.11236
10050 1 1.70015 40.5562 39.6357 3 4.9966e-05 -4.11241
10051 1 4.25077 40.5556 39.6394 3 5.61058e-05 -4.1122
10052 1 3.40048 40.5559 37.3068 3 5.34147e-05 -4.11229
10053 1 5.95171 40.5548 37.3104 3 6.36053e-05 -4.11195
10054 1 5.10117 40.5552 34.9778 3 5.94724e-05 -4.11209
10055 1 7.6533 40.5535 34.9814 3 7.44571e-05 -4.11161
10056 1 6.80241 40.5542 32.6489 3 6.85581e-05 -4.11179
10057 1 9.35577 40.5515 32.6523 3 8.98292e-05 -4.11118
10058 1 8.50441 40.5526 30.3198 3 8.15436e-05 -4.11141
10059 1 11.0594 40.5487 30.323 3 0.00011106 -4.11063
10060 1 10.2074 40.5503 27.9906 3 9.9578e-05 -4.11092
10061 1 12.7644 40.5446 27.9936 3 0.000140532 -4.10995
10062 1 11.9117 40.5468 25.6613 3 0.000124584 -4.11031
10063 1 14.4712 40.5389 25.6639 3 0.000182154 -4.10912
10064 1 13.6175 40.542 23.3317 3 0.00015952 -4.10956
10065 1 16.1802 40.5309 23.3338 3 0.000241917 -4.10809
10066 1 15.3254 40.5352 21.0018 3 0.000209224 -4.10863
10067 1 17.892 40.5201 21.0031 3 0.000330859 -4.10679
10068 1 17.0357 40.5259 18.6715 3 0.000281858 -4.10748
10069 1 19.6072 40.5054 18.6718 3 0.000470604 -4.10512
10070 1 18.7491 40.5133 16.3405 3 0.000391777 -4.10601
10071 1 21.3269 40.4858 16.3394 3 0.000674869 -4.10288
10072 1 20.4665 40.4963 14.0087 3 0.000568832 -4.10409
10073 1 23.0524 40.4595 14.0057 3 0.0007533 -4.10038
10074 1 22.1889 40.4736 11.6757 3 0.000739321 -4.1016
10075 1 24.7835 40.427 11.6706 3 0.000755249 -4.09835
10076 1 23.9174 40.4438 9.34118 3 0.000740759 -4.09934
10077 1 26.518 40.392 9.33504 3 0.00102093 -4.097
10078 1 25.6506 40.4095 7.0058 3 0.000834341 -4.09754
10079 1 28.2517 40.3604 7.00002 3 0.00123587 -4.0965
10080 1 27.3853 40.3753 4.67026 3 0.00120617 -4.09682
10081 1 29.9833 40.337 4.66589 3 0.00140882 -4.09595
10082 1 29.1177 40.3475 2.33586 3 0.00125765 -4.09618
10083 1 31.7138 40.3255 2.33194 3 0.00174833 -4.0961
10084 1 30.8487 40.3294 0.00185979 3 0.00161514 -4.096
10085 1 33.4437 40.3294 48.9568 3 0.00161514 -4.096
10086 1 0.847822 38.5488 47.794 3 6.54262e-05 -4.11394
10087 1 1.05219e-11 38.5488 45.4616 3 6.51277e-05 -4.11395
10088 1 2.54355 38.5486 45.4646 3 6.80542e-05 -4.11386
10089 1 1.69566 38.5487 43.1322 3 6.63748e-05 -4.11391
10090 1 4.23952 38.5483 43.1352 3 7.3456e-05 -4.1137
10091 1 3.39149 38.5485 40.8029 3 7.03797e-05 -4.11379
10092 1 5.93592 38.5477 40.8059 3 8.22134e-05 -4.11346
10093 1 5.08766 38.548 38.4735 3 7.738e-05 -4.11359
10094 1 7.63294 38.5467 38.4765 3 9.52062e-05 -4.11313
10095 1 6.78434 38.5472 36.1441 3 8.81217e-05 -4.11331
10096 1 9.33078 38.5451 36.1471 3 0.000113716 -4.11271
10097 1 8.48174 38.546 33.8147 3 0.000103655 -4.11293
10098 1 11.0297 38.5428 33.8176 3 0.000139759 -4.11216
10099 1 10.1801 38.5441 31.4853 3 0.000125644 -4.11245
10100 1 12.73 38.5393 31.488 3 0.000176425 -4.11148
10101 1 11.8797 38.5412 29.1558 3 0.000156521 -4.11184
10102 1 14.4321 38.5344 29.1583 3 0.00022877 -4.11063
10103 1 13.5808 38.5371 26.8261 3 0.000200182 -4.11108
10104 1 16.1365 38.5274 26.8283 3 0.000304374 -4.10957
10105 1 15.284 38.5312 24.4963 3 0.000262943 -4.11013
10106 1 17.8436 38.5177 24.498 3 0.000418448 -4.10821
10107 1 16.9896 38.523 22.1662 3 0.000355448 -4.10893
10108 1 19.5545 38.5044 22.1672 3 0.000601529 -4.10638
10109 1 18.6986 38.5116 19.8356 3 0.000497936 -4.10738
10110 1 21.2704 38.4862 19.8356 3 0.000956126 -4.10379
10111 1 20.4117 38.496 17.5045 3 0.000745357 -4.10521
10112 1 22.9931 38.461 17.5029 3 0.00140074 -4.09991
10113 1 22.1306 38.4747 15.1724 3 0.00123353 -4.10194
10114 1 24.7265 38.4263 15.1683 3 0.00134931 -4.09617
10115 1 23.8584 38.4448 12.8388 3 0.00142618 -4.09789
10116 1 26.4684 38.3862 12.8331 3 0.00138854 -4.09254
10117 1 25.5966 38.4067 10.5038 3 0.00134237 -4.0943
10118 1 28.2147 38.3464 10.4975 3 0.0022478 -4.09076
10119 1 27.3412 38.3657 8.1683 3 0.0017486 -4.09123
10120 1 29.9602 38.3177 8.16378 3 0.00244152 -4.08852
10121 1 29.0873 38.3306 5.83356 3 0.00233031 -4.08967
10122 1 31.7086 38.3031 5.82936 3 0.00352126 -4.08753
10123 1 30.834 38.3084 3.49963 3 0.00293151 -4.08757
10124 1 33.4583 38.3084 3.49446 3 0.00293151 -4.08757
10125 1 32.5838 38.3031 1.16473 3 0.00352126 -4.08753
10126 1 35.2051 38.3306 1.16053 3 0.00233031 -4.08967
10127 1 1.69053 36.5382 46.6285 3 8.45085e-05 -4.11548
10128 1 4.22663 36.538 46.6305 3 9.22731e-05 -4.1153
10129 1 3.3812 36.5381 44.2985 3 8.88578e-05 -4.11538
10130 1 5.91778 36.5376 44.3004 3 0.000102039 -4.11508
10131 1 5.07215 36.5378 41.9684 3 9.66157e-05 -4.1152
10132 1 7.60944 36.537 41.9703 3 0.000116846 -4.11477
10133 1 6.76353 36.5373 39.6383 3 0.000108721 -4.11494
10134 1 9.30183 36.5358 39.6403 3 0.000138424 -4.11437
10135 1 8.45553 36.5365 37.3083 3 0.000126611 -4.11459
10136 1 10.9952 36.5341 37.3102 3 0.000169651 -4.11387
10137 1 10.1484 36.535 34.9782 3 0.000152629 -4.11414
10138 1 12.6897 36.5313 34.9801 3 0.000215238 -4.11322
10139 1 11.8423 36.5328 32.6481 3 0.000190284 -4.11357
10140 1 14.3859 36.5273 32.65 3 0.00028186 -4.11242
10141 1 13.5376 36.5295 30.318 3 0.000245275 -4.11284
10142 1 16.0842 36.5215 30.3198 3 0.000381385 -4.11138
10143 1 15.2347 36.5247 27.9879 3 0.00032674 -4.11193
10144 1 17.7851 36.5134 27.9894 3 0.000533808 -4.11003
10145 1 16.9343 36.5178 25.6576 3 0.000448906 -4.11076
10146 1 19.4898 36.502 25.6587 3 0.00077966 -4.10821
10147 1 18.6369 36.5081 23.3271 3 0.000641136 -4.10919
10148 1 21.1995 36.4861 23.3275 3 0.00124811 -4.10542
10149 1 20.3438 36.4947 20.9962 3 0.000962799 -4.10695
10150 1 22.9163 36.4641 20.9956 3 0.00251009 -4.10069
10151 1 22.0569 36.4759 18.6645 3 0.00172688 -4.10345
10152 1 24.6474 36.4312 18.6624 3 0.00321826 -4.09408
10153 1 23.7795 36.4493 16.3321 3 0.00306559 -4.09744
10154 1 26.3958 36.3874 16.3277 3 0.00318988 -4.08774
10155 1 25.5201 36.4098 13.9977 3 0.00308206 -4.0913
10156 1 28.1566 36.341 13.9936 3 0.00417114 -4.08046
10157 1 27.2748 36.3642 11.6637 3 0.00319715 -4.08379
10158 1 29.9249 36.3051 11.6594 3 0.00609461 -4.07857
10159 1 29.0408 36.3193 9.32834 3 0.00590725 -4.08035
10160 1 31.7006 36.2915 9.32678 3 0.00557803 -4.07038
10161 1 30.8112 36.2955 6.99691 3 0.00589158 -4.07495
10162 1 33.4811 36.2955 6.99127 3 0.00589158 -4.07495
10163 1 32.5918 36.2915 4.6614 3 0.00557803 -4.07038
10164 1 35.2516 36.3193 4.65983 3 0.00590725 -4.08035
10165 1 34.3675 36.3051 2.32878 3 0.00609461 -4.07857
10166 1 37.0176 36.3642 2.32449 3 0.00319715 -4.08379
10167 1 36.1358 36.341 48.9532 3 0.00417114 -4.08046
10168 1 38.7722 36.4098 48.9491 3 0.00308206 -4.0913
10169 1 3.3697 34.5244 47.7935 3 0.000105486 -4.11695
10170 1 5.89743 34.5242 47.794 3 0.000118807 -4.11669
10171 1 5.05479 34.5243 45.4625 3 0.000113274 -4.11679
10172 1 7.58299 34.5238 45.4629 3 0.000133924 -4.11644
10173 1 6.74016 34.524 43.1314 3 0.000125593 -4.11657
10174 1 9.26904 34.5231 43.1319 3 0.000156629 -4.1161
10175 1 8.42594 34.5235 40.8003 3 0.000144167 -4.11628
10176 1 10.9558 34.5218 40.8008 3 0.000190723 -4.11567
10177 1 10.1123 34.5225 38.4693 3 0.000171836 -4.1159
10178 1 12.6434 34.5199 38.4697 3 0.000242188 -4.11512
10179 1 11.7994 34.521 36.1382 3 0.000213748 -4.11541
10180 1 14.3322 34.5168 36.1387 3 0.000322982 -4.11441
10181 1 13.4876 34.5185 33.8072 3 0.000278421 -4.11479
10182 1 16.0226 34.5123 33.8076 3 0.000452612 -4.1135
10183 1 15.1772 34.5148 31.4761 3 0.000379088 -4.114
10184 1 17.7154 34.5058 31.4764 3 0.000662642 -4.11231
10185 1 16.8687 34.5094 29.1449 3 0.000544517 -4.11294
10186 1 19.4112 34.4967 29.145 3 0.0010314 -4.11059
10187 1 18.5628 34.5017 26.8137 3 0.00082256 -4.11151
10188 1 21.1115 34.484 26.8132 3 0.00171058 -4.10786
10189 1 20.2607 34.4908 24.4821 3 0.00131102 -4.10947
10190 1 22.8192 34.4661 24.4805 3 0.00352723 -4.10307
10191 1 21.9642 34.4759 22.15 3 0.00235013 -4.10581
10192 1 24.5395 34.4403 22.1474 3 0.00816224 -4.09364
10193 1 23.6764 34.4548 19.817 3 0.00592012 -4.09891
10194 1 26.2903 34.396 19.8132 3 0.0105301 -4.0821
10195 1 25.4104 34.4208 17.4838 3 0.0097437 -4.08763
10196 1 28.0656 34.3478 17.4828 3 0.0138828 -4.06229
10197 1 27.1743 34.3716 15.1501 3 0.0124144 -4.0745
10198 1 29.8721 34.3014 15.1482 3 0.0265573 -4.04467
10199 1 28.9651 34.3246 12.8213 3 0.0181084 -4.04794
10200 1 31.6902 34.2996 12.8182 3 0.00450936 -4.04392
10201 1 30.7788 34.2971 10.4835 3 0.0167218 -4.04061
10202 1 33.5136 34.2971 10.4988 3 0.0167218 -4.04061
10203 1 32.6022 34.2996 8.16406 3 0.00450936 -4.04392
10204 1 35.3273 34.3246 8.16097 3 0.0181084 -4.04794
10205 1 34.4203 34.3014 5.83407 3 0.0265573 -4.04467
10206 1 37.1181 34.3716 5.83216 3 0.0124144 -4.0745
10207 1 36.2268 34.3478 3.49947 3 0.0138828 -4.06229
10208 1 38.882 34.4208 3.49842 3 0.0097437 -4.08763
10209 1 38.002 34.396 1.1691 3 0.0105301 -4.0821
10210 1 40.616 34.4548 1.16525 3 0.00592012 -4.09891
10211 1 6.71485 32.5068 46.6236 3 0.000133417 -4.11808
10212 1 9.23325 32.5063 46.6221 3 0.000161637 -4.11771
10213 1 8.39374 32.5065 44.2912 3 0.000150226 -4.11785
10214 1 10.9124 32.5054 44.2896 3 0.000192013 -4.11739
10215 1 10.0728 32.5059 41.9588 3 0.000175519 -4.11756
10216 1 12.5919 32.504 41.957 3 0.00023953 -4.11697
10217 1 11.7521 32.5048 39.6263 3 0.000213233 -4.11719
10218 1 14.2717 32.5017 39.6243 3 0.000314636 -4.11645
10219 1 13.4317 32.503 37.2936 3 0.000271177 -4.11673
10220 1 15.9523 32.4983 37.2914 3 0.000439292 -4.11582
10221 1 15.1119 32.5002 34.9608 3 0.00037052 -4.11615
10222 1 17.6339 32.4934 34.9583 3 0.000686325 -4.11496
10223 1 16.7929 32.4961 32.6278 3 0.000543753 -4.11541
10224 1 19.317 32.4865 32.6248 3 0.00118508 -4.11381
10225 1 18.4753 32.4902 30.2945 3 0.000870441 -4.11448
10226 1 21.0032 32.477 30.2905 3 0.00232825 -4.11213
10227 1 20.1596 32.4822 27.9608 3 0.00165626 -4.11302
10228 1 22.6938 32.4646 27.955 3 0.00575021 -4.10828
10229 1 21.8474 32.4714 25.626 3 0.00359885 -4.11056
10230 1 24.3931 32.4477 25.6164 3 0.0199622 -4.10077
10231 1 23.5428 32.4566 23.2888 3 0.00962052 -4.10511
10232 1 26.1203 32.4177 23.2764 3 5.44731 -4.08656
10233 1 25.2509 32.4359 20.9488 3 0.0366545 -4.09445
10234 1 27.9135 32.3699 20.9408 5 4.98126 -4.05262
10235 1 27.0111 32.3907 18.6096 3 5.2658 -4.0762
10236 1 29.7822 32.3586 18.6264 5 4.33741 -4.00223
10237 1 28.8278 32.3602 16.2817 5 4.64227 -4.02379
10238 1 31.6882 32.3221 16.3154 5 3.36755 -4.03647
10239 1 30.7596 32.3358 13.9693 5 4.29487 -4.01722
10240 1 33.5328 32.3358 14.007 5 4.29487 -4.01722
10241 1 32.6042 32.3221 11.6609 5 3.36755 -4.03647
10242 1 35.4646 32.3602 11.6946 5 4.64227 -4.02379
10243 1 34.5102 32.3586 9.34996 5 4.33741 -4.00223
10244 1 37.2813 32.3907 9.36675 3 5.2658 -4.0762
10245 1 36.3789 32.3699 7.0356 5 4.98126 -4.05262
10246 1 39.0415 32.4359 7.02754 3 0.0366545 -4.09445
10247 1 38.1721 32.4177 4.69991 3 5.44731 -4.08656
10248 1 40.7495 32.4566 4.68756 3 0.00962052 -4.10511
10249 1 39.8992 32.4477 2.35994 3 0.0199622 -4.10077
10250 1 42.445 32.4714 2.3504 3 0.00359885 -4.11056
10251 1 41.5986 32.4646 0.0213882 3 0.00575021 -4.10828
10252 1 44.1328 32.4822 0.015581 3 0.00165626 -4.11302
10253 1 0.857232 62.5896 12.8225 5 12.3402 -3.52387
10254 1 0 62.5896 10.4911 5 12.3402 -3.52387
10255 1 2.5717 62.5896 10.4911 5 12.3402 -3.52387
10256 1 1.71446 62.5896 8.15977 5 12.3402 -3.52387
10257 1 4.28616 62.5896 8.15977 5 12.3402 -3.52387
10258 1 3.42893 62.5896 5.82841 5 12.3402 -3.52387
10259 1 6.00062 62.5896 5.82841 5 12.3402 -3.52387
10260 1 5.14339 62.5896 3.49704 5 12.3402 -3.52387
10261 1 7.71509 62.5896 3.49704 5 12.3402 -3.52387
10262 1 6.85785 62.5896 1.16568 5 12.3402 -3.52387
10263 1 9.42955 62.5896 1.16568 5 12.3402 -3.52387
10264 1 0.857232 60.5706 16.3195 3 5.76e-18 -4.09064
10265 1 0 60.5706 13.9882 3 2.304e-17 -4.09064
10266 1 2.5717 60.5706 13.9882 3 4e-16 -4.09063
10267 1 1.71446 60.5706 11.6568 3 4.5376e-16 -4.09064
10268 1 4.28616 60.5706 11.6568 3 1e-16 -4.09062
10269 1 3.42893 60.5706 9.32545 3 1e-16 -4.09062
10270 1 6.00062 60.5706 9.32545 3 1e-16 -4.09059
10271 1 5.14339 60.5706 6.99409 3 1e-16 -4.09061
10272 1 7.71509 60.5706 6.99409 3 4e-16 -4.09056
10273 1 6.85785 60.5706 4.66273 3 4e-16 -4.09058
10274 1 9.42955 60.5706 4.66273 3 4.41762e-28 -4.09052
10275 1 8.57232 60.5706 2.33136 3 1e-16 -4.09054
10276 1 11.144 60.5706 2.33136 3 4e-16 -4.09046
10277 1 10.2868 60.5706 0 3 1.0507e-16 -4.09049
10278 1 12.8585 60.5706 0 3 1.0507e-16 -4.0904
10279 1 0.857232 58.5516 19.8166 3 0.000989617 -4.10599
10280 1 0 58.5516 17.4852 3 0.00099079 -4.10599
10281 1 2.5717 58.5516 17.4852 3 0.000980179 -4.10598
10282 1 1.71446 58.5516 15.1539 3 0.000986078 -4.10599
10283 1 4.28616 58.5516 15.1539 3 0.000961107 -4.10597
10284 1 3.42893 58.5516 12.8225 3 0.00097187 -4.10598
10285 1 6.00062 58.5516 12.8225 3 0.00093209 -4.10595
10286 1 5.14339 58.5516 10.4911 3 0.000947848 -4.10596
10287 1 7.71509 58.5516 10.4911 3 0.00089312 -4.10592
10288 1 6.85785 58.5516 8.15977 3 0.00091382 -4.10593
10289 1 9.42955 58.5516 8.15977 3 0.000844684 -4.10589
10290 1 8.57232 58.5516 5.82841 3 0.000870029 -4.1059
10291 1 11.144 58.5516 5.82841 3 0.000787922 -4.10586
10292 1 10.2868 58.5516 3.49704 3 0.000817217 -4.10587
10293 1 12.8585 58.5516 3.49704 3 0.000724881 -4.10583
10294 1 12.0012 58.5516 1.16568 3 0.000757017 -4.10584
10295 1 14.5729 58.5516 1.16568 3 0.000658332 -4.1058
10296 1 0.857473 56.5548 23.3139 3 1.06806e-06 -4.10574
10297 1 64.2924 56.5548 20.9823 3 9.48043e-07 -4.10574
10298 1 2.57244 56.5547 20.9831 3 2.06606e-06 -4.10573
10299 1 1.71495 56.5548 18.6515 3 1.43672e-06 -4.10574
10300 1 4.28749 56.5544 18.6523 3 4.20208e-06 -4.1057
10301 1 3.42995 56.5546 16.3207 3 2.97657e-06 -4.10572
10302 1 6.00264 56.554 16.3215 3 7.72884e-06 -4.10566
10303 1 5.14505 56.5542 13.9899 3 5.77088e-06 -4.10568
10304 1 7.71796 56.5534 13.9905 3 1.30196e-05 -4.10562
10305 1 6.86028 56.5537 11.6589 3 1.01318e-05 -4.10564
10306 1 9.43344 56.5526 11.6595 3 2.03596e-05 -4.10557
10307 1 8.57568 56.553 9.32795 3 1.64285e-05 -4.10559
10308 1 11.1491 56.5515 9.32828 3 2.9918e-05 -4.10552
10309 1 10.2913 56.5521 6.99684 3 2.4852e-05 -4.10554
10310 1 12.8649 56.5502 6.99694 3 4.12987e-05 -4.10547
10311 1 12.007 56.5509 4.66559 3 3.5419e-05 -4.10549
10312 1 14.5808 56.5487 4.66542 3 5.34402e-05 -4.10545
10313 1 13.7229 56.5495 2.33416 3 4.74132e-05 -4.10546
10314 1 16.2967 56.5468 2.33373 3 6.4315e-05 -4.10546
10315 1 15.4388 56.5478 0.00255278 3 5.91397e-05 -4.10545
10316 1 18.0124 56.5447 0.0018886 3 7.15175e-05 -4.10551
10317 1 0.857472 54.5578 26.8112 3 1.17353e-06 -4.10689
10318 1 64.2924 54.5579 24.4793 3 1.0502e-06 -4.10689
10319 1 2.57246 54.5576 24.481 3 2.17642e-06 -4.10685
10320 1 1.71495 54.5578 22.1491 3 1.54511e-06 -4.10688
10321 1 4.28757 54.5571 22.1507 3 4.27623e-06 -4.10678
10322 1 3.42999 54.5574 19.8188 3 3.08042e-06 -4.10682
10323 1 6.00289 54.5564 19.8203 3 7.66455e-06 -4.10667
10324 1 5.1452 54.5568 17.4884 3 5.79416e-06 -4.10673
10325 1 7.71848 54.5553 17.4897 3 1.25246e-05 -4.10653
10326 1 6.86065 54.5559 15.158 3 9.89856e-06 -4.1066
10327 1 9.43439 54.5539 15.159 3 1.91666e-05 -4.10637
10328 1 8.57639 54.5547 12.8273 3 1.56108e-05 -4.10645
10329 1 11.1506 54.552 12.828 3 2.76414e-05 -4.1062
10330 1 10.2925 54.553 10.4965 3 2.3151e-05 -4.10628
10331 1 12.8672 54.5496 10.4967 3 3.78003e-05 -4.10602
10332 1 12.0089 54.5508 8.16534 3 3.2574e-05 -4.10611
10333 1 14.584 54.5465 8.1651 3 4.91134e-05 -4.10588
10334 1 13.7256 54.5481 5.8339 3 4.33513e-05 -4.10594
10335 1 16.3009 54.5429 5.83315 3 6.00846e-05 -4.10578
10336 1 15.4425 54.5448 3.50212 3 5.47837e-05 -4.10582
10337 1 18.0176 54.5386 3.50089 3 6.89167e-05 -4.10576
10338 1 17.1593 54.5408 1.17001 3 6.48974e-05 -4.10576
10339 1 19.7337 54.5339 1.16844 3 7.3189e-05 -4.10583
10340 1 0.857222 52.5607 30.3085 3 2.74717e-06 -4.10707
10341 1 64.2924 52.5607 27.9764 3 2.6156e-06 -4.10707
10342 1 2.57172 52.5604 27.9788 3 3.82552e-06 -4.10702
10343 1 1.71446 52.5606 25.6466 3 3.14933e-06 -4.10705
10344 1 4.28639 52.5598 25.6489 3 6.02882e-06 -4.10692
10345 1 3.42903 52.5601 23.3168 3 4.7783e-06 -4.10698
10346 1 6.00134 52.5588 23.3189 3 9.49839e-06 -4.10678
10347 1 5.14382 52.5593 20.9869 3 7.59679e-06 -4.10686
10348 1 7.71666 52.5574 20.9888 3 1.44333e-05 -4.1066
10349 1 6.85894 52.5581 18.6568 3 1.17649e-05 -4.10669
10350 1 9.43243 52.5554 18.6583 3 2.10083e-05 -4.10638
10351 1 8.57448 52.5565 16.3265 3 1.7502e-05 -4.10649
10352 1 11.1487 52.5528 16.3276 3 2.9395e-05 -4.10614
10353 1 10.2905 52.5542 13.996 3 2.49661e-05 -4.10626
10354 1 12.8655 52.5494 13.9965 3 3.9559e-05 -4.10589
10355 1 12.007 52.5512 11.665 3 3.4272e-05 -4.10602
10356 1 14.5827 52.5451 11.6649 3 5.10436e-05 -4.10567
10357 1 13.7241 52.5474 9.33368 3 4.51907e-05 -4.10578
10358 1 16.3003 52.5398 9.3328 3 6.287e-05 -4.1055
10359 1 15.4415 52.5426 7.00186 3 5.69808e-05 -4.10558
10360 1 18.0178 52.5334 7.00027 3 7.36589e-05 -4.10544
10361 1 17.159 52.5367 4.66954 3 6.85232e-05 -4.10546
10362 1 19.7349 52.5261 4.66738 3 8.14801e-05 -4.10551
10363 1 18.8764 52.5298 2.33681 3 7.80759e-05 -4.10546
10364 1 21.4511 52.5182 2.33433 3 8.37444e-05 -4.10571
10365 1 20.5931 52.5222 0.00381144 3 8.34656e-05 -4.1056
10366 1 23.166 52.5103 0.00137279 3 7.90727e-05 -4.106
10367 1 0.856718 50.563 33.8058 3 5.78117e-06 -4.10746
10368 1 64.2924 50.5631 31.4734 3 5.63395e-06 -4.10747
10369 1 2.57022 50.5627 31.4764 3 6.95854e-06 -4.10741
10370 1 1.71345 50.5629 29.1441 3 6.22142e-06 -4.10744
10371 1 4.28392 50.562 29.147 3 9.34806e-06 -4.10729
10372 1 3.42704 50.5624 26.8147 3 8.00006e-06 -4.10736
10373 1 5.99796 50.5609 26.8174 3 1.30822e-05 -4.10712
10374 1 5.14089 50.5615 24.4852 3 1.10349e-05 -4.10721
10375 1 7.71245 50.5592 24.4876 3 1.83377e-05 -4.1069
10376 1 6.85514 50.5601 22.1555 3 1.55084e-05 -4.10701
10377 1 9.42752 50.5569 22.1575 3 2.53059e-05 -4.10662
10378 1 8.56991 50.5581 19.8256 3 2.15863e-05 -4.10677
10379 1 11.1433 50.5538 19.8271 3 3.42973e-05 -4.10631
10380 1 10.2853 50.5555 17.4953 3 2.95545e-05 -4.10647
10381 1 12.8597 50.5497 17.4962 3 4.53321e-05 -4.10598
10382 1 12.0014 50.5519 15.1647 3 3.95353e-05 -4.10615
10383 1 14.5769 50.5443 15.1648 3 5.80676e-05 -4.10565
10384 1 13.7182 50.5472 12.8335 3 5.15444e-05 -4.10581
10385 1 16.2947 50.5375 12.8327 3 7.16393e-05 -4.10535
10386 1 15.4357 50.5411 10.5018 3 6.48546e-05 -4.10549
10387 1 18.0128 50.5291 10.5001 3 8.43955e-05 -4.10515
10388 1 17.1537 50.5335 8.16945 3 7.81961e-05 -4.10524
10389 1 19.7309 50.5193 8.16692 3 9.56053e-05 -4.10512
10390 1 18.8719 50.5244 5.83652 3 9.02979e-05 -4.10511
10391 1 21.4484 50.5084 5.83341 3 0.000103351 -4.10527
10392 1 20.5898 50.5139 3.50314 3 0.000100003 -4.10517
10393 1 23.1644 50.497 3.49989 3 0.000104207 -4.10558
10394 1 22.3066 50.5027 1.16959 3 0.00010485 -4.10541
10395 1 24.8787 50.486 1.16671 3 9.6766e-05 -4.10598
10396 1 0.85595 48.5646 37.303 3 1.03618e-05 -4.10807
10397 1 64.2924 48.5646 34.9704 3 1.02026e-05 -4.10808
10398 1 2.56793 48.5642 34.974 3 1.16332e-05 -4.108
10399 1 1.71192 48.5645 32.6415 3 1.0833e-05 -4.10804
10400 1 4.28013 48.5635 32.6449 3 1.42836e-05 -4.10787
10401 1 3.42399 48.5639 30.3124 3 1.27857e-05 -4.10795
10402 1 5.99272 48.5623 30.3157 3 1.84348e-05 -4.10768
10403 1 5.13637 48.563 27.9833 3 1.61641e-05 -4.10778
10404 1 7.70583 48.5605 27.9862 3 2.42822e-05 -4.10742
10405 1 6.8492 48.5615 25.6539 3 2.11128e-05 -4.10755
10406 1 9.41963 48.558 25.6565 3 3.21178e-05 -4.10709
10407 1 8.56264 48.5594 23.3244 3 2.79348e-05 -4.10726
10408 1 11.1342 48.5546 23.3264 3 4.23927e-05 -4.10672
10409 1 10.2768 48.5564 20.9944 3 3.69292e-05 -4.10691
10410 1 12.8498 48.55 20.9958 3 5.5309e-05 -4.10629
10411 1 11.9919 48.5524 18.6641 3 4.84785e-05 -4.10651
10412 1 14.5663 48.5439 18.6647 3 7.1026e-05 -4.10583
10413 1 13.7079 48.5471 16.3333 3 6.28605e-05 -4.10606
10414 1 16.2839 48.5359 16.3329 3 8.8415e-05 -4.10536
10415 1 15.425 48.5401 14.0018 3 7.96234e-05 -4.10559
10416 1 18.0024 48.526 14.0003 3 0.000105127 -4.10495
10417 1 17.143 48.5312 11.6696 3 9.70858e-05 -4.10514
10418 1 19.7214 48.5138 11.6671 3 0.000119477 -4.10468
10419 1 18.8618 48.5201 9.33673 3 0.000112472 -4.10479
10420 1 21.4403 48.4998 9.33323 3 0.000132987 -4.10466
10421 1 20.5809 48.507 7.00315 3 0.000126257 -4.10464
10422 1 23.1582 48.4848 6.99918 3 0.000143575 -4.10489
10423 1 22.2994 48.4924 4.66915 3 0.000139127 -4.10475
10424 1 24.8743 48.4699 4.66537 3 0.000143716 -4.10529
10425 1 24.0165 48.4772 2.33517 3 0.000145168 -4.10508
10426 1 26.5882 48.4563 2.33218 3 0.000135718 -4.10576
10427 1 25.7316 48.4629 0.00163814 3 0.000140372 -4.10553
10428 1 28.3 48.4453 48.9584 3 0.000123208 -4.1062
10429 1 0.854913 46.565 40.8002 3 1.66562e-05 -4.10888
10430 1 64.2924 46.5651 38.4675 3 1.64701e-05 -4.10888
10431 1 2.56482 46.5647 38.4714 3 1.809e-05 -4.1088
10432 1 1.70985 46.5649 36.1388 3 1.71883e-05 -4.10885
10433 1 4.27498 46.564 36.1426 3 2.10665e-05 -4.10866
10434 1 3.41986 46.5644 33.81 3 1.93806e-05 -4.10874
10435 1 5.98556 46.5628 33.8136 3 2.57534e-05 -4.10844
10436 1 5.13021 46.5634 31.4811 3 2.31807e-05 -4.10856
10437 1 7.69673 46.561 31.4845 3 3.24265e-05 -4.10815
10438 1 6.84106 46.5619 29.152 3 2.8816e-05 -4.10831
10439 1 9.40866 46.5584 29.1551 3 4.14914e-05 -4.10779
10440 1 8.55259 46.5598 26.8228 3 3.66203e-05 -4.10798
10441 1 11.1215 46.5548 26.8253 3 5.35734e-05 -4.10735
10442 1 10.265 46.5568 24.4932 3 4.71272e-05 -4.10758
10443 1 12.8355 46.55 24.4951 3 6.94899e-05 -4.10683
10444 1 11.9784 46.5526 22.1632 3 6.10093e-05 -4.1071
10445 1 14.5508 46.5435 22.1643 3 8.98417e-05 -4.10624
10446 1 13.693 46.547 19.8327 3 7.90868e-05 -4.10655
10447 1 16.2675 46.5349 19.8329 3 0.000114647 -4.10559
10448 1 15.409 46.5395 17.5016 3 0.000101775 -4.10592
10449 1 17.9857 46.5238 17.5007 3 0.000141292 -4.10492
10450 1 17.1264 46.5297 15.1698 3 0.000128135 -4.10526
10451 1 19.7053 46.5098 15.1676 3 0.000162836 -4.10431
10452 1 18.8454 46.5172 12.8372 3 0.000153068 -4.1046
10453 1 21.4258 46.493 12.8337 3 0.00018036 -4.10394
10454 1 20.5655 46.5017 10.5037 3 0.000171451 -4.10408
10455 1 23.1461 46.4742 10.4992 3 0.000203648 -4.10391
10456 1 22.2861 46.4838 8.16943 3 0.000191148 -4.10387
10457 1 24.865 46.455 8.16475 3 0.000222515 -4.1042
10458 1 24.0058 46.4645 5.83489 3 0.000215458 -4.10402
10459 1 26.5817 46.4371 5.83087 3 0.000223329 -4.10465
10460 1 25.7236 46.4458 3.50067 3 0.000223842 -4.10441
10461 1 28.2958 46.4223 3.49784 3 0.000220441 -4.10515
10462 1 27.439 46.4292 1.16719 3 0.000222862 -4.1049
10463 1 30.0079 46.4121 1.16573 3 0.000210066 -4.10553
10464 1 0.853596 44.5641 44.2973 3 2.49202e-05 -4.10988
10465 1 64.2924 44.5641 41.9645 3 2.4701e-05 -4.10989
10466 1 2.56087 44.5637 41.9687 3 2.66081e-05 -4.1098
10467 1 1.70721 44.5639 39.6359 3 2.55411e-05 -4.10985
10468 1 4.26842 44.563 39.64 3 2.99929e-05 -4.10965
10469 1 3.4146 44.5634 37.3073 3 2.80714e-05 -4.10974
10470 1 5.97641 44.5619 37.3112 3 3.54152e-05 -4.10942
10471 1 5.12235 44.5625 34.9786 3 3.24567e-05 -4.10954
10472 1 7.68503 44.5602 34.9822 3 4.31812e-05 -4.1091
10473 1 6.83063 44.5611 32.6497 3 3.89599e-05 -4.10927
10474 1 9.39448 44.5577 32.6531 3 5.38302e-05 -4.1087
10475 1 8.53964 44.5591 30.3206 3 4.81043e-05 -4.10891
10476 1 11.105 44.5542 30.3236 3 6.82774e-05 -4.10821
10477 1 10.2496 44.5561 27.9913 3 6.04978e-05 -4.10847
10478 1 12.8167 44.5494 27.9937 3 8.78852e-05 -4.10762
10479 1 11.9607 44.552 25.6617 3 7.73617e-05 -4.10793
10480 1 14.53 44.5428 25.6634 3 0.000114335 -4.10692
10481 1 13.6732 44.5464 23.3316 3 0.000100116 -4.10729
10482 1 16.2451 44.534 23.3324 3 0.000149442 -4.10611
10483 1 15.3873 44.5387 21.0009 3 0.000130694 -4.10653
10484 1 17.9622 44.5224 21.0007 3 0.000194065 -4.10517
10485 1 17.1034 44.5286 18.6696 3 0.000170679 -4.10565
10486 1 19.6816 44.5074 18.6681 3 0.000239108 -4.10415
10487 1 18.8216 44.5154 16.3375 3 0.000217854 -4.10467
10488 1 21.4033 44.4885 16.3344 3 0.000265741 -4.10323
10489 1 20.5422 44.4984 14.0043 3 0.000254382 -4.10366
10490 1 23.1263 44.4661 13.9998 3 0.000295317 -4.10269
10491 1 22.2647 44.4776 11.6701 3 0.00027754 -4.10291
10492 1 24.849 44.4421 11.6648 3 0.000351638 -4.10263
10493 1 23.9878 44.4542 9.33522 3 0.000321394 -4.1026
10494 1 26.5698 44.4192 9.33015 3 0.000378308 -4.10293
10495 1 25.7097 44.4303 7.00032 3 0.00037268 -4.10277
10496 1 28.288 44.3997 6.99635 3 0.000392975 -4.10335
10497 1 27.4293 44.4089 4.6661 3 0.00038288 -4.10312
10498 1 30.0038 44.3861 4.66351 3 0.000400711 -4.10381
10499 1 29.1462 44.3921 2.33277 3 0.000400339 -4.1036
10500 1 31.7178 44.3799 2.33147 3 0.000394144 -4.10404
10501 1 30.8609 44.382 0.000384324 3 0.000396516 -4.10396
10502 1 33.4314 44.382 48.9582 3 0.000396516 -4.10396
10503 1 0.851985 42.5613 47.7943 3 3.56627e-05 -4.11108
10504 1 64.2924 42.5613 45.4616 3 3.54118e-05 -4.11109
10505 1 2.55604 42.561 45.4657 3 3.75856e-05 -4.111
10506 1 1.70399 42.5612 43.1329 3 3.63613e-05 -4.11105
10507 1 4.26038 42.5604 43.137 3 4.15799e-05 -4.11084
10508 1 3.40816 42.5607 40.8043 3 3.93075e-05 -4.11093
10509 1 5.96516 42.5594 40.8082 3 4.79016e-05 -4.11059
10510 1 5.1127 42.5599 38.4755 3 4.44245e-05 -4.11072
10511 1 7.67061 42.5579 38.4793 3 5.70569e-05 -4.11026
10512 1 6.81779 42.5587 36.1467 3 5.20948e-05 -4.11044
10513 1 9.37693 42.5556 36.1502 3 6.97246e-05 -4.10984
10514 1 8.52365 42.5568 33.8178 3 6.28703e-05 -4.11006
10515 1 11.0844 42.5523 33.821 3 8.71759e-05 -4.10931
10516 1 10.2305 42.5541 31.4886 3 7.77779e-05 -4.10959
10517 1 12.7932 42.5478 31.4914 3 0.000111213 -4.10866
10518 1 11.9386 42.5502 29.1592 3 9.82295e-05 -4.109
10519 1 14.5037 42.5415 29.1614 3 0.000144591 -4.10788
10520 1 13.6482 42.5449 26.8294 3 0.000126503 -4.10829
10521 1 16.2162 42.5329 26.831 3 0.000191662 -4.10693
10522 1 15.3596 42.5375 24.4992 3 0.000166097 -4.10743
10523 1 17.9312 42.5214 24.4998 3 0.000258139 -4.10578
10524 1 17.0734 42.5276 22.1684 3 0.000222109 -4.10638
10525 1 19.6493 42.5061 22.1678 3 0.000348477 -4.10439
10526 1 18.7898 42.5143 19.8369 3 0.000300849 -4.10512
10527 1 21.3708 42.4862 19.8346 3 0.00042324 -4.10279
10528 1 20.5096 42.4968 17.5043 3 0.000393942 -4.10359
10529 1 23.096 42.4611 17.5003 3 0.000450511 -4.10145
10530 1 22.233 42.4743 15.1705 3 0.000438746 -4.10206
10531 1 24.8233 42.4324 15.1651 3 0.000529361 -4.10061
10532 1 23.9595 42.4471 12.8357 3 0.000477406 -4.10095
10533 1 26.5501 42.4036 12.8297 3 0.000666688 -4.10046
10534 1 25.6869 42.4177 10.5003 3 0.000607066 -4.10044
10535 1 28.2745 42.3787 10.4953 3 0.000686635 -4.10053
10536 1 27.4126 42.3905 8.16536 3 0.000677918 -4.10047
10537 1 29.9965 42.3605 8.16161 3 0.000772711 -4.10088
10538 1 29.1358 42.3686 5.8313 3 0.000727556 -4.10066
10539 1 31.7164 42.3521 5.82873 3 0.000798772 -4.10116
10540 1 30.8566 42.355 3.49804 3 0.000797129 -4.10107
10541 1 33.4358 42.355 3.49604 3 0.000797129 -4.10107
10542 1 32.576 42.3521 1.16536 3 0.000798772 -4.10116
10543 1 35.1566 42.3686 1.16279 3 0.000727556 -4.10066
10544 1 1.70015 40.5562 46.6297 3 4.9966e-05 -4.11241
10545 1 4.25077 40.5556 46.6334 3 5.61058e-05 -4.1122
10546 1 3.40048 40.5559 44.3009 3 5.34147e-05 -4.11229
10547 1 5.95171 40.5548 44.3045 3 6.36053e-05 -4.11195
10548 1 5.10117 40.5552 41.9719 3 5.94724e-05 -4.11209
10549 1 7.6533 40.5535 41.9755 3 7.44571e-05 -4.11161
10550 1 6.80241 40.5542 39.643 3 6.85581e-05 -4.11179
10551 1 9.35577 40.5515 39.6464 3 8.98292e-05 -4.11118
10552 1 8.50441 40.5526 37.3139 3 8.15436e-05 -4.11141
10553 1 11.0594 40.5487 37.3171 3 0.00011106 -4.11063
10554 1 10.2074 40.5503 34.9847 3 9.9578e-05 -4.11092
10555 1 12.7644 40.5446 34.9877 3 0.000140532 -4.10995
10556 1 11.9117 40.5468 32.6554 3 0.000124584 -4.11031
10557 1 14.4712 40.5389 32.658 3 0.000182154 -4.10912
10558 1 13.6175 40.542 30.3258 3 0.00015952 -4.10956
10559 1 16.1802 40.5309 30.3279 3 0.000241917 -4.10809
10560 1 15.3254 40.5352 27.9959 3 0.000209224 -4.10863
10561 1 17.892 40.5201 27.9972 3 0.000330859 -4.10679
10562 1 17.0357 40.5259 25.6656 3 0.000281858 -4.10748
10563 1 19.6072 40.5054 25.6658 3 0.000470604 -4.10512
10564 1 18.7491 40.5133 23.3346 3 0.000391777 -4.10601
10565 1 21.3269 40.4858 23.3335 3 0.000674869 -4.10288
10566 1 20.4665 40.4963 21.0028 3 0.000568832 -4.10409
10567 1 23.0524 40.4595 20.9998 3 0.0007533 -4.10038
10568 1 22.1889 40.4736 18.6698 3 0.000739321 -4.1016
10569 1 24.7835 40.427 18.6647 3 0.000755249 -4.09835
10570 1 23.9174 40.4438 16.3353 3 0.000740759 -4.09934
10571 1 26.518 40.392 16.3291 3 0.00102093 -4.097
10572 1 25.6506 40.4095 13.9999 3 0.000834341 -4.09754
10573 1 28.2517 40.3604 13.9941 3 0.00123587 -4.0965
10574 1 27.3853 40.3753 11.6643 3 0.00120617 -4.09682
10575 1 29.9833 40.337 11.66 3 0.00140882 -4.09595
10576 1 29.1177 40.3475 9.32995 3 0.00125765 -4.09618
10577 1 31.7138 40.3255 9.32603 3 0.00174833 -4.0961
10578 1 30.8487 40.3294 6.99595 3 0.00161514 -4.096
10579 1 33.4437 40.3294 6.99223 3 0.00161514 -4.096
10580 1 32.5786 40.3255 4.66215 3 0.00174833 -4.0961
10581 1 35.1747 40.3475 4.65823 3 0.00125765 -4.09618
10582 1 34.309 40.337 2.3282 3 0.00140882 -4.09595
10583 1 36.9071 40.3753 2.32383 3 0.00120617 -4.09682
10584 1 36.0407 40.3604 48.9527 3 0.00123587 -4.0965
10585 1 38.6418 40.4095 48.9469 3 0.000834341 -4.09754
10586 1 3.39149 38.5485 47.797 3 7.03797e-05 -4.11379
10587 1 5.93592 38.5477 47.8 3 8.22134e-05 -4.11346
10588 1 5.08766 38.548 45.4676 3 7.738e-05 -4.11359
10589 1 7.63294 38.5467 45.4706 3 9.52062e-05 -4.11313
10590 1 6.78434 38.5472 43.1382 3 8.81217e-05 -4.11331
10591 1 9.33078 38.5451 43.1412 3 0.000113716 -4.11271
10592 1 8.48174 38.546 40.8088 3 0.000103655 -4.11293
10593 1 11.0297 38.5428 40.8117 3 0.000139759 -4.11216
10594 1 10.1801 38.5441 38.4794 3 0.000125644 -4.11245
10595 1 12.73 38.5393 38.4821 3 0.000176425 -4.11148
10596 1 11.8797 38.5412 36.1499 3 0.000156521 -4.11184
10597 1 14.4321 38.5344 36.1524 3 0.00022877 -4.11063
10598 1 13.5808 38.5371 33.8202 3 0.000200182 -4.11108
10599 1 16.1365 38.5274 33.8224 3 0.000304374 -4.10957
10600 1 15.284 38.5312 31.4904 3 0.000262943 -4.11013
10601 1 17.8436 38.5177 31.4921 3 0.000418448 -4.10821
10602 1 16.9896 38.523 29.1603 3 0.000355448 -4.10893
10603 1 19.5545 38.5044 29.1613 3 0.000601529 -4.10638
10604 1 18.6986 38.5116 26.8297 3 0.000497936 -4.10738
10605 1 21.2704 38.4862 26.8297 3 0.000956126 -4.10379
10606 1 20.4117 38.496 24.4985 3 0.000745357 -4.10521
10607 1 22.9931 38.461 24.497 3 0.00140074 -4.09991
10608 1 22.1306 38.4747 22.1665 3 0.00123353 -4.10194
10609 1 24.7265 38.4263 22.1624 3 0.00134931 -4.09617
10610 1 23.8584 38.4448 19.8329 3 0.00142618 -4.09789
10611 1 26.4684 38.3862 19.8272 3 0.00138854 -4.09254
10612 1 25.5966 38.4067 17.4978 3 0.00134237 -4.0943
10613 1 28.2147 38.3464 17.4916 3 0.0022478 -4.09076
10614 1 27.3412 38.3657 15.1624 3 0.0017486 -4.09123
10615 1 29.9602 38.3177 15.1579 3 0.00244152 -4.08852
10616 1 29.0873 38.3306 12.8276 3 0.00233031 -4.08967
10617 1 31.7086 38.3031 12.8235 3 0.00352126 -4.08753
10618 1 30.834 38.3084 10.4937 3 0.00293151 -4.08757
10619 1 33.4583 38.3084 10.4885 3 0.00293151 -4.08757
10620 1 32.5838 38.3031 8.15882 3 0.00352126 -4.08753
10621 1 35.2051 38.3306 8.15462 3 0.00233031 -4.08967
10622 1 34.3321 38.3177 5.8244 3 0.00244152 -4.08852
10623 1 36.9511 38.3657 5.81988 3 0.0017486 -4.09123
10624 1 36.0777 38.3464 3.49068 3 0.0022478 -4.09076
10625 1 38.6958 38.4067 3.48442 3 0.00134237 -4.0943
10626 1 37.824 38.3862 1.1551 3 0.00138854 -4.09254
10627 1 40.434 38.4448 1.14936 3 0.00142618 -4.09789
10628 1 6.76353 36.5373 46.6324 3 0.000108721 -4.11494
10629 1 9.30183 36.5358 46.6344 3 0.000138424 -4.11437
10630 1 8.45553 36.5365 44.3024 3 0.000126611 -4.11459
10631 1 10.9952 36.5341 44.3043 3 0.000169651 -4.11387
10632 1 10.1484 36.535 41.9723 3 0.000152629 -4.11414
10633 1 12.6897 36.5313 41.9742 3 0.000215238 -4.11322
10634 1 11.8423 36.5328 39.6422 3 0.000190284 -4.11357
10635 1 14.3859 36.5273 39.6441 3 0.00028186 -4.11242
10636 1 13.5376 36.5295 37.3121 3 0.000245275 -4.11284
10637 1 16.0842 36.5215 37.3139 3 0.000381385 -4.11138
10638 1 15.2347 36.5247 34.982 3 0.00032674 -4.11193
10639 1 17.7851 36.5134 34.9835 3 0.000533808 -4.11003
10640 1 16.9343 36.5178 32.6517 3 0.000448906 -4.11076
10641 1 19.4898 36.502 32.6528 3 0.00077966 -4.10821
10642 1 18.6369 36.5081 30.3212 3 0.000641136 -4.10919
10643 1 21.1995 36.4861 30.3216 3 0.00124811 -4.10542
10644 1 20.3438 36.4947 27.9903 3 0.000962799 -4.10695
10645 1 22.9163 36.4641 27.9897 3 0.00251009 -4.10069
10646 1 22.0569 36.4759 25.6586 3 0.00172688 -4.10345
10647 1 24.6474 36.4312 25.6565 3 0.00321826 -4.09408
10648 1 23.7795 36.4493 23.3262 3 0.00306559 -4.09744
10649 1 26.3958 36.3874 23.3218 3 0.00318988 -4.08774
10650 1 25.5201 36.4098 20.9918 3 0.00308206 -4.0913
10651 1 28.1566 36.341 20.9877 3 0.00417114 -4.08046
10652 1 27.2748 36.3642 18.6578 3 0.00319715 -4.08379
10653 1 29.9249 36.3051 18.6535 3 0.00609461 -4.07857
10654 1 29.0408 36.3193 16.3224 3 0.00590725 -4.08035
10655 1 31.7006 36.2915 16.3209 3 0.00557803 -4.07038
10656 1 30.8112 36.2955 13.991 3 0.00589158 -4.07495
10657 1 33.4811 36.2955 13.9854 3 0.00589158 -4.07495
10658 1 32.5918 36.2915 11.6555 3 0.00557803 -4.07038
10659 1 35.2516 36.3193 11.6539 3 0.00590725 -4.08035
10660 1 34.3675 36.3051 9.32287 3 0.00609461 -4.07857
10661 1 37.0176 36.3642 9.31858 3 0.00319715 -4.08379
10662 1 36.1358 36.341 6.98868 3 0.00417114 -4.08046
10663 1 38.7722 36.4098 6.98453 3 0.00308206 -4.0913
10664 1 37.8966 36.3874 4.65453 3 0.00318988 -4.08774
10665 1 40.5129 36.4493 4.65012 3 0.00306559 -4.09744
10666 1 39.645 36.4312 2.31988 3 0.00321826 -4.09408
10667 1 42.2355 36.4759 2.31775 3 0.00172688 -4.10345
10668 1 41.3761 36.4641 48.9453 3 0.00251009 -4.10069
10669 1 43.9485 36.4947 48.9447 3 0.000962799 -4.10695
10670 1 8.42594 34.5235 47.7944 3 0.000144167 -4.11628
10671 1 10.9558 34.5218 47.7949 3 0.000190723 -4.11567
10672 1 10.1123 34.5225 45.4634 3 0.000171836 -4.1159
10673 1 12.6434 34.5199 45.4638 3 0.000242188 -4.11512
10674 1 11.7994 34.521 43.1323 3 0.000213748 -4.11541
10675 1 14.3322 34.5168 43.1328 3 0.000322982 -4.11441
10676 1 13.4876 34.5185 40.8012 3 0.000278421 -4.11479
10677 1 16.0226 34.5123 40.8016 3 0.000452612 -4.1135
10678 1 15.1772 34.5148 38.4702 3 0.000379088 -4.114
10679 1 17.7154 34.5058 38.4704 3 0.000662642 -4.11231
10680 1 16.8687 34.5094 36.139 3 0.000544517 -4.11294
10681 1 19.4112 34.4967 36.1391 3 0.0010314 -4.11059
10682 1 18.5628 34.5017 33.8078 3 0.00082256 -4.11151
10683 1 21.1115 34.484 33.8073 3 0.00171058 -4.10786
10684 1 20.2607 34.4908 31.4762 3 0.00131102 -4.10947
10685 1 22.8192 34.4661 31.4746 3 0.00352723 -4.10307
10686 1 21.9642 34.4759 29.1441 3 0.00235013 -4.10581
10687 1 24.5395 34.4403 29.1415 3 0.00816224 -4.09364
10688 1 23.6764 34.4548 26.8111 3 0.00592012 -4.09891
10689 1 26.2903 34.396 26.8073 3 0.0105301 -4.0821
10690 1 25.4104 34.4208 24.4779 3 0.0097437 -4.08763
10691 1 28.0656 34.3478 24.4769 3 0.0138828 -4.06229
10692 1 27.1743 34.3716 22.1442 3 0.0124144 -4.0745
10693 1 29.8721 34.3014 22.1423 3 0.0265573 -4.04467
10694 1 28.9651 34.3246 19.8154 3 0.0181084 -4.04794
10695 1 31.6902 34.2996 19.8123 3 0.00450936 -4.04392
10696 1 30.7788 34.2971 17.4776 3 0.0167218 -4.04061
10697 1 33.5136 34.2971 17.4928 3 0.0167218 -4.04061
10698 1 32.6022 34.2996 15.1581 3 0.00450936 -4.04392
10699 1 35.3273 34.3246 15.1551 3 0.0181084 -4.04794
10700 1 34.4203 34.3014 12.8282 3 0.0265573 -4.04467
10701 1 37.1181 34.3716 12.8262 3 0.0124144 -4.0745
10702 1 36.2268 34.3478 10.4936 3 0.0138828 -4.06229
10703 1 38.882 34.4208 10.4925 3 0.0097437 -4.08763
10704 1 38.002 34.396 8.16319 3 0.0105301 -4.0821
10705 1 40.616 34.4548 8.15934 3 0.00592012 -4.09891
10706 1 39.7529 34.4403 5.82896 3 0.00816224 -4.09364
10707 1 42.3282 34.4759 5.82635 3 0.00235013 -4.10581
10708 1 41.4732 34.4661 3.49585 3 0.00352723 -4.10307
10709 1 44.0316 34.4908 3.49427 3 0.00131102 -4.10947
10710 1 43.1809 34.484 1.16316 3 0.00171058 -4.10786
10711 1 45.7296 34.5017 1.16269 3 0.00082256 -4.11151
10712 1 11.7521 32.5048 46.6203 3 0.000213233 -4.11719
10713 1 14.2717 32.5017 46.6184 3 0.000314636 -4.11645
10714 1 13.4317 32.503 44.2877 3 0.000271177 -4.11673
10715 1 15.9523 32.4983 44.2855 3 0.000439292 -4.11582
10716 1 15.1119 32.5002 41.9549 3 0.00037052 -4.11615
10717 1 17.6339 32.4934 41.9524 3 0.000686325 -4.11496
10718 1 16.7929 32.4961 39.6219 3 0.000543753 -4.11541
10719 1 19.317 32.4865 39.6189 3 0.00118508 -4.11381
10720 1 18.4753 32.4902 37.2886 3 0.000870441 -4.11448
10721 1 21.0032 32.477 37.2846 3 0.00232825 -4.11213
10722 1 20.1596 32.4822 34.9549 3 0.00165626 -4.11302
10723 1 22.6938 32.4646 34.9491 3 0.00575021 -4.10828
10724 1 21.8474 32.4714 32.62 3 0.00359885 -4.11056
10725 1 24.3931 32.4477 32.6105 3 0.0199622 -4.10077
10726 1 23.5428 32.4566 30.2829 3 0.00962052 -4.10511
10727 1 26.1203 32.4177 30.2705 3 5.44731 -4.08656
10728 1 25.2509 32.4359 27.9429 3 0.0366545 -4.09445
10729 1 27.9135 32.3699 27.9348 5 4.98126 -4.05262
10730 1 27.0111 32.3907 25.6037 3 5.2658 -4.0762
10731 1 29.7822 32.3586 25.6205 5 4.33741 -4.00223
10732 1 28.8278 32.3602 23.2758 5 4.64227 -4.02379
10733 1 31.6882 32.3221 23.3095 5 3.36755 -4.03647
10734 1 30.7596 32.3358 20.9634 5 4.29487 -4.01722
10735 1 33.5328 32.3358 21.0011 5 4.29487 -4.01722
10736 1 32.6042 32.3221 18.655 5 3.36755 -4.03647
10737 1 35.4646 32.3602 18.6887 5 4.64227 -4.02379
10738 1 34.5102 32.3586 16.344 5 4.33741 -4.00223
10739 1 37.2813 32.3907 16.3608 3 5.2658 -4.0762
10740 1 36.3789 32.3699 14.0297 5 4.98126 -4.05262
10741 1 39.0415 32.4359 14.0216 3 0.0366545 -4.09445
10742 1 38.1721 32.4177 11.694 3 5.44731 -4.08656
10743 1 40.7495 32.4566 11.6816 3 0.00962052 -4.10511
10744 1 39.8992 32.4477 9.35403 3 0.0199622 -4.10077
10745 1 42.445 32.4714 9.34449 3 0.00359885 -4.11056
10746 1 41.5986 32.4646 7.01548 3 0.00575021 -4.10828
10747 1 44.1328 32.4822 7.00967 3 0.00165626 -4.11302
10748 1 43.2892 32.477 4.67994 3 0.00232825 -4.11213
10749 1 45.8171 32.4902 4.67592 3 0.000870441 -4.11448
10750 1 44.9754 32.4865 2.34566 3 0.00118508 -4.11381
10751 1 47.4995 32.4961 2.34261 3 0.000543753 -4.11541
10752 1 46.6585 32.4934 0.0121576 3 0.000686325 -4.11496
10753 1 49.1805 32.5002 0.00961571 3 0.00037052 -4.11615
10754 1 0.857232 62.5896 19.8166 5 12.3402 -3.52387
10755 1 0 62.5896 17.4852 5 12.3402 -3.52387
10756 1 2.5717 62.5896 17.4852 5 12.3402 -3.52387
10757 1 1.71446 62.5896 15.1539 5 12.3402 -3.52387
10758 1 4.28616 62.5896 15.1539 5 12.3402 -3.52387
10759 1 3.42893 62.5896 12.8225 5 12.3402 -3.52387
10760 1 6.00062 62.5896 12.8225 5 12.3402 -3.52387
10761 1 5.14339 62.5896 10.4911 5 12.3402 -3.52387
10762 1 7.71509 62.5896 10.4911 5 12.3402 -3.52387
10763 1 6.85785 62.5896 8.15977 5 12.3402 -3.52387
10764 1 9.42955 62.5896 8.15977 5 12.3402 -3.52387
10765 1 8.57232 62.5896 5.82841 5 12.3402 -3.52387
10766 1 11.144 62.5896 5.82841 5 12.3402 -3.52387
10767 1 10.2868 62.5896 3.49704 5 12.3402 -3.52387
10768 1 12.8585 62.5896 3.49704 5 12.3402 -3.52387
10769 1 12.0012 62.5896 1.16568 5 12.3402 -3.52387
10770 1 14.5729 62.5896 1.16568 5 12.3402 -3.52387
10771 1 0.857232 60.5706 23.3136 3 5.76e-18 -4.09064
10772 1 0 60.5706 20.9823 3 2.304e-17 -4.09064
10773 1 2.5717 60.5706 20.9823 3 4e-16 -4.09063
10774 1 1.71446 60.5706 18.6509 3 4.5376e-16 -4.09064
10775 1 4.28616 60.5706 18.6509 3 1e-16 -4.09062
10776 1 3.42893 60.5706 16.3195 3 1e-16 -4.09062
10777 1 6.00062 60.5706 16.3195 3 1e-16 -4.09059
10778 1 5.14339 60.5706 13.9882 3 1e-16 -4.09061
10779 1 7.71509 60.5706 13.9882 3 4e-16 -4.09056
10780 1 6.85785 60.5706 11.6568 3 4e-16 -4.09058
10781 1 9.42955 60.5706 11.6568 3 4.41762e-28 -4.09052
10782 1 8.57232 60.5706 9.32545 3 1e-16 -4.09054
10783 1 11.144 60.5706 9.32545 3 4e-16 -4.09046
10784 1 10.2868 60.5706 6.99409 3 9.99999e-17 -4.09049
10785 1 12.8585 60.5706 6.99409 3 1e-16 -4.0904
10786 1 12.0012 60.5706 4.66273 3 4e-16 -4.09043
10787 1 14.5729 60.5706 4.66273 3 1e-16 -4.09032
10788 1 13.7157 60.5706 2.33136 3 1e-16 -4.09036
10789 1 16.2874 60.5706 2.33136 3 4e-16 -4.09022
10790 1 15.4302 60.5706 0 3 1.0507e-16 -4.09027
10791 1 18.0019 60.5706 0 3 1.0507e-16 -4.09012
10792 1 0.857232 58.5516 26.8107 3 0.000989617 -4.10599
10793 1 0 58.5516 24.4793 3 0.00099079 -4.10599
10794 1 2.5717 58.5516 24.4793 3 0.000980179 -4.10598
10795 1 1.71446 58.5516 22.1479 3 0.000986078 -4.10599
10796 1 4.28616 58.5516 22.1479 3 0.000961107 -4.10597
10797 1 3.42893 58.5516 19.8166 3 0.00097187 -4.10598
10798 1 6.00062 58.5516 19.8166 3 0.00093209 -4.10595
10799 1 5.14339 58.5516 17.4852 3 0.000947848 -4.10596
10800 1 7.71509 58.5516 17.4852 3 0.00089312 -4.10592
10801 1 6.85785 58.5516 15.1539 3 0.00091382 -4.10593
10802 1 9.42955 58.5516 15.1539 3 0.000844684 -4.10589
10803 1 8.57232 58.5516 12.8225 3 0.000870029 -4.1059
10804 1 11.144 58.5516 12.8225 3 0.000787922 -4.10586
10805 1 10.2868 58.5516 10.4911 3 0.000817217 -4.10587
10806 1 12.8585 58.5516 10.4911 3 0.000724881 -4.10583
10807 1 12.0012 58.5516 8.15977 3 0.000757017 -4.10584
10808 1 14.5729 58.5516 8.15977 3 0.000658332 -4.1058
10809 1 13.7157 58.5516 5.82841 3 0.000691861 -4.10581
10810 1 16.2874 58.5516 5.82841 3 0.000591074 -4.10578
10811 1 15.4302 58.5516 3.49704 3 0.000624647 -4.10579
10812 1 18.0019 58.5516 3.49704 3 0.000524669 -4.10577
10813 1 17.1446 58.5516 1.16568 3 0.000557723 -4.10578
10814 1 19.7163 58.5516 1.16568 3 0.000458403 -4.10576
10815 1 0.857473 56.5548 30.308 3 1.06806e-06 -4.10574
10816 1 64.2924 56.5548 27.9764 3 9.48043e-07 -4.10574
10817 1 2.57244 56.5547 27.9772 3 2.06606e-06 -4.10573
10818 1 1.71495 56.5548 25.6456 3 1.43672e-06 -4.10574
10819 1 4.28749 56.5544 25.6464 3 4.20208e-06 -4.1057
10820 1 3.42995 56.5546 23.3148 3 2.97657e-06 -4.10572
10821 1 6.00264 56.554 23.3155 3 7.72884e-06 -4.10566
10822 1 5.14505 56.5542 20.9839 3 5.77088e-06 -4.10568
10823 1 7.71796 56.5534 20.9846 3 1.30196e-05 -4.10562
10824 1 6.86028 56.5537 18.653 3 1.01318e-05 -4.10564
10825 1 9.43344 56.5526 18.6535 3 2.03596e-05 -4.10557
10826 1 8.57568 56.553 16.322 3 1.64285e-05 -4.10559
10827 1 11.1491 56.5515 16.3224 3 2.9918e-05 -4.10552
10828 1 10.2913 56.5521 13.9909 3 2.4852e-05 -4.10554
10829 1 12.8649 56.5502 13.991 3 4.12987e-05 -4.10547
10830 1 12.007 56.5509 11.6597 3 3.5419e-05 -4.10549
10831 1 14.5808 56.5487 11.6595 3 5.34402e-05 -4.10545
10832 1 13.7229 56.5495 9.32825 3 4.74132e-05 -4.10546
10833 1 16.2967 56.5468 9.32782 3 6.4315e-05 -4.10546
10834 1 15.4388 56.5478 6.99664 3 5.91397e-05 -4.10545
10835 1 18.0124 56.5447 6.99598 3 7.15175e-05 -4.10551
10836 1 17.1546 56.5458 4.66487 3 6.85784e-05 -4.10548
10837 1 19.7277 56.5425 4.66404 3 7.32526e-05 -4.10558
10838 1 18.8701 56.5436 2.33297 3 7.31499e-05 -4.10554
10839 1 21.4425 56.5402 2.33209 3 6.91736e-05 -4.10569
10840 1 20.5851 56.5413 0.00101975 3 7.18433e-05 -4.10563
10841 1 23.1566 56.5379 0.000206656 3 6.07179e-05 -4.1058
10842 1 0.857472 54.5578 33.8053 3 1.17353e-06 -4.10689
10843 1 64.2924 54.5579 31.4734 3 1.0502e-06 -4.10689
10844 1 2.57246 54.5576 31.4751 3 2.17642e-06 -4.10685
10845 1 1.71495 54.5578 29.1432 3 1.54511e-06 -4.10688
10846 1 4.28757 54.5571 29.1448 3 4.27623e-06 -4.10678
10847 1 3.42999 54.5574 26.8129 3 3.08042e-06 -4.10682
10848 1 6.00289 54.5564 26.8144 3 7.66455e-06 -4.10667
10849 1 5.1452 54.5568 24.4825 3 5.79416e-06 -4.10673
10850 1 7.71848 54.5553 24.4838 3 1.25246e-05 -4.10653
10851 1 6.86065 54.5559 22.1521 3 9.89856e-06 -4.1066
10852 1 9.43439 54.5539 22.1531 3 1.91666e-05 -4.10637
10853 1 8.57639 54.5547 19.8214 3 1.56108e-05 -4.10645
10854 1 11.1506 54.552 19.8221 3 2.76414e-05 -4.1062
10855 1 10.2925 54.553 17.4906 3 2.3151e-05 -4.10628
10856 1 12.8672 54.5496 17.4908 3 3.78003e-05 -4.10602
10857 1 12.0089 54.5508 15.1594 3 3.2574e-05 -4.10611
10858 1 14.584 54.5465 15.1592 3 4.91134e-05 -4.10588
10859 1 13.7256 54.5481 12.828 3 4.33513e-05 -4.10594
10860 1 16.3009 54.5429 12.8272 3 6.00846e-05 -4.10578
10861 1 15.4425 54.5448 10.4962 3 5.47837e-05 -4.10582
10862 1 18.0176 54.5386 10.495 3 6.89167e-05 -4.10576
10863 1 17.1593 54.5408 8.1641 3 6.48974e-05 -4.10576
10864 1 19.7337 54.5339 8.16253 3 7.3189e-05 -4.10583
10865 1 18.8757 54.5363 5.83173 3 7.17161e-05 -4.10579
10866 1 21.4491 54.529 5.83001 3 7.15719e-05 -4.10597
10867 1 20.5915 54.5315 3.49922 3 7.31397e-05 -4.10589
10868 1 23.1634 54.524 3.4976 3 6.42053e-05 -4.10616
10869 1 22.3064 54.5265 1.16674 3 6.85282e-05 -4.10606
10870 1 24.8765 54.5194 1.16544 3 5.28765e-05 -4.10637
10871 1 0.857222 52.5607 37.3026 3 2.74717e-06 -4.10707
10872 1 64.2924 52.5607 34.9704 3 2.6156e-06 -4.10707
10873 1 2.57172 52.5604 34.9728 3 3.82552e-06 -4.10702
10874 1 1.71446 52.5606 32.6407 3 3.14933e-06 -4.10705
10875 1 4.28639 52.5598 32.643 3 6.02882e-06 -4.10692
10876 1 3.42903 52.5601 30.3109 3 4.7783e-06 -4.10698
10877 1 6.00134 52.5588 30.313 3 9.49839e-06 -4.10678
10878 1 5.14382 52.5593 27.981 3 7.59679e-06 -4.10686
10879 1 7.71666 52.5574 27.9828 3 1.44333e-05 -4.1066
10880 1 6.85894 52.5581 25.6509 3 1.17649e-05 -4.10669
10881 1 9.43243 52.5554 25.6524 3 2.10083e-05 -4.10638
10882 1 8.57448 52.5565 23.3206 3 1.7502e-05 -4.10649
10883 1 11.1487 52.5528 23.3217 3 2.9395e-05 -4.10614
10884 1 10.2905 52.5542 20.9901 3 2.49661e-05 -4.10626
10885 1 12.8655 52.5494 20.9906 3 3.9559e-05 -4.10589
10886 1 12.007 52.5512 18.6591 3 3.4272e-05 -4.10602
10887 1 14.5827 52.5451 18.659 3 5.10436e-05 -4.10567
10888 1 13.7241 52.5474 16.3278 3 4.51907e-05 -4.10578
10889 1 16.3003 52.5398 16.3269 3 6.287e-05 -4.1055
10890 1 15.4415 52.5426 13.9959 3 5.69808e-05 -4.10558
10891 1 18.0178 52.5334 13.9944 3 7.36589e-05 -4.10544
10892 1 17.159 52.5367 11.6636 3 6.85232e-05 -4.10546
10893 1 19.7349 52.5261 11.6615 3 8.14801e-05 -4.10551
10894 1 18.8764 52.5298 9.3309 3 7.80759e-05 -4.10546
10895 1 21.4511 52.5182 9.32842 3 8.37444e-05 -4.10571
10896 1 20.5931 52.5222 6.9979 3 8.34656e-05 -4.1056
10897 1 23.166 52.5103 6.99546 3 7.90727e-05 -4.106
10898 1 22.3087 52.5142 4.66487 3 8.22461e-05 -4.10584
10899 1 24.8793 52.5027 4.66283 3 6.84997e-05 -4.10633
10900 1 24.0229 52.5064 2.33205 3 7.43575e-05 -4.10616
10901 1 26.5911 52.496 2.33068 3 5.46001e-05 -4.10665
10902 1 25.7354 52.4992 48.9583 3 6.17394e-05 -4.10649
10903 1 28.3014 52.4906 48.9577 3 4.06068e-05 -4.10692
10904 1 0.856718 50.563 40.7999 3 5.78117e-06 -4.10746
10905 1 64.2924 50.5631 38.4675 3 5.63395e-06 -4.10747
10906 1 2.57022 50.5627 38.4705 3 6.95854e-06 -4.10741
10907 1 1.71345 50.5629 36.1382 3 6.22142e-06 -4.10744
10908 1 4.28392 50.562 36.1411 3 9.34806e-06 -4.10729
10909 1 3.42704 50.5624 33.8088 3 8.00006e-06 -4.10736
10910 1 5.99796 50.5609 33.8115 3 1.30822e-05 -4.10712
10911 1 5.14089 50.5615 31.4793 3 1.10349e-05 -4.10721
10912 1 7.71245 50.5592 31.4817 3 1.83377e-05 -4.1069
10913 1 6.85514 50.5601 29.1496 3 1.55084e-05 -4.10701
10914 1 9.42752 50.5569 29.1516 3 2.53059e-05 -4.10662
10915 1 8.56991 50.5581 26.8197 3 2.15863e-05 -4.10677
10916 1 11.1433 50.5538 26.8212 3 3.42973e-05 -4.10631
10917 1 10.2853 50.5555 24.4894 3 2.95545e-05 -4.10647
10918 1 12.8597 50.5497 24.4903 3 4.53321e-05 -4.10598
10919 1 12.0014 50.5519 22.1588 3 3.95353e-05 -4.10615
10920 1 14.5769 50.5443 22.1589 3 5.80676e-05 -4.10565
10921 1 13.7182 50.5472 19.8276 3 5.15444e-05 -4.10581
10922 1 16.2947 50.5375 19.8268 3 7.16393e-05 -4.10535
10923 1 15.4357 50.5411 17.4959 3 6.48546e-05 -4.10549
10924 1 18.0128 50.5291 17.4942 3 8.43955e-05 -4.10515
10925 1 17.1537 50.5335 15.1635 3 7.81961e-05 -4.10524
10926 1 19.7309 50.5193 15.161 3 9.56053e-05 -4.10512
10927 1 18.8719 50.5244 12.8306 3 9.02979e-05 -4.10511
10928 1 21.4484 50.5084 12.8275 3 0.000103351 -4.10527
10929 1 20.5898 50.5139 10.4972 3 0.000100003 -4.10517
10930 1 23.1644 50.497 10.494 3 0.000104207 -4.10558
10931 1 22.3066 50.5027 8.16367 3 0.00010485 -4.10541
10932 1 24.8787 50.486 8.1608 3 9.6766e-05 -4.10598
10933 1 24.0218 50.4914 5.83029 3 0.000101376 -4.10578
10934 1 26.5911 50.4761 5.8282 3 8.40064e-05 -4.1064
10935 1 25.7352 50.4809 3.49737 3 9.09351e-05 -4.10619
10936 1 28.3017 50.4682 3.49629 3 6.93604e-05 -4.10675
10937 1 27.4466 50.4719 1.16511 3 7.66996e-05 -4.10659
10938 1 30.0108 50.4629 1.16502 3 5.71964e-05 -4.107
10939 1 0.85595 48.5646 44.2971 3 1.03618e-05 -4.10807
10940 1 64.2924 48.5646 41.9645 3 1.02026e-05 -4.10808
10941 1 2.56793 48.5642 41.9681 3 1.16332e-05 -4.108
10942 1 1.71192 48.5645 39.6356 3 1.0833e-05 -4.10804
10943 1 4.28013 48.5635 39.639 3 1.42836e-05 -4.10787
10944 1 3.42399 48.5639 37.3065 3 1.27857e-05 -4.10795
10945 1 5.99272 48.5623 37.3098 3 1.84348e-05 -4.10768
10946 1 5.13637 48.563 34.9774 3 1.61641e-05 -4.10778
10947 1 7.70583 48.5605 34.9803 3 2.42822e-05 -4.10742
10948 1 6.8492 48.5615 32.648 3 2.11128e-05 -4.10755
10949 1 9.41963 48.558 32.6506 3 3.21178e-05 -4.10709
10950 1 8.56264 48.5594 30.3184 3 2.79348e-05 -4.10726
10951 1 11.1342 48.5546 30.3205 3 4.23927e-05 -4.10672
10952 1 10.2768 48.5564 27.9885 3 3.69292e-05 -4.10691
10953 1 12.8498 48.55 27.9899 3 5.5309e-05 -4.10629
10954 1 11.9919 48.5524 25.6582 3 4.84785e-05 -4.10651
10955 1 14.5663 48.5439 25.6587 3 7.1026e-05 -4.10583
10956 1 13.7079 48.5471 23.3274 3 6.28605e-05 -4.10606
10957 1 16.2839 48.5359 23.3269 3 8.8415e-05 -4.10536
10958 1 15.425 48.5401 20.9959 3 7.96234e-05 -4.10559
10959 1 18.0024 48.526 20.9944 3 0.000105127 -4.10495
10960 1 17.143 48.5312 18.6637 3 9.70858e-05 -4.10514
10961 1 19.7214 48.5138 18.6612 3 0.000119477 -4.10468
10962 1 18.8618 48.5201 16.3308 3 0.000112472 -4.10479
10963 1 21.4403 48.4998 16.3273 3 0.000132987 -4.10466
10964 1 20.5809 48.507 13.9972 3 0.000126257 -4.10464
10965 1 23.1582 48.4848 13.9933 3 0.000143575 -4.10489
10966 1 22.2994 48.4924 11.6632 3 0.000139127 -4.10475
10967 1 24.8743 48.4699 11.6595 3 0.000143716 -4.10529
10968 1 24.0165 48.4772 9.32926 3 0.000145168 -4.10508
10969 1 26.5882 48.4563 9.32627 3 0.000135718 -4.10576
10970 1 25.7316 48.4629 6.99573 3 0.000140372 -4.10553
10971 1 28.3 48.4453 6.99389 3 0.000123208 -4.1062
10972 1 27.4444 48.4504 4.66293 3 0.00012986 -4.10599
10973 1 30.0101 48.4378 4.6623 3 0.000110689 -4.10652
10974 1 29.1552 48.4411 2.33097 3 0.000116495 -4.10638
10975 1 31.719 48.4345 2.33125 3 0.000103859 -4.10666
10976 1 30.8646 48.4356 48.9583 3 0.000106248 -4.10661
10977 1 33.4278 48.4356 0.000311047 3 0.000106248 -4.10661
10978 1 0.854913 46.565 47.7943 3 1.66562e-05 -4.10888
10979 1 64.2924 46.5651 45.4616 3 1.64701e-05 -4.10888
10980 1 2.56482 46.5647 45.4655 3 1.809e-05 -4.1088
10981 1 1.70985 46.5649 43.1329 3 1.71883e-05 -4.10885
10982 1 4.27498 46.564 43.1367 3 2.10665e-05 -4.10866
10983 1 3.41986 46.5644 40.8041 3 1.93806e-05 -4.10874
10984 1 5.98556 46.5628 40.8077 3 2.57534e-05 -4.10844
10985 1 5.13021 46.5634 38.4752 3 2.31807e-05 -4.10856
10986 1 7.69673 46.561 38.4786 3 3.24265e-05 -4.10815
10987 1 6.84106 46.5619 36.1461 3 2.8816e-05 -4.10831
10988 1 9.40866 46.5584 36.1491 3 4.14914e-05 -4.10779
10989 1 8.55259 46.5598 33.8169 3 3.66203e-05 -4.10798
10990 1 11.1215 46.5548 33.8194 3 5.35734e-05 -4.10735
10991 1 10.265 46.5568 31.4873 3 4.71272e-05 -4.10758
10992 1 12.8355 46.55 31.4892 3 6.94899e-05 -4.10683
10993 1 11.9784 46.5526 29.1573 3 6.10093e-05 -4.1071
10994 1 14.5508 46.5435 29.1584 3 8.98417e-05 -4.10624
10995 1 13.693 46.547 26.8268 3 7.90868e-05 -4.10655
10996 1 16.2675 46.5349 26.827 3 0.000114647 -4.10559
10997 1 15.409 46.5395 24.4957 3 0.000101775 -4.10592
10998 1 17.9857 46.5238 24.4948 3 0.000141292 -4.10492
10999 1 17.1264 46.5297 22.1639 3 0.000128135 -4.10526
11000 1 19.7053 46.5098 22.1617 3 0.000162836 -4.10431
11001 1 18.8454 46.5172 19.8313 3 0.000153068 -4.1046
11002 1 21.4258 46.493 19.8278 3 0.00018036 -4.10394
11003 1 20.5655 46.5017 17.4978 3 0.000171451 -4.10408
11004 1 23.1461 46.4742 17.4933 3 0.000203648 -4.10391
11005 1 22.2861 46.4838 15.1635 3 0.000191148 -4.10387
11006 1 24.865 46.455 15.1588 3 0.000222515 -4.1042
11007 1 24.0058 46.4645 12.829 3 0.000215458 -4.10402
11008 1 26.5817 46.4371 12.825 3 0.000223329 -4.10465
11009 1 25.7236 46.4458 10.4948 3 0.000223842 -4.10441
11010 1 28.2958 46.4223 10.4919 3 0.000220441 -4.10515
11011 1 27.439 46.4292 8.16128 3 0.000222862 -4.1049
11012 1 30.0079 46.4121 8.15982 3 0.000210066 -4.10553
11013 1 29.1521 46.4165 5.82872 3 0.000215832 -4.10536
11014 1 31.7186 46.4075 5.82838 3 0.000202598 -4.10571
11015 1 30.8634 46.409 3.497 3 0.000205374 -4.10565
11016 1 33.429 46.409 3.49709 3 0.000205374 -4.10565
11017 1 32.5738 46.4075 1.16571 3 0.000202598 -4.10571
11018 1 35.1403 46.4165 1.16537 3 0.000215832 -4.10536
11019 1 1.70721 44.5639 46.63 3 2.55411e-05 -4.10985
11020 1 4.26842 44.563 46.6341 3 2.99929e-05 -4.10965
11021 1 3.4146 44.5634 44.3014 3 2.80714e-05 -4.10974
11022 1 5.97641 44.5619 44.3053 3 3.54152e-05 -4.10942
11023 1 5.12235 44.5625 41.9726 3 3.24567e-05 -4.10954
11024 1 7.68503 44.5602 41.9763 3 4.31812e-05 -4.1091
11025 1 6.83063 44.5611 39.6438 3 3.89599e-05 -4.10927
11026 1 9.39448 44.5577 39.6471 3 5.38302e-05 -4.1087
11027 1 8.53964 44.5591 37.3147 3 4.81043e-05 -4.10891
11028 1 11.105 44.5542 37.3177 3 6.82774e-05 -4.10821
11029 1 10.2496 44.5561 34.9854 3 6.04978e-05 -4.10847
11030 1 12.8167 44.5494 34.9878 3 8.78852e-05 -4.10762
11031 1 11.9607 44.552 32.6558 3 7.73617e-05 -4.10793
11032 1 14.53 44.5428 32.6575 3 0.000114335 -4.10692
11033 1 13.6732 44.5464 30.3257 3 0.000100116 -4.10729
11034 1 16.2451 44.534 30.3265 3 0.000149442 -4.10611
11035 1 15.3873 44.5387 27.995 3 0.000130694 -4.10653
11036 1 17.9622 44.5224 27.9948 3 0.000194065 -4.10517
11037 1 17.1034 44.5286 25.6637 3 0.000170679 -4.10565
11038 1 19.6816 44.5074 25.6621 3 0.000239108 -4.10415
11039 1 18.8216 44.5154 23.3315 3 0.000217854 -4.10467
11040 1 21.4033 44.4885 23.3285 3 0.000265741 -4.10323
11041 1 20.5422 44.4984 20.9984 3 0.000254382 -4.10366
11042 1 23.1263 44.4661 20.9938 3 0.000295317 -4.10269
11043 1 22.2647 44.4776 18.6642 3 0.00027754 -4.10291
11044 1 24.849 44.4421 18.6589 3 0.000351638 -4.10263
11045 1 23.9878 44.4542 16.3293 3 0.000321394 -4.1026
11046 1 26.5698 44.4192 16.3242 3 0.000378308 -4.10293
11047 1 25.7097 44.4303 13.9944 3 0.00037268 -4.10277
11048 1 28.288 44.3997 13.9904 3 0.000392975 -4.10335
11049 1 27.4293 44.4089 11.6602 3 0.00038288 -4.10312
11050 1 30.0038 44.3861 11.6576 3 0.000400711 -4.10381
11051 1 29.1462 44.3921 9.32686 3 0.000400339 -4.1036
11052 1 31.7178 44.3799 9.32556 3 0.000394144 -4.10404
11053 1 30.8609 44.382 6.99447 3 0.000396516 -4.10396
11054 1 33.4314 44.382 6.9937 3 0.000396516 -4.10396
11055 1 32.5746 44.3799 4.66261 3 0.000394144 -4.10404
11056 1 35.1462 44.3921 4.66132 3 0.000400339 -4.1036
11057 1 34.2886 44.3861 2.33057 3 0.000400711 -4.10381
11058 1 36.8631 44.4089 2.32799 3 0.00038288 -4.10312
11059 1 36.0043 44.3997 48.9564 3 0.000392975 -4.10335
11060 1 38.5826 44.4303 48.9524 3 0.00037268 -4.10277
11061 1 3.40816 42.5607 47.7984 3 3.93075e-05 -4.11093
11062 1 5.96516 42.5594 47.8023 3 4.79016e-05 -4.11059
11063 1 5.1127 42.5599 45.4696 3 4.44245e-05 -4.11072
11064 1 7.67061 42.5579 45.4734 3 5.70569e-05 -4.11026
11065 1 6.81779 42.5587 43.1408 3 5.20948e-05 -4.11044
11066 1 9.37693 42.5556 43.1443 3 6.97246e-05 -4.10984
11067 1 8.52365 42.5568 40.8118 3 6.28703e-05 -4.11006
11068 1 11.0844 42.5523 40.8151 3 8.71759e-05 -4.10931
11069 1 10.2305 42.5541 38.4827 3 7.77779e-05 -4.10959
11070 1 12.7932 42.5478 38.4855 3 0.000111213 -4.10866
11071 1 11.9386 42.5502 36.1533 3 9.82295e-05 -4.109
11072 1 14.5037 42.5415 36.1555 3 0.000144591 -4.10788
11073 1 13.6482 42.5449 33.8235 3 0.000126503 -4.10829
11074 1 16.2162 42.5329 33.825 3 0.000191662 -4.10693
11075 1 15.3596 42.5375 31.4933 3 0.000166097 -4.10743
11076 1 17.9312 42.5214 31.4939 3 0.000258139 -4.10578
11077 1 17.0734 42.5276 29.1625 3 0.000222109 -4.10638
11078 1 19.6493 42.5061 29.1618 3 0.000348477 -4.10439
11079 1 18.7898 42.5143 26.8309 3 0.000300849 -4.10512
11080 1 21.3708 42.4862 26.8287 3 0.00042324 -4.10279
11081 1 20.5096 42.4968 24.4984 3 0.000393942 -4.10359
11082 1 23.096 42.4611 24.4943 3 0.000450511 -4.10145
11083 1 22.233 42.4743 22.1646 3 0.000438746 -4.10206
11084 1 24.8233 42.4324 22.1591 3 0.000529361 -4.10061
11085 1 23.9595 42.4471 19.8298 3 0.000477406 -4.10095
11086 1 26.5501 42.4036 19.8238 3 0.000666688 -4.10046
11087 1 25.6869 42.4177 17.4944 3 0.000607066 -4.10044
11088 1 28.2745 42.3787 17.4894 3 0.000686635 -4.10053
11089 1 27.4126 42.3905 15.1594 3 0.000677918 -4.10047
11090 1 29.9965 42.3605 15.1557 3 0.000772711 -4.10088
11091 1 29.1358 42.3686 12.8254 3 0.000727556 -4.10066
11092 1 31.7164 42.3521 12.8228 3 0.000798772 -4.10116
11093 1 30.8566 42.355 10.4921 3 0.000797129 -4.10107
11094 1 33.4358 42.355 10.4901 3 0.000797129 -4.10107
11095 1 32.576 42.3521 8.15945 3 0.000798772 -4.10116
11096 1 35.1566 42.3686 8.15688 3 0.000727556 -4.10066
11097 1 34.2959 42.3605 5.82657 3 0.000772711 -4.10088
11098 1 36.8798 42.3905 5.82282 3 0.000677918 -4.10047
11099 1 36.0179 42.3787 3.49291 3 0.000686635 -4.10053
11100 1 38.6055 42.4177 3.48786 3 0.000607066 -4.10044
11101 1 37.7423 42.4036 1.15843 3 0.000666688 -4.10046
11102 1 40.3329 42.4471 1.1525 3 0.000477406 -4.10095
11103 1 6.80241 40.5542 46.637 3 6.85581e-05 -4.11179
11104 1 9.35577 40.5515 46.6405 3 8.98292e-05 -4.11118
11105 1 8.50441 40.5526 44.308 3 8.15436e-05 -4.11141
11106 1 11.0594 40.5487 44.3112 3 0.00011106 -4.11063
11107 1 10.2074 40.5503 41.9788 3 9.9578e-05 -4.11092
11108 1 12.7644 40.5446 41.9818 3 0.000140532 -4.10995
11109 1 11.9117 40.5468 39.6495 3 0.000124584 -4.11031
11110 1 14.4712 40.5389 39.652 3 0.000182154 -4.10912
11111 1 13.6175 40.542 37.3199 3 0.00015952 -4.10956
11112 1 16.1802 40.5309 37.3219 3 0.000241917 -4.10809
11113 1 15.3254 40.5352 34.99 3 0.000209224 -4.10863
11114 1 17.892 40.5201 34.9913 3 0.000330859 -4.10679
11115 1 17.0357 40.5259 32.6597 3 0.000281858 -4.10748
11116 1 19.6072 40.5054 32.6599 3 0.000470604 -4.10512
11117 1 18.7491 40.5133 30.3287 3 0.000391777 -4.10601
11118 1 21.3269 40.4858 30.3276 3 0.000674869 -4.10288
11119 1 20.4665 40.4963 27.9969 3 0.000568832 -4.10409
11120 1 23.0524 40.4595 27.9939 3 0.0007533 -4.10038
11121 1 22.1889 40.4736 25.6639 3 0.000739321 -4.1016
11122 1 24.7835 40.427 25.6588 3 0.000755249 -4.09835
11123 1 23.9174 40.4438 23.3294 3 0.000740759 -4.09934
11124 1 26.518 40.392 23.3232 3 0.00102093 -4.097
11125 1 25.6506 40.4095 20.994 3 0.000834341 -4.09754
11126 1 28.2517 40.3604 20.9882 3 0.00123587 -4.0965
11127 1 27.3853 40.3753 18.6584 3 0.00120617 -4.09682
11128 1 29.9833 40.337 18.6541 3 0.00140882 -4.09595
11129 1 29.1177 40.3475 16.324 3 0.00125765 -4.09618
11130 1 31.7138 40.3255 16.3201 3 0.00174833 -4.0961
11131 1 30.8487 40.3294 13.99 3 0.00161514 -4.096
11132 1 33.4437 40.3294 13.9863 3 0.00161514 -4.096
11133 1 32.5786 40.3255 11.6562 3 0.00174833 -4.0961
11134 1 35.1747 40.3475 11.6523 3 0.00125765 -4.09618
11135 1 34.309 40.337 9.32229 3 0.00140882 -4.09595
11136 1 36.9071 40.3753 9.31792 3 0.00120617 -4.09682
11137 1 36.0407 40.3604 6.98816 3 0.00123587 -4.0965
11138 1 38.6418 40.4095 6.98238 3 0.000834341 -4.09754
11139 1 37.7744 40.392 4.65313 3 0.00102093 -4.097
11140 1 40.375 40.4438 4.64699 3 0.000740759 -4.09934
11141 1 39.5088 40.427 2.31756 3 0.000755249 -4.09835
11142 1 42.1035 40.4736 2.31248 3 0.000739321 -4.1016
11143 1 41.24 40.4595 48.9411 3 0.0007533 -4.10038
11144 1 43.8259 40.4963 48.9381 3 0.000568832 -4.10409
11145 1 8.48174 38.546 47.8029 3 0.000103655 -4.11293
11146 1 11.0297 38.5428 47.8058 3 0.000139759 -4.11216
11147 1 10.1801 38.5441 45.4735 3 0.000125644 -4.11245
11148 1 12.73 38.5393 45.4762 3 0.000176425 -4.11148
11149 1 11.8797 38.5412 43.1439 3 0.000156521 -4.11184
11150 1 14.4321 38.5344 43.1465 3 0.00022877 -4.11063
11151 1 13.5808 38.5371 40.8143 3 0.000200182 -4.11108
11152 1 16.1365 38.5274 40.8165 3 0.000304374 -4.10957
11153 1 15.284 38.5312 38.4845 3 0.000262943 -4.11013
11154 1 17.8436 38.5177 38.4862 3 0.000418448 -4.10821
11155 1 16.9896 38.523 36.1544 3 0.000355448 -4.10893
11156 1 19.5545 38.5044 36.1554 3 0.000601529 -4.10638
11157 1 18.6986 38.5116 33.8238 3 0.000497936 -4.10738
11158 1 21.2704 38.4862 33.8237 3 0.000956126 -4.10379
11159 1 20.4117 38.496 31.4926 3 0.000745357 -4.10521
11160 1 22.9931 38.461 31.4911 3 0.00140074 -4.09991
11161 1 22.1306 38.4747 29.1606 3 0.00123353 -4.10194
11162 1 24.7265 38.4263 29.1565 3 0.00134931 -4.09617
11163 1 23.8584 38.4448 26.827 3 0.00142618 -4.09789
11164 1 26.4684 38.3862 26.8213 3 0.00138854 -4.09254
11165 1 25.5966 38.4067 24.4919 3 0.00134237 -4.0943
11166 1 28.2147 38.3464 24.4857 3 0.0022478 -4.09076
11167 1 27.3412 38.3657 22.1565 3 0.0017486 -4.09123
11168 1 29.9602 38.3177 22.152 3 0.00244152 -4.08852
11169 1 29.0873 38.3306 19.8217 3 0.00233031 -4.08967
11170 1 31.7086 38.3031 19.8175 3 0.00352126 -4.08753
11171 1 30.834 38.3084 17.4878 3 0.00293151 -4.08757
11172 1 33.4583 38.3084 17.4826 3 0.00293151 -4.08757
11173 1 32.5838 38.3031 15.1529 3 0.00352126 -4.08753
11174 1 35.2051 38.3306 15.1487 3 0.00233031 -4.08967
11175 1 34.3321 38.3177 12.8185 3 0.00244152 -4.08852
11176 1 36.9511 38.3657 12.814 3 0.0017486 -4.09123
11177 1 36.0777 38.3464 10.4848 3 0.0022478 -4.09076
11178 1 38.6958 38.4067 10.4785 3 0.00134237 -4.0943
11179 1 37.824 38.3862 8.14919 3 0.00138854 -4.09254
11180 1 40.434 38.4448 8.14345 3 0.00142618 -4.09789
11181 1 39.5659 38.4263 5.81392 3 0.00134931 -4.09617
11182 1 42.1618 38.4747 5.80989 3 0.00123353 -4.10194
11183 1 41.2992 38.461 3.47939 3 0.00140074 -4.09991
11184 1 43.8807 38.496 3.47781 3 0.000745357 -4.10521
11185 1 43.022 38.4862 1.1467 3 0.000956126 -4.10379
11186 1 45.5938 38.5116 1.14662 3 0.000497936 -4.10738
11187 1 11.8423 36.5328 46.6363 3 0.000190284 -4.11357
11188 1 14.3859 36.5273 46.6382 3 0.00028186 -4.11242
11189 1 13.5376 36.5295 44.3062 3 0.000245275 -4.11284
11190 1 16.0842 36.5215 44.308 3 0.000381385 -4.11138
11191 1 15.2347 36.5247 41.9761 3 0.00032674 -4.11193
11192 1 17.7851 36.5134 41.9776 3 0.000533808 -4.11003
11193 1 16.9343 36.5178 39.6458 3 0.000448906 -4.11076
11194 1 19.4898 36.502 39.6469 3 0.00077966 -4.10821
11195 1 18.6369 36.5081 37.3153 3 0.000641136 -4.10919
11196 1 21.1995 36.4861 37.3157 3 0.00124811 -4.10542
11197 1 20.3438 36.4947 34.9844 3 0.000962799 -4.10695
11198 1 22.9163 36.4641 34.9837 3 0.00251009 -4.10069
11199 1 22.0569 36.4759 32.6527 3 0.00172688 -4.10345
11200 1 24.6474 36.4312 32.6506 3 0.00321826 -4.09408
11201 1 23.7795 36.4493 30.3203 3 0.00306559 -4.09744
11202 1 26.3958 36.3874 30.3159 3 0.00318988 -4.08774
11203 1 25.5201 36.4098 27.9859 3 0.00308206 -4.0913
11204 1 28.1566 36.341 27.9818 3 0.00417114 -4.08046
11205 1 27.2748 36.3642 25.6519 3 0.00319715 -4.08379
11206 1 29.9249 36.3051 25.6476 3 0.00609461 -4.07857
11207 1 29.0408 36.3193 23.3165 3 0.00590725 -4.08035
11208 1 31.7006 36.2915 23.315 3 0.00557803 -4.07038
11209 1 30.8112 36.2955 20.9851 3 0.00589158 -4.07495
11210 1 33.4811 36.2955 20.9795 3 0.00589158 -4.07495
11211 1 32.5918 36.2915 18.6496 3 0.00557803 -4.07038
11212 1 35.2516 36.3193 18.648 3 0.00590725 -4.08035
11213 1 34.3675 36.3051 16.317 3 0.00609461 -4.07857
11214 1 37.0176 36.3642 16.3127 3 0.00319715 -4.08379
11215 1 36.1358 36.341 13.9828 3 0.00417114 -4.08046
11216 1 38.7722 36.4098 13.9786 3 0.00308206 -4.0913
11217 1 37.8966 36.3874 11.6486 3 0.00318988 -4.08774
11218 1 40.5129 36.4493 11.6442 3 0.00306559 -4.09744
11219 1 39.645 36.4312 9.31397 3 0.00321826 -4.09408
11220 1 42.2355 36.4759 9.31184 3 0.00172688 -4.10345
11221 1 41.3761 36.4641 6.98079 3 0.00251009 -4.10069
11222 1 43.9485 36.4947 6.98019 3 0.000962799 -4.10695
11223 1 43.0929 36.4861 4.64885 3 0.00124811 -4.10542
11224 1 45.6554 36.5081 4.64925 3 0.000641136 -4.10919
11225 1 44.8026 36.502 2.31763 3 0.00077966 -4.10821
11226 1 47.3581 36.5178 2.31874 3 0.000448906 -4.11076
11227 1 46.5073 36.5134 48.9455 3 0.000533808 -4.11003
11228 1 49.0577 36.5247 48.9471 3 0.00032674 -4.11193
11229 1 13.4876 34.5185 47.7953 3 0.000278421 -4.11479
11230 1 16.0226 34.5123 47.7957 3 0.000452612 -4.1135
11231 1 15.1772 34.5148 45.4642 3 0.000379088 -4.114
11232 1 17.7154 34.5058 45.4645 3 0.000662642 -4.11231
11233 1 16.8687 34.5094 43.1331 3 0.000544517 -4.11294
11234 1 19.4112 34.4967 43.1332 3 0.0010314 -4.11059
11235 1 18.5628 34.5017 40.8018 3 0.00082256 -4.11151
11236 1 21.1115 34.484 40.8014 3 0.00171058 -4.10786
11237 1 20.2607 34.4908 38.4703 3 0.00131102 -4.10947
11238 1 22.8192 34.4661 38.4687 3 0.00352723 -4.10307
11239 1 21.9642 34.4759 36.1382 3 0.00235013 -4.10581
11240 1 24.5395 34.4403 36.1356 3 0.00816224 -4.09364
11241 1 23.6764 34.4548 33.8052 3 0.00592012 -4.09891
11242 1 26.2903 34.396 33.8013 3 0.0105301 -4.0821
11243 1 25.4104 34.4208 31.472 3 0.0097437 -4.08763
11244 1 28.0656 34.3478 31.471 3 0.0138828 -4.06229
11245 1 27.1743 34.3716 29.1383 3 0.0124144 -4.0745
11246 1 29.8721 34.3014 29.1364 3 0.0265573 -4.04467
11247 1 28.9651 34.3246 26.8095 3 0.0181084 -4.04794
11248 1 31.6902 34.2996 26.8064 3 0.00450936 -4.04392
11249 1 30.7788 34.2971 24.4717 3 0.0167218 -4.04061
11250 1 33.5136 34.2971 24.4869 3 0.0167218 -4.04061
11251 1 32.6022 34.2996 22.1522 3 0.00450936 -4.04392
11252 1 35.3273 34.3246 22.1492 3 0.0181084 -4.04794
11253 1 34.4203 34.3014 19.8222 3 0.0265573 -4.04467
11254 1 37.1181 34.3716 19.8203 3 0.0124144 -4.0745
11255 1 36.2268 34.3478 17.4877 3 0.0138828 -4.06229
11256 1 38.882 34.4208 17.4866 3 0.0097437 -4.08763
11257 1 38.002 34.396 15.1573 3 0.0105301 -4.0821
11258 1 40.616 34.4548 15.1534 3 0.00592012 -4.09891
11259 1 39.7529 34.4403 12.823 3 0.00816224 -4.09364
11260 1 42.3282 34.4759 12.8204 3 0.00235013 -4.10581
11261 1 41.4732 34.4661 10.4899 3 0.00352723 -4.10307
11262 1 44.0316 34.4908 10.4884 3 0.00131102 -4.10947
11263 1 43.1809 34.484 8.15725 3 0.00171058 -4.10786
11264 1 45.7296 34.5017 8.15678 3 0.00082256 -4.11151
11265 1 44.8812 34.4967 5.82545 3 0.0010314 -4.11059
11266 1 47.4237 34.5094 5.82551 3 0.000544517 -4.11294
11267 1 46.577 34.5058 3.49409 3 0.000662642 -4.11231
11268 1 49.1152 34.5148 3.49438 3 0.000379088 -4.114
11269 1 48.2698 34.5123 1.16289 3 0.000452612 -4.1135
11270 1 50.8048 34.5185 1.16329 3 0.000278421 -4.11479
11271 1 16.7929 32.4961 46.616 3 0.000543753 -4.11541
11272 1 19.317 32.4865 46.613 3 0.00118508 -4.11381
11273 1 18.4753 32.4902 44.2827 3 0.000870441 -4.11448
11274 1 21.0032 32.477 44.2787 3 0.00232825 -4.11213
11275 1 20.1596 32.4822 41.949 3 0.00165626 -4.11302
11276 1 22.6938 32.4646 41.9431 3 0.00575021 -4.10828
11277 1 21.8474 32.4714 39.6141 3 0.00359885 -4.11056
11278 1 24.3931 32.4477 39.6046 3 0.0199622 -4.10077
11279 1 23.5428 32.4566 37.277 3 0.00962052 -4.10511
11280 1 26.1203 32.4177 37.2646 3 5.44731 -4.08656
11281 1 25.2509 32.4359 34.937 3 0.0366545 -4.09445
11282 1 27.9135 32.3699 34.9289 5 4.98126 -4.05262
11283 1 27.0111 32.3907 32.5978 3 5.2658 -4.0762
11284 1 29.7822 32.3586 32.6146 5 4.33741 -4.00223
11285 1 28.8278 32.3602 30.2699 5 4.64227 -4.02379
11286 1 31.6882 32.3221 30.3036 5 3.36755 -4.03647
11287 1 30.7596 32.3358 27.9575 5 4.29487 -4.01722
11288 1 33.5328 32.3358 27.9952 5 4.29487 -4.01722
11289 1 32.6042 32.3221 25.6491 5 3.36755 -4.03647
11290 1 35.4646 32.3602 25.6828 5 4.64227 -4.02379
11291 1 34.5102 32.3586 23.3381 5 4.33741 -4.00223
11292 1 37.2813 32.3907 23.3549 3 5.2658 -4.0762
11293 1 36.3789 32.3699 21.0238 5 4.98126 -4.05262
11294 1 39.0415 32.4359 21.0157 3 0.0366545 -4.09445
11295 1 38.1721 32.4177 18.6881 3 5.44731 -4.08656
11296 1 40.7495 32.4566 18.6757 3 0.00962052 -4.10511
11297 1 39.8992 32.4477 16.3481 3 0.0199622 -4.10077
11298 1 42.445 32.4714 16.3386 3 0.00359885 -4.11056
11299 1 41.5986 32.4646 14.0096 3 0.00575021 -4.10828
11300 1 44.1328 32.4822 14.0038 3 0.00165626 -4.11302
11301 1 43.2892 32.477 11.674 3 0.00232825 -4.11213
11302 1 45.8171 32.4902 11.67 3 0.000870441 -4.11448
11303 1 44.9754 32.4865 9.33975 3 0.00118508 -4.11381
11304 1 47.4995 32.4961 9.3367 3 0.000543753 -4.11541
11305 1 46.6585 32.4934 7.00625 3 0.000686325 -4.11496
11306 1 49.1805 32.5002 7.00371 3 0.00037052 -4.11615
11307 1 48.3401 32.4983 4.67314 3 0.000439292 -4.11582
11308 1 50.8606 32.503 4.67092 3 0.000271177 -4.11673
11309 1 50.0206 32.5017 2.34025 3 0.000314636 -4.11645
11310 1 52.5403 32.5048 2.33828 3 0.000213233 -4.11719
11311 1 51.7005 32.504 0.00753555 3 0.00023953 -4.11697
11312 1 54.2196 32.5059 0.00574949 3 0.000175519 -4.11756
11313 1 0.857232 62.5896 26.8107 5 12.3402 -3.52387
11314 1 0 62.5896 24.4793 5 12.3402 -3.52387
11315 1 2.5717 62.5896 24.4793 5 12.3402 -3.52387
11316 1 1.71446 62.5896 22.1479 5 12.3402 -3.52387
11317 1 4.28616 62.5896 22.1479 5 12.3402 -3.52387
11318 1 3.42893 62.5896 19.8166 5 12.3402 -3.52387
11319 1 6.00062 62.5896 19.8166 5 12.3402 -3.52387
11320 1 5.14339 62.5896 17.4852 5 12.3402 -3.52387
11321 1 7.71509 62.5896 17.4852 5 12.3402 -3.52387
11322 1 6.85785 62.5896 15.1539 5 12.3402 -3.52387
11323 1 9.42955 62.5896 15.1539 5 12.3402 -3.52387
11324 1 8.57232 62.5896 12.8225 5 12.3402 -3.52387
11325 1 11.144 62.5896 12.8225 5 12.3402 -3.52387
11326 1 10.2868 62.5896 10.4911 5 12.3402 -3.52387
11327 1 12.8585 62.5896 10.4911 5 12.3402 -3.52387
11328 1 12.0012 62.5896 8.15977 5 12.3402 -3.52387
11329 1 14.5729 62.5896 8.15977 5 12.3402 -3.52387
11330 1 13.7157 62.5896 5.82841 5 12.3402 -3.52387
11331 1 16.2874 62.5896 5.82841 5 12.3402 -3.52387
11332 1 15.4302 62.5896 3.49704 5 12.3402 -3.52387
11333 1 18.0019 62.5896 3.49704 5 12.3402 -3.52387
11334 1 17.1446 62.5896 1.16568 5 12.3402 -3.52387
11335 1 19.7163 62.5896 1.16568 5 12.3402 -3.52387
11336 1 0.857232 60.5706 30.3077 3 5.76e-18 -4.09064
11337 1 0 60.5706 27.9764 3 2.304e-17 -4.09064
11338 1 2.5717 60.5706 27.9764 3 4e-16 -4.09063
11339 1 1.71446 60.5706 25.645 3 4.5376e-16 -4.09064
11340 1 4.28616 60.5706 25.645 3 1e-16 -4.09062
11341 1 3.42893 60.5706 23.3136 3 1e-16 -4.09062
11342 1 6.00062 60.5706 23.3136 3 1e-16 -4.09059
11343 1 5.14339 60.5706 20.9823 3 1e-16 -4.09061
11344 1 7.71509 60.5706 20.9823 3 4e-16 -4.09056
11345 1 6.85785 60.5706 18.6509 3 4e-16 -4.09058
11346 1 9.42955 60.5706 18.6509 3 4.41762e-28 -4.09052
11347 1 8.57232 60.5706 16.3195 3 1e-16 -4.09054
11348 1 11.144 60.5706 16.3195 3 4e-16 -4.09046
11349 1 10.2868 60.5706 13.9882 3 9.99999e-17 -4.09049
11350 1 12.8585 60.5706 13.9882 3 1e-16 -4.0904
11351 1 12.0012 60.5706 11.6568 3 4e-16 -4.09043
11352 1 14.5729 60.5706 11.6568 3 1e-16 -4.09032
11353 1 13.7157 60.5706 9.32545 3 1e-16 -4.09036
11354 1 16.2874 60.5706 9.32545 3 4e-16 -4.09022
11355 1 15.4302 60.5706 6.99409 3 1e-16 -4.09027
11356 1 18.0019 60.5706 6.99409 3 1e-16 -4.09012
11357 1 17.1446 60.5706 4.66273 3 4e-16 -4.09017
11358 1 19.7163 60.5706 4.66273 3 1e-16 -4.09001
11359 1 18.8591 60.5706 2.33136 3 4.54384e-28 -4.09006
11360 1 21.4308 60.5706 2.33136 3 4e-16 -4.08989
11361 1 20.5736 60.5706 0 3 4.0507e-16 -4.08995
11362 1 23.1453 60.5706 0 3 5.07001e-18 -4.08978
11363 1 0.857232 58.5516 33.8048 3 0.000989617 -4.10599
11364 1 0 58.5516 31.4734 3 0.00099079 -4.10599
11365 1 2.5717 58.5516 31.4734 3 0.000980179 -4.10598
11366 1 1.71446 58.5516 29.142 3 0.000986078 -4.10599
11367 1 4.28616 58.5516 29.142 3 0.000961107 -4.10597
11368 1 3.42893 58.5516 26.8107 3 0.00097187 -4.10598
11369 1 6.00062 58.5516 26.8107 3 0.00093209 -4.10595
11370 1 5.14339 58.5516 24.4793 3 0.000947848 -4.10596
11371 1 7.71509 58.5516 24.4793 3 0.00089312 -4.10592
11372 1 6.85785 58.5516 22.1479 3 0.00091382 -4.10593
11373 1 9.42955 58.5516 22.1479 3 0.000844684 -4.10589
11374 1 8.57232 58.5516 19.8166 3 0.000870029 -4.1059
11375 1 11.144 58.5516 19.8166 3 0.000787922 -4.10586
11376 1 10.2868 58.5516 17.4852 3 0.000817217 -4.10587
11377 1 12.8585 58.5516 17.4852 3 0.000724881 -4.10583
11378 1 12.0012 58.5516 15.1539 3 0.000757017 -4.10584
11379 1 14.5729 58.5516 15.1539 3 0.000658332 -4.1058
11380 1 13.7157 58.5516 12.8225 3 0.000691861 -4.10581
11381 1 16.2874 58.5516 12.8225 3 0.000591074 -4.10578
11382 1 15.4302 58.5516 10.4911 3 0.000624647 -4.10579
11383 1 18.0019 58.5516 10.4911 3 0.000524669 -4.10577
11384 1 17.1446 58.5516 8.15977 3 0.000557723 -4.10578
11385 1 19.7163 58.5516 8.15977 3 0.000458403 -4.10576
11386 1 18.8591 58.5516 5.82841 3 0.000491636 -4.10577
11387 1 21.4308 58.5516 5.82841 3 0.000389679 -4.10576
11388 1 20.5736 58.5516 3.49704 3 0.000424557 -4.10576
11389 1 23.1453 58.5516 3.49704 3 0.000315834 -4.10575
11390 1 22.288 58.5516 1.16568 3 0.000353488 -4.10575
11391 1 24.8597 58.5516 1.16568 3 0.000236862 -4.10575
11392 1 0.857473 56.5548 37.3021 3 1.06806e-06 -4.10574
11393 1 64.2924 56.5548 34.9704 3 9.48043e-07 -4.10574
11394 1 2.57244 56.5547 34.9713 3 2.06606e-06 -4.10573
11395 1 1.71495 56.5548 32.6397 3 1.43672e-06 -4.10574
11396 1 4.28749 56.5544 32.6405 3 4.20208e-06 -4.1057
11397 1 3.42995 56.5546 30.3089 3 2.97657e-06 -4.10572
11398 1 6.00264 56.554 30.3096 3 7.72884e-06 -4.10566
11399 1 5.14505 56.5542 27.978 3 5.77088e-06 -4.10568
11400 1 7.71796 56.5534 27.9787 3 1.30196e-05 -4.10562
11401 1 6.86028 56.5537 25.6471 3 1.01318e-05 -4.10564
11402 1 9.43344 56.5526 25.6476 3 2.03596e-05 -4.10557
11403 1 8.57568 56.553 23.3161 3 1.64285e-05 -4.10559
11404 1 11.1491 56.5515 23.3165 3 2.9918e-05 -4.10552
11405 1 10.2913 56.5521 20.985 3 2.4852e-05 -4.10554
11406 1 12.8649 56.5502 20.9851 3 4.12987e-05 -4.10547
11407 1 12.007 56.5509 18.6538 3 3.5419e-05 -4.10549
11408 1 14.5808 56.5487 18.6536 3 5.34402e-05 -4.10545
11409 1 13.7229 56.5495 16.3223 3 4.74132e-05 -4.10546
11410 1 16.2967 56.5468 16.3219 3 6.4315e-05 -4.10546
11411 1 15.4388 56.5478 13.9907 3 5.91397e-05 -4.10545
11412 1 18.0124 56.5447 13.9901 3 7.15175e-05 -4.10551
11413 1 17.1546 56.5458 11.659 3 6.85784e-05 -4.10548
11414 1 19.7277 56.5425 11.6581 3 7.32526e-05 -4.10558
11415 1 18.8701 56.5436 9.32706 3 7.31499e-05 -4.10554
11416 1 21.4425 56.5402 9.32618 3 6.91736e-05 -4.10569
11417 1 20.5851 56.5413 6.99511 3 7.18433e-05 -4.10563
11418 1 23.1566 56.5379 6.9943 3 6.07179e-05 -4.1058
11419 1 22.2996 56.539 4.66318 3 6.5392e-05 -4.10574
11420 1 24.8701 56.5359 4.66254 3 4.99747e-05 -4.10592
11421 1 24.0134 56.5369 2.33136 3 5.54688e-05 -4.10586
11422 1 26.5829 56.5341 2.33097 3 3.9008e-05 -4.10603
11423 1 25.7266 56.5349 48.9583 3 4.43784e-05 -4.10598
11424 1 28.2951 56.5327 48.9582 3 2.97496e-05 -4.10612
11425 1 0.857472 54.5578 40.7994 3 1.17353e-06 -4.10689
11426 1 64.2924 54.5579 38.4675 3 1.0502e-06 -4.10689
11427 1 2.57246 54.5576 38.4692 3 2.17642e-06 -4.10685
11428 1 1.71495 54.5578 36.1373 3 1.54511e-06 -4.10688
11429 1 4.28757 54.5571 36.1389 3 4.27623e-06 -4.10678
11430 1 3.42999 54.5574 33.807 3 3.08042e-06 -4.10682
11431 1 6.00289 54.5564 33.8084 3 7.66455e-06 -4.10667
11432 1 5.1452 54.5568 31.4766 3 5.79416e-06 -4.10673
11433 1 7.71848 54.5553 31.4779 3 1.25246e-05 -4.10653
11434 1 6.86065 54.5559 29.1461 3 9.89856e-06 -4.1066
11435 1 9.43439 54.5539 29.1471 3 1.91666e-05 -4.10637
11436 1 8.57639 54.5547 26.8155 3 1.56108e-05 -4.10645
11437 1 11.1506 54.552 26.8162 3 2.76414e-05 -4.1062
11438 1 10.2925 54.553 24.4846 3 2.3151e-05 -4.10628
11439 1 12.8672 54.5496 24.4849 3 3.78003e-05 -4.10602
11440 1 12.0089 54.5508 22.1535 3 3.2574e-05 -4.10611
11441 1 14.584 54.5465 22.1533 3 4.91134e-05 -4.10588
11442 1 13.7256 54.5481 19.8221 3 4.33513e-05 -4.10594
11443 1 16.3009 54.5429 19.8213 3 6.00846e-05 -4.10578
11444 1 15.4425 54.5448 17.4903 3 5.47837e-05 -4.10582
11445 1 18.0176 54.5386 17.4891 3 6.89167e-05 -4.10576
11446 1 17.1593 54.5408 15.1582 3 6.48974e-05 -4.10576
11447 1 19.7337 54.5339 15.1566 3 7.3189e-05 -4.10583
11448 1 18.8757 54.5363 12.8258 3 7.17161e-05 -4.10579
11449 1 21.4491 54.529 12.8241 3 7.15719e-05 -4.10597
11450 1 20.5915 54.5315 10.4933 3 7.31397e-05 -4.10589
11451 1 23.1634 54.524 10.4917 3 6.42053e-05 -4.10616
11452 1 22.3064 54.5265 8.16083 3 6.85282e-05 -4.10606
11453 1 24.8765 54.5194 8.15953 3 5.28765e-05 -4.10637
11454 1 24.0201 54.5217 5.82853 3 5.89024e-05 -4.10627
11455 1 26.5884 54.5154 5.82771 3 4.01072e-05 -4.10657
11456 1 25.7325 54.5173 3.49653 3 4.65067e-05 -4.10648
11457 1 28.2992 54.5122 3.49627 3 2.82602e-05 -4.10674
11458 1 27.4439 54.5137 1.1649 3 3.38936e-05 -4.10666
11459 1 30.0093 54.5101 1.16513 3 1.96384e-05 -4.10685
11460 1 0.857222 52.5607 44.2967 3 2.74717e-06 -4.10707
11461 1 64.2924 52.5607 41.9645 3 2.6156e-06 -4.10707
11462 1 2.57172 52.5604 41.9669 3 3.82552e-06 -4.10702
11463 1 1.71446 52.5606 39.6348 3 3.14933e-06 -4.10705
11464 1 4.28639 52.5598 39.6371 3 6.02882e-06 -4.10692
11465 1 3.42903 52.5601 37.305 3 4.7783e-06 -4.10698
11466 1 6.00134 52.5588 37.3071 3 9.49839e-06 -4.10678
11467 1 5.14382 52.5593 34.9751 3 7.59679e-06 -4.10686
11468 1 7.71666 52.5574 34.9769 3 1.44333e-05 -4.1066
11469 1 6.85894 52.5581 32.645 3 1.17649e-05 -4.10669
11470 1 9.43243 52.5554 32.6465 3 2.10083e-05 -4.10638
11471 1 8.57448 52.5565 30.3147 3 1.7502e-05 -4.10649
11472 1 11.1487 52.5528 30.3158 3 2.9395e-05 -4.10614
11473 1 10.2905 52.5542 27.9841 3 2.49661e-05 -4.10626
11474 1 12.8655 52.5494 27.9846 3 3.9559e-05 -4.10589
11475 1 12.007 52.5512 25.6532 3 3.4272e-05 -4.10602
11476 1 14.5827 52.5451 25.6531 3 5.10436e-05 -4.10567
11477 1 13.7241 52.5474 23.3219 3 4.51907e-05 -4.10578
11478 1 16.3003 52.5398 23.321 3 6.287e-05 -4.1055
11479 1 15.4415 52.5426 20.99 3 5.69808e-05 -4.10558
11480 1 18.0178 52.5334 20.9884 3 7.36589e-05 -4.10544
11481 1 17.159 52.5367 18.6577 3 6.85232e-05 -4.10546
11482 1 19.7349 52.5261 18.6556 3 8.14801e-05 -4.10551
11483 1 18.8764 52.5298 16.325 3 7.80759e-05 -4.10546
11484 1 21.4511 52.5182 16.3225 3 8.37444e-05 -4.10571
11485 1 20.5931 52.5222 13.992 3 8.34656e-05 -4.1056
11486 1 23.166 52.5103 13.9896 3 7.90727e-05 -4.106
11487 1 22.3087 52.5142 11.659 3 8.22461e-05 -4.10584
11488 1 24.8793 52.5027 11.6569 3 6.84997e-05 -4.10633
11489 1 24.0229 52.5064 9.32614 3 7.43575e-05 -4.10616
11490 1 26.5911 52.496 9.32477 3 5.46001e-05 -4.10665
11491 1 25.7354 52.4992 6.99374 3 6.17394e-05 -4.10649
11492 1 28.3014 52.4906 6.99317 3 4.06068e-05 -4.10692
11493 1 27.4464 52.4931 4.66186 3 4.73203e-05 -4.10679
11494 1 30.0106 52.4871 4.66204 3 2.98991e-05 -4.1071
11495 1 29.1561 52.4886 2.33051 3 3.46489e-05 -4.10702
11496 1 31.7191 52.4855 2.33121 3 2.48604e-05 -4.10718
11497 1 30.8649 52.486 48.9582 3 2.65644e-05 -4.10715
11498 1 33.4275 52.486 0.000445475 3 2.65644e-05 -4.10715
11499 1 0.856718 50.563 47.794 3 5.78117e-06 -4.10746
11500 1 64.2924 50.5631 45.4616 3 5.63395e-06 -4.10747
11501 1 2.57022 50.5627 45.4646 3 6.95854e-06 -4.10741
11502 1 1.71345 50.5629 43.1322 3 6.22142e-06 -4.10744
11503 1 4.28392 50.562 43.1352 3 9.34806e-06 -4.10729
11504 1 3.42704 50.5624 40.8029 3 8.00006e-06 -4.10736
11505 1 5.99796 50.5609 40.8056 3 1.30822e-05 -4.10712
11506 1 5.14089 50.5615 38.4734 3 1.10349e-05 -4.10721
11507 1 7.71245 50.5592 38.4758 3 1.83377e-05 -4.1069
11508 1 6.85514 50.5601 36.1437 3 1.55084e-05 -4.10701
11509 1 9.42752 50.5569 36.1457 3 2.53059e-05 -4.10662
11510 1 8.56991 50.5581 33.8138 3 2.15863e-05 -4.10677
11511 1 11.1433 50.5538 33.8153 3 3.42973e-05 -4.10631
11512 1 10.2853 50.5555 31.4835 3 2.95545e-05 -4.10647
11513 1 12.8597 50.5497 31.4844 3 4.53321e-05 -4.10598
11514 1 12.0014 50.5519 29.1528 3 3.95353e-05 -4.10615
11515 1 14.5769 50.5443 29.1529 3 5.80676e-05 -4.10565
11516 1 13.7182 50.5472 26.8217 3 5.15444e-05 -4.10581
11517 1 16.2947 50.5375 26.8209 3 7.16393e-05 -4.10535
11518 1 15.4357 50.5411 24.49 3 6.48546e-05 -4.10549
11519 1 18.0128 50.5291 24.4883 3 8.43955e-05 -4.10515
11520 1 17.1537 50.5335 22.1576 3 7.81961e-05 -4.10524
11521 1 19.7309 50.5193 22.1551 3 9.56053e-05 -4.10512
11522 1 18.8719 50.5244 19.8247 3 9.02979e-05 -4.10511
11523 1 21.4484 50.5084 19.8216 3 0.000103351 -4.10527
11524 1 20.5898 50.5139 17.4913 3 0.000100003 -4.10517
11525 1 23.1644 50.497 17.4881 3 0.000104207 -4.10558
11526 1 22.3066 50.5027 15.1578 3 0.00010485 -4.10541
11527 1 24.8787 50.486 15.1549 3 9.6766e-05 -4.10598
11528 1 24.0218 50.4914 12.8244 3 0.000101376 -4.10578
11529 1 26.5911 50.4761 12.8223 3 8.40064e-05 -4.1064
11530 1 25.7352 50.4809 10.4915 3 9.09351e-05 -4.10619
11531 1 28.3017 50.4682 10.4904 3 6.93604e-05 -4.10675
11532 1 27.4466 50.4719 8.1592 3 7.66996e-05 -4.10659
11533 1 30.0108 50.4629 8.15911 3 5.71964e-05 -4.107
11534 1 29.1564 50.4652 5.82763 3 6.27116e-05 -4.10689
11535 1 31.7192 50.4605 5.82825 3 5.12749e-05 -4.10711
11536 1 30.8651 50.4613 3.49661 3 5.33065e-05 -4.10707
11537 1 33.4273 50.4613 3.49748 3 5.33065e-05 -4.10707
11538 1 32.5732 50.4605 1.16584 3 5.12749e-05 -4.10711
11539 1 35.136 50.4652 1.16645 3 6.27116e-05 -4.10689
11540 1 1.71192 48.5645 46.6296 3 1.0833e-05 -4.10804
11541 1 4.28013 48.5635 46.6331 3 1.42836e-05 -4.10787
11542 1 3.42399 48.5639 44.3006 3 1.27857e-05 -4.10795
11543 1 5.99272 48.5623 44.3039 3 1.84348e-05 -4.10768
11544 1 5.13637 48.563 41.9715 3 1.61641e-05 -4.10778
11545 1 7.70583 48.5605 41.9744 3 2.42822e-05 -4.10742
11546 1 6.8492 48.5615 39.6421 3 2.11128e-05 -4.10755
11547 1 9.41963 48.558 39.6447 3 3.21178e-05 -4.10709
11548 1 8.56264 48.5594 37.3125 3 2.79348e-05 -4.10726
11549 1 11.1342 48.5546 37.3146 3 4.23927e-05 -4.10672
11550 1 10.2768 48.5564 34.9826 3 3.69292e-05 -4.10691
11551 1 12.8498 48.55 34.984 3 5.5309e-05 -4.10629
11552 1 11.9919 48.5524 32.6523 3 4.84785e-05 -4.10651
11553 1 14.5663 48.5439 32.6528 3 7.1026e-05 -4.10583
11554 1 13.7079 48.5471 30.3214 3 6.28605e-05 -4.10606
11555 1 16.2839 48.5359 30.321 3 8.8415e-05 -4.10536
11556 1 15.425 48.5401 27.99 3 7.96234e-05 -4.10559
11557 1 18.0024 48.526 27.9885 3 0.000105127 -4.10495
11558 1 17.143 48.5312 25.6578 3 9.70858e-05 -4.10514
11559 1 19.7214 48.5138 25.6552 3 0.000119477 -4.10468
11560 1 18.8618 48.5201 23.3249 3 0.000112472 -4.10479
11561 1 21.4403 48.4998 23.3214 3 0.000132987 -4.10466
11562 1 20.5809 48.507 20.9913 3 0.000126257 -4.10464
11563 1 23.1582 48.4848 20.9874 3 0.000143575 -4.10489
11564 1 22.2994 48.4924 18.6573 3 0.000139127 -4.10475
11565 1 24.8743 48.4699 18.6536 3 0.000143716 -4.10529
11566 1 24.0165 48.4772 16.3233 3 0.000145168 -4.10508
11567 1 26.5882 48.4563 16.3204 3 0.000135718 -4.10576
11568 1 25.7316 48.4629 13.9898 3 0.000140372 -4.10553
11569 1 28.3 48.4453 13.988 3 0.000123208 -4.1062
11570 1 27.4444 48.4504 11.657 3 0.00012986 -4.10599
11571 1 30.0101 48.4378 11.6564 3 0.000110689 -4.10652
11572 1 29.1552 48.4411 9.32506 3 0.000116495 -4.10638
11573 1 31.719 48.4345 9.32534 3 0.000103859 -4.10666
11574 1 30.8646 48.4356 6.99378 3 0.000106248 -4.10661
11575 1 33.4278 48.4356 6.9944 3 0.000106248 -4.10661
11576 1 32.5734 48.4345 4.66284 3 0.000103859 -4.10666
11577 1 35.1372 48.4411 4.66312 3 0.000116495 -4.10638
11578 1 34.2823 48.4378 2.33179 3 0.000110689 -4.10652
11579 1 36.848 48.4504 2.33116 3 0.00012986 -4.10599
11580 1 35.9924 48.4453 0.00019701 3 0.000123208 -4.1062
11581 1 38.5608 48.4629 48.957 3 0.000140372 -4.10553
11582 1 3.41986 46.5644 47.7982 3 1.93806e-05 -4.10874
11583 1 5.98556 46.5628 47.8018 3 2.57534e-05 -4.10844
11584 1 5.13021 46.5634 45.4693 3 2.31807e-05 -4.10856
11585 1 7.69673 46.561 45.4727 3 3.24265e-05 -4.10815
11586 1 6.84106 46.5619 43.1402 3 2.8816e-05 -4.10831
11587 1 9.40866 46.5584 43.1432 3 4.14914e-05 -4.10779
11588 1 8.55259 46.5598 40.8109 3 3.66203e-05 -4.10798
11589 1 11.1215 46.5548 40.8135 3 5.35734e-05 -4.10735
11590 1 10.265 46.5568 38.4814 3 4.71272e-05 -4.10758
11591 1 12.8355 46.55 38.4833 3 6.94899e-05 -4.10683
11592 1 11.9784 46.5526 36.1514 3 6.10093e-05 -4.1071
11593 1 14.5508 46.5435 36.1525 3 8.98417e-05 -4.10624
11594 1 13.693 46.547 33.8209 3 7.90868e-05 -4.10655
11595 1 16.2675 46.5349 33.8211 3 0.000114647 -4.10559
11596 1 15.409 46.5395 31.4898 3 0.000101775 -4.10592
11597 1 17.9857 46.5238 31.4889 3 0.000141292 -4.10492
11598 1 17.1264 46.5297 29.158 3 0.000128135 -4.10526
11599 1 19.7053 46.5098 29.1558 3 0.000162836 -4.10431
11600 1 18.8454 46.5172 26.8254 3 0.000153068 -4.1046
11601 1 21.4258 46.493 26.8218 3 0.00018036 -4.10394
11602 1 20.5655 46.5017 24.4919 3 0.000171451 -4.10408
11603 1 23.1461 46.4742 24.4874 3 0.000203648 -4.10391
11604 1 22.2861 46.4838 22.1576 3 0.000191148 -4.10387
11605 1 24.865 46.455 22.1529 3 0.000222515 -4.1042
11606 1 24.0058 46.4645 19.8231 3 0.000215458 -4.10402
11607 1 26.5817 46.4371 19.819 3 0.000223329 -4.10465
11608 1 25.7236 46.4458 17.4889 3 0.000223842 -4.10441
11609 1 28.2958 46.4223 17.486 3 0.000220441 -4.10515
11610 1 27.439 46.4292 15.1554 3 0.000222862 -4.1049
11611 1 30.0079 46.4121 15.1539 3 0.000210066 -4.10553
11612 1 29.1521 46.4165 12.8228 3 0.000215832 -4.10536
11613 1 31.7186 46.4075 12.8225 3 0.000202598 -4.10571
11614 1 30.8634 46.409 10.4911 3 0.000205374 -4.10565
11615 1 33.429 46.409 10.4912 3 0.000205374 -4.10565
11616 1 32.5738 46.4075 8.1598 3 0.000202598 -4.10571
11617 1 35.1403 46.4165 8.15946 3 0.000215832 -4.10536
11618 1 34.2845 46.4121 5.82836 3 0.000210066 -4.10553
11619 1 36.8533 46.4292 5.8269 3 0.000222862 -4.1049
11620 1 35.9965 46.4223 3.49625 3 0.000220441 -4.10515
11621 1 38.5687 46.4458 3.49341 3 0.000223842 -4.10441
11622 1 37.7107 46.4371 1.16322 3 0.000223329 -4.10465
11623 1 40.2866 46.4645 1.1592 3 0.000215458 -4.10402
11624 1 6.83063 44.5611 46.6379 3 3.89599e-05 -4.10927
11625 1 9.39448 44.5577 46.6412 3 5.38302e-05 -4.1087
11626 1 8.53964 44.5591 44.3088 3 4.81043e-05 -4.10891
11627 1 11.105 44.5542 44.3118 3 6.82774e-05 -4.10821
11628 1 10.2496 44.5561 41.9795 3 6.04978e-05 -4.10847
11629 1 12.8167 44.5494 41.9819 3 8.78852e-05 -4.10762
11630 1 11.9607 44.552 39.6498 3 7.73617e-05 -4.10793
11631 1 14.53 44.5428 39.6516 3 0.000114335 -4.10692
11632 1 13.6732 44.5464 37.3198 3 0.000100116 -4.10729
11633 1 16.2451 44.534 37.3206 3 0.000149442 -4.10611
11634 1 15.3873 44.5387 34.9891 3 0.000130694 -4.10653
11635 1 17.9622 44.5224 34.9889 3 0.000194065 -4.10517
11636 1 17.1034 44.5286 32.6578 3 0.000170679 -4.10565
11637 1 19.6816 44.5074 32.6562 3 0.000239108 -4.10415
11638 1 18.8216 44.5154 30.3256 3 0.000217854 -4.10467
11639 1 21.4033 44.4885 30.3225 3 0.000265741 -4.10323
11640 1 20.5422 44.4984 27.9925 3 0.000254382 -4.10366
11641 1 23.1263 44.4661 27.9879 3 0.000295317 -4.10269
11642 1 22.2647 44.4776 25.6583 3 0.00027754 -4.10291
11643 1 24.849 44.4421 25.6529 3 0.000351638 -4.10263
11644 1 23.9878 44.4542 23.3234 3 0.000321394 -4.1026
11645 1 26.5698 44.4192 23.3183 3 0.000378308 -4.10293
11646 1 25.7097 44.4303 20.9885 3 0.00037268 -4.10277
11647 1 28.288 44.3997 20.9845 3 0.000392975 -4.10335
11648 1 27.4293 44.4089 18.6543 3 0.00038288 -4.10312
11649 1 30.0038 44.3861 18.6517 3 0.000400711 -4.10381
11650 1 29.1462 44.3921 16.3209 3 0.000400339 -4.1036
11651 1 31.7178 44.3799 16.3197 3 0.000394144 -4.10404
11652 1 30.8609 44.382 13.9886 3 0.000396516 -4.10396
11653 1 33.4314 44.382 13.9878 3 0.000396516 -4.10396
11654 1 32.5746 44.3799 11.6567 3 0.000394144 -4.10404
11655 1 35.1462 44.3921 11.6554 3 0.000400339 -4.1036
11656 1 34.2886 44.3861 9.32466 3 0.000400711 -4.10381
11657 1 36.8631 44.4089 9.32208 3 0.00038288 -4.10312
11658 1 36.0043 44.3997 6.99183 3 0.000392975 -4.10335
11659 1 38.5826 44.4303 6.98786 3 0.00037268 -4.10277
11660 1 37.7226 44.4192 4.65803 3 0.000378308 -4.10293
11661 1 40.3046 44.4542 4.65296 3 0.000321394 -4.1026
11662 1 39.4434 44.4421 2.32341 3 0.000351638 -4.10263
11663 1 42.0277 44.4776 2.31808 3 0.00027754 -4.10291
11664 1 41.1661 44.4661 48.947 3 0.000295317 -4.10269
11665 1 43.7502 44.4984 48.9425 3 0.000254382 -4.10366
11666 1 8.52365 42.5568 47.8059 3 6.28703e-05 -4.11006
11667 1 11.0844 42.5523 47.8092 3 8.71759e-05 -4.10931
11668 1 10.2305 42.5541 45.4768 3 7.77779e-05 -4.10959
11669 1 12.7932 42.5478 45.4796 3 0.000111213 -4.10866
11670 1 11.9386 42.5502 43.1474 3 9.82295e-05 -4.109
11671 1 14.5037 42.5415 43.1496 3 0.000144591 -4.10788
11672 1 13.6482 42.5449 40.8176 3 0.000126503 -4.10829
11673 1 16.2162 42.5329 40.8191 3 0.000191662 -4.10693
11674 1 15.3596 42.5375 38.4874 3 0.000166097 -4.10743
11675 1 17.9312 42.5214 38.488 3 0.000258139 -4.10578
11676 1 17.0734 42.5276 36.1566 3 0.000222109 -4.10638
11677 1 19.6493 42.5061 36.1559 3 0.000348477 -4.10439
11678 1 18.7898 42.5143 33.825 3 0.000300849 -4.10512
11679 1 21.3708 42.4862 33.8228 3 0.00042324 -4.10279
11680 1 20.5096 42.4968 31.4925 3 0.000393942 -4.10359
11681 1 23.096 42.4611 31.4884 3 0.000450511 -4.10145
11682 1 22.233 42.4743 29.1587 3 0.000438746 -4.10206
11683 1 24.8233 42.4324 29.1532 3 0.000529361 -4.10061
11684 1 23.9595 42.4471 26.8239 3 0.000477406 -4.10095
11685 1 26.5501 42.4036 26.8179 3 0.000666688 -4.10046
11686 1 25.6869 42.4177 24.4885 3 0.000607066 -4.10044
11687 1 28.2745 42.3787 24.4834 3 0.000686635 -4.10053
11688 1 27.4126 42.3905 22.1535 3 0.000677918 -4.10047
11689 1 29.9965 42.3605 22.1498 3 0.000772711 -4.10088
11690 1 29.1358 42.3686 19.8195 3 0.000727556 -4.10066
11691 1 31.7164 42.3521 19.8169 3 0.000798772 -4.10116
11692 1 30.8566 42.355 17.4862 3 0.000797129 -4.10107
11693 1 33.4358 42.355 17.4842 3 0.000797129 -4.10107
11694 1 32.576 42.3521 15.1535 3 0.000798772 -4.10116
11695 1 35.1566 42.3686 15.151 3 0.000727556 -4.10066
11696 1 34.2959 42.3605 12.8207 3 0.000772711 -4.10088
11697 1 36.8798 42.3905 12.8169 3 0.000677918 -4.10047
11698 1 36.0179 42.3787 10.487 3 0.000686635 -4.10053
11699 1 38.6055 42.4177 10.482 3 0.000607066 -4.10044
11700 1 37.7423 42.4036 8.15252 3 0.000666688 -4.10046
11701 1 40.3329 42.4471 8.14659 3 0.000477406 -4.10095
11702 1 39.4691 42.4324 5.81721 3 0.000529361 -4.10061
11703 1 42.0594 42.4743 5.81172 3 0.000438746 -4.10206
11704 1 41.1964 42.4611 3.48201 3 0.000450511 -4.10145
11705 1 43.7828 42.4968 3.47796 3 0.000393942 -4.10359
11706 1 42.9215 42.4862 1.14763 3 0.00042324 -4.10279
11707 1 45.5025 42.5143 1.14542 3 0.000300849 -4.10512
11708 1 11.9117 40.5468 46.6436 3 0.000124584 -4.11031
11709 1 14.4712 40.5389 46.6461 3 0.000182154 -4.10912
11710 1 13.6175 40.542 44.314 3 0.00015952 -4.10956
11711 1 16.1802 40.5309 44.316 3 0.000241917 -4.10809
11712 1 15.3254 40.5352 41.9841 3 0.000209224 -4.10863
11713 1 17.892 40.5201 41.9854 3 0.000330859 -4.10679
11714 1 17.0357 40.5259 39.6538 3 0.000281858 -4.10748
11715 1 19.6072 40.5054 39.654 3 0.000470604 -4.10512
11716 1 18.7491 40.5133 37.3228 3 0.000391777 -4.10601
11717 1 21.3269 40.4858 37.3217 3 0.000674869 -4.10288
11718 1 20.4665 40.4963 34.9909 3 0.000568832 -4.10409
11719 1 23.0524 40.4595 34.9879 3 0.0007533 -4.10038
11720 1 22.1889 40.4736 32.658 3 0.000739321 -4.1016
11721 1 24.7835 40.427 32.6529 3 0.000755249 -4.09835
11722 1 23.9174 40.4438 30.3235 3 0.000740759 -4.09934
11723 1 26.518 40.392 30.3173 3 0.00102093 -4.097
11724 1 25.6506 40.4095 27.9881 3 0.000834341 -4.09754
11725 1 28.2517 40.3604 27.9823 3 0.00123587 -4.0965
11726 1 27.3853 40.3753 25.6525 3 0.00120617 -4.09682
11727 1 29.9833 40.337 25.6482 3 0.00140882 -4.09595
11728 1 29.1177 40.3475 23.3181 3 0.00125765 -4.09618
11729 1 31.7138 40.3255 23.3142 3 0.00174833 -4.0961
11730 1 30.8487 40.3294 20.9841 3 0.00161514 -4.096
11731 1 33.4437 40.3294 20.9804 3 0.00161514 -4.096
11732 1 32.5786 40.3255 18.6503 3 0.00174833 -4.0961
11733 1 35.1747 40.3475 18.6464 3 0.00125765 -4.09618
11734 1 34.309 40.337 16.3164 3 0.00140882 -4.09595
11735 1 36.9071 40.3753 16.312 3 0.00120617 -4.09682
11736 1 36.0407 40.3604 13.9823 3 0.00123587 -4.0965
11737 1 38.6418 40.4095 13.9765 3 0.000834341 -4.09754
11738 1 37.7744 40.392 11.6472 3 0.00102093 -4.097
11739 1 40.375 40.4438 11.6411 3 0.000740759 -4.09934
11740 1 39.5088 40.427 9.31165 3 0.000755249 -4.09835
11741 1 42.1035 40.4736 9.30657 3 0.000739321 -4.1016
11742 1 41.24 40.4595 6.9766 3 0.0007533 -4.10038
11743 1 43.8259 40.4963 6.9736 3 0.000568832 -4.10409
11744 1 42.9655 40.4858 4.64286 3 0.000674869 -4.10288
11745 1 45.5433 40.5133 4.64176 3 0.000391777 -4.10601
11746 1 44.6851 40.5054 2.31051 3 0.000470604 -4.10512
11747 1 47.2567 40.5259 2.31079 3 0.000281858 -4.10748
11748 1 46.4004 40.5201 48.9378 3 0.000330859 -4.10679
11749 1 48.967 40.5352 48.9391 3 0.000209224 -4.10863
11750 1 13.5808 38.5371 47.8084 3 0.000200182 -4.11108
11751 1 16.1365 38.5274 47.8106 3 0.000304374 -4.10957
11752 1 15.284 38.5312 45.4786 3 0.000262943 -4.11013
11753 1 17.8436 38.5177 45.4803 3 0.000418448 -4.10821
11754 1 16.9896 38.523 43.1485 3 0.000355448 -4.10893
11755 1 19.5545 38.5044 43.1495 3 0.000601529 -4.10638
11756 1 18.6986 38.5116 40.8179 3 0.000497936 -4.10738
11757 1 21.2704 38.4862 40.8178 3 0.000956126 -4.10379
11758 1 20.4117 38.496 38.4867 3 0.000745357 -4.10521
11759 1 22.9931 38.461 38.4851 3 0.00140074 -4.09991
11760 1 22.1306 38.4747 36.1546 3 0.00123353 -4.10194
11761 1 24.7265 38.4263 36.1506 3 0.00134931 -4.09617
11762 1 23.8584 38.4448 33.8211 3 0.00142618 -4.09789
11763 1 26.4684 38.3862 33.8153 3 0.00138854 -4.09254
11764 1 25.5966 38.4067 31.486 3 0.00134237 -4.0943
11765 1 28.2147 38.3464 31.4798 3 0.0022478 -4.09076
11766 1 27.3412 38.3657 29.1506 3 0.0017486 -4.09123
11767 1 29.9602 38.3177 29.146 3 0.00244152 -4.08852
11768 1 29.0873 38.3306 26.8158 3 0.00233031 -4.08967
11769 1 31.7086 38.3031 26.8116 3 0.00352126 -4.08753
11770 1 30.834 38.3084 24.4819 3 0.00293151 -4.08757
11771 1 33.4583 38.3084 24.4767 3 0.00293151 -4.08757
11772 1 32.5838 38.3031 22.147 3 0.00352126 -4.08753
11773 1 35.2051 38.3306 22.1428 3 0.00233031 -4.08967
11774 1 34.3321 38.3177 19.8126 3 0.00244152 -4.08852
11775 1 36.9511 38.3657 19.8081 3 0.0017486 -4.09123
11776 1 36.0777 38.3464 17.4789 3 0.0022478 -4.09076
11777 1 38.6958 38.4067 17.4726 3 0.00134237 -4.0943
11778 1 37.824 38.3862 15.1433 3 0.00138854 -4.09254
11779 1 40.434 38.4448 15.1375 3 0.00142618 -4.09789
11780 1 39.5659 38.4263 12.808 3 0.00134931 -4.09617
11781 1 42.1618 38.4747 12.804 3 0.00123353 -4.10194
11782 1 41.2992 38.461 10.4735 3 0.00140074 -4.09991
11783 1 43.8807 38.496 10.4719 3 0.000745357 -4.10521
11784 1 43.022 38.4862 8.14079 3 0.000956126 -4.10379
11785 1 45.5938 38.5116 8.14071 3 0.000497936 -4.10738
11786 1 44.7379 38.5044 5.80915 3 0.000601529 -4.10638
11787 1 47.3027 38.523 5.81016 3 0.000355448 -4.10893
11788 1 46.4487 38.5177 3.47832 3 0.000418448 -4.10821
11789 1 49.0084 38.5312 3.48006 3 0.000262943 -4.11013
11790 1 48.1559 38.5274 1.14802 3 0.000304374 -4.10957
11791 1 50.7115 38.5371 1.15023 3 0.000200182 -4.11108
11792 1 16.9343 36.5178 46.6399 3 0.000448906 -4.11076
11793 1 19.4898 36.502 46.641 3 0.00077966 -4.10821
11794 1 18.6369 36.5081 44.3094 3 0.000641136 -4.10919
11795 1 21.1995 36.4861 44.3098 3 0.00124811 -4.10542
11796 1 20.3438 36.4947 41.9784 3 0.000962799 -4.10695
11797 1 22.9163 36.4641 41.9778 3 0.00251009 -4.10069
11798 1 22.0569 36.4759 39.6468 3 0.00172688 -4.10345
11799 1 24.6474 36.4312 39.6447 3 0.00321826 -4.09408
11800 1 23.7795 36.4493 37.3144 3 0.00306559 -4.09744
11801 1 26.3958 36.3874 37.31 3 0.00318988 -4.08774
11802 1 25.5201 36.4098 34.98 3 0.00308206 -4.0913
11803 1 28.1566 36.341 34.9759 3 0.00417114 -4.08046
11804 1 27.2748 36.3642 32.646 3 0.00319715 -4.08379
11805 1 29.9249 36.3051 32.6417 3 0.00609461 -4.07857
11806 1 29.0408 36.3193 30.3106 3 0.00590725 -4.08035
11807 1 31.7006 36.2915 30.309 3 0.00557803 -4.07038
11808 1 30.8112 36.2955 27.9792 3 0.00589158 -4.07495
11809 1 33.4811 36.2955 27.9735 3 0.00589158 -4.07495
11810 1 32.5918 36.2915 25.6437 3 0.00557803 -4.07038
11811 1 35.2516 36.3193 25.6421 3 0.00590725 -4.08035
11812 1 34.3675 36.3051 23.311 3 0.00609461 -4.07857
11813 1 37.0176 36.3642 23.3068 3 0.00319715 -4.08379
11814 1 36.1358 36.341 20.9769 3 0.00417114 -4.08046
11815 1 38.7722 36.4098 20.9727 3 0.00308206 -4.0913
11816 1 37.8966 36.3874 18.6427 3 0.00318988 -4.08774
11817 1 40.5129 36.4493 18.6383 3 0.00306559 -4.09744
11818 1 39.645 36.4312 16.3081 3 0.00321826 -4.09408
11819 1 42.2355 36.4759 16.3059 3 0.00172688 -4.10345
11820 1 41.3761 36.4641 13.9749 3 0.00251009 -4.10069
11821 1 43.9485 36.4947 13.9743 3 0.000962799 -4.10695
11822 1 43.0929 36.4861 11.6429 3 0.00124811 -4.10542
11823 1 45.6554 36.5081 11.6433 3 0.000641136 -4.10919
11824 1 44.8026 36.502 9.31171 3 0.00077966 -4.10821
11825 1 47.3581 36.5178 9.31283 3 0.000448906 -4.11076
11826 1 46.5073 36.5134 6.981 3 0.000533808 -4.11003
11827 1 49.0577 36.5247 6.98255 3 0.00032674 -4.11193
11828 1 48.2082 36.5215 4.65062 3 0.000381385 -4.11138
11829 1 50.7548 36.5295 4.6524 3 0.000245275 -4.11284
11830 1 49.9065 36.5273 2.32042 3 0.00028186 -4.11242
11831 1 52.4501 36.5328 2.32231 3 0.000190284 -4.11357
11832 1 51.6027 36.5313 48.9489 3 0.000215238 -4.11322
11833 1 54.144 36.535 48.9509 3 0.000152629 -4.11414
11834 1 18.5628 34.5017 47.7959 3 0.00082256 -4.11151
11835 1 21.1115 34.484 47.7955 3 0.00171058 -4.10786
11836 1 20.2607 34.4908 45.4644 3 0.00131102 -4.10947
11837 1 22.8192 34.4661 45.4628 3 0.00352723 -4.10307
11838 1 21.9642 34.4759 43.1323 3 0.00235013 -4.10581
11839 1 24.5395 34.4403 43.1297 3 0.00816224 -4.09364
11840 1 23.6764 34.4548 40.7993 3 0.00592012 -4.09891
11841 1 26.2903 34.396 40.7954 3 0.0105301 -4.0821
11842 1 25.4104 34.4208 38.4661 3 0.0097437 -4.08763
11843 1 28.0656 34.3478 38.4651 3 0.0138828 -4.06229
11844 1 27.1743 34.3716 36.1324 3 0.0124144 -4.0745
11845 1 29.8721 34.3014 36.1305 3 0.0265573 -4.04467
11846 1 28.9651 34.3246 33.8036 3 0.0181084 -4.04794
11847 1 31.6902 34.2996 33.8005 3 0.00450936 -4.04392
11848 1 30.7788 34.2971 31.4658 3 0.0167218 -4.04061
11849 1 33.5136 34.2971 31.481 3 0.0167218 -4.04061
11850 1 32.6022 34.2996 29.1463 3 0.00450936 -4.04392
11851 1 35.3273 34.3246 29.1432 3 0.0181084 -4.04794
11852 1 34.4203 34.3014 26.8163 3 0.0265573 -4.04467
11853 1 37.1181 34.3716 26.8144 3 0.0124144 -4.0745
11854 1 36.2268 34.3478 24.4817 3 0.0138828 -4.06229
11855 1 38.882 34.4208 24.4807 3 0.0097437 -4.08763
11856 1 38.002 34.396 22.1514 3 0.0105301 -4.0821
11857 1 40.616 34.4548 22.1475 3 0.00592012 -4.09891
11858 1 39.7529 34.4403 19.8171 3 0.00816224 -4.09364
11859 1 42.3282 34.4759 19.8145 3 0.00235013 -4.10581
11860 1 41.4732 34.4661 17.484 3 0.00352723 -4.10307
11861 1 44.0316 34.4908 17.4825 3 0.00131102 -4.10947
11862 1 43.1809 34.484 15.1513 3 0.00171058 -4.10786
11863 1 45.7296 34.5017 15.1509 3 0.00082256 -4.11151
11864 1 44.8812 34.4967 12.8195 3 0.0010314 -4.11059
11865 1 47.4237 34.5094 12.8196 3 0.000544517 -4.11294
11866 1 46.577 34.5058 10.4882 3 0.000662642 -4.11231
11867 1 49.1152 34.5148 10.4885 3 0.000379088 -4.114
11868 1 48.2698 34.5123 8.15698 3 0.000452612 -4.1135
11869 1 50.8048 34.5185 8.15738 3 0.000278421 -4.11479
11870 1 49.9602 34.5168 5.82587 3 0.000322982 -4.11441
11871 1 52.4929 34.521 5.82632 3 0.000213748 -4.11541
11872 1 51.649 34.5199 3.4948 3 0.000242188 -4.11512
11873 1 54.1801 34.5225 3.49526 3 0.000171836 -4.1159
11874 1 53.3366 34.5218 1.16374 3 0.000190723 -4.11567
11875 1 55.8664 34.5235 1.16419 3 0.000144167 -4.11628
11876 1 21.8474 32.4714 46.6082 3 0.00359885 -4.11056
11877 1 24.3931 32.4477 46.5987 3 0.0199622 -4.10077
11878 1 23.5428 32.4566 44.2711 3 0.00962052 -4.10511
11879 1 26.1203 32.4177 44.2587 3 5.44731 -4.08656
11880 1 25.2509 32.4359 41.9311 3 0.0366545 -4.09445
11881 1 27.9135 32.3699 41.923 5 4.98126 -4.05262
11882 1 27.0111 32.3907 39.5919 3 5.2658 -4.0762
11883 1 29.7822 32.3586 39.6087 5 4.33741 -4.00223
11884 1 28.8278 32.3602 37.264 5 4.64227 -4.02379
11885 1 31.6882 32.3221 37.2977 5 3.36755 -4.03647
11886 1 30.7596 32.3358 34.9516 5 4.29487 -4.01722
11887 1 33.5328 32.3358 34.9893 5 4.29487 -4.01722
11888 1 32.6042 32.3221 32.6432 5 3.36755 -4.03647
11889 1 35.4646 32.3602 32.6769 5 4.64227 -4.02379
11890 1 34.5102 32.3586 30.3322 5 4.33741 -4.00223
11891 1 37.2813 32.3907 30.349 3 5.2658 -4.0762
11892 1 36.3789 32.3699 28.0179 5 4.98126 -4.05262
11893 1 39.0415 32.4359 28.0098 3 0.0366545 -4.09445
11894 1 38.1721 32.4177 25.6822 3 5.44731 -4.08656
11895 1 40.7495 32.4566 25.6698 3 0.00962052 -4.10511
11896 1 39.8992 32.4477 23.3422 3 0.0199622 -4.10077
11897 1 42.445 32.4714 23.3327 3 0.00359885 -4.11056
11898 1 41.5986 32.4646 21.0037 3 0.00575021 -4.10828
11899 1 44.1328 32.4822 20.9978 3 0.00165626 -4.11302
11900 1 43.2892 32.477 18.6681 3 0.00232825 -4.11213
11901 1 45.8171 32.4902 18.6641 3 0.000870441 -4.11448
11902 1 44.9754 32.4865 16.3338 3 0.00118508 -4.11381
11903 1 47.4995 32.4961 16.3308 3 0.000543753 -4.11541
11904 1 46.6585 32.4934 14.0003 3 0.000686325 -4.11496
11905 1 49.1805 32.5002 13.9978 3 0.00037052 -4.11615
11906 1 48.3401 32.4983 11.6672 3 0.000439292 -4.11582
11907 1 50.8606 32.503 11.665 3 0.000271177 -4.11673
11908 1 50.0206 32.5017 9.33433 3 0.000314636 -4.11645
11909 1 52.5403 32.5048 9.33237 3 0.000213233 -4.11719
11910 1 51.7005 32.504 7.00162 3 0.00023953 -4.11697
11911 1 54.2196 32.5059 6.99984 3 0.000175519 -4.11756
11912 1 53.38 32.5054 4.66905 3 0.000192013 -4.11739
11913 1 55.8986 32.5065 4.6674 3 0.000150226 -4.11785
11914 1 55.0591 32.5063 2.33657 3 0.000161637 -4.11771
11915 1 57.5775 32.5068 2.33503 3 0.000133417 -4.11808
11916 1 56.7381 32.5067 0.00416176 3 0.000141077 -4.11797
11917 1 59.2563 32.5069 0.00270683 3 0.000122039 -4.11825
11918 1 0.857232 62.5896 33.8048 5 12.3402 -3.52387
11919 1 0 62.5896 31.4734 5 12.3402 -3.52387
11920 1 2.5717 62.5896 31.4734 5 12.3402 -3.52387
11921 1 1.71446 62.5896 29.142 5 12.3402 -3.52387
11922 1 4.28616 62.5896 29.142 5 12.3402 -3.52387
11923 1 3.42893 62.5896 26.8107 5 12.3402 -3.52387
11924 1 6.00062 62.5896 26.8107 5 12.3402 -3.52387
11925 1 5.14339 62.5896 24.4793 5 12.3402 -3.52387
11926 1 7.71509 62.5896 24.4793 5 12.3402 -3.52387
11927 1 6.85785 62.5896 22.1479 5 12.3402 -3.52387
11928 1 9.42955 62.5896 22.1479 5 12.3402 -3.52387
11929 1 8.57232 62.5896 19.8166 5 12.3402 -3.52387
11930 1 11.144 62.5896 19.8166 5 12.3402 -3.52387
11931 1 10.2868 62.5896 17.4852 5 12.3402 -3.52387
11932 1 12.8585 62.5896 17.4852 5 12.3402 -3.52387
11933 1 12.0012 62.5896 15.1539 5 12.3402 -3.52387
11934 1 14.5729 62.5896 15.1539 5 12.3402 -3.52387
11935 1 13.7157 62.5896 12.8225 5 12.3402 -3.52387
11936 1 16.2874 62.5896 12.8225 5 12.3402 -3.52387
11937 1 15.4302 62.5896 10.4911 5 12.3402 -3.52387
11938 1 18.0019 62.5896 10.4911 5 12.3402 -3.52387
11939 1 17.1446 62.5896 8.15977 5 12.3402 -3.52387
11940 1 19.7163 62.5896 8.15977 5 12.3402 -3.52387
11941 1 18.8591 62.5896 5.82841 5 12.3402 -3.52387
11942 1 21.4308 62.5896 5.82841 5 12.3402 -3.52387
11943 1 20.5736 62.5896 3.49704 5 12.3402 -3.52387
11944 1 23.1453 62.5896 3.49704 5 12.3402 -3.52387
11945 1 22.288 62.5896 1.16568 5 12.3402 -3.52387
11946 1 24.8597 62.5896 1.16568 5 12.3402 -3.52387
11947 1 0.857232 60.5706 37.3018 3 5.76e-18 -4.09064
11948 1 0 60.5706 34.9704 3 2.304e-17 -4.09064
11949 1 2.5717 60.5706 34.9704 3 4e-16 -4.09063
11950 1 1.71446 60.5706 32.6391 3 4.5376e-16 -4.09064
11951 1 4.28616 60.5706 32.6391 3 1e-16 -4.09062
11952 1 3.42893 60.5706 30.3077 3 1e-16 -4.09062
11953 1 6.00062 60.5706 30.3077 3 1e-16 -4.09059
11954 1 5.14339 60.5706 27.9764 3 1e-16 -4.09061
11955 1 7.71509 60.5706 27.9764 3 4e-16 -4.09056
11956 1 6.85785 60.5706 25.645 3 4e-16 -4.09058
11957 1 9.42955 60.5706 25.645 3 5.93223e-28 -4.09052
11958 1 8.57232 60.5706 23.3136 3 1e-16 -4.09054
11959 1 11.144 60.5706 23.3136 3 4e-16 -4.09046
11960 1 10.2868 60.5706 20.9823 3 9.99999e-17 -4.09049
11961 1 12.8585 60.5706 20.9823 3 1e-16 -4.0904
11962 1 12.0012 60.5706 18.6509 3 4e-16 -4.09043
11963 1 14.5729 60.5706 18.6509 3 1e-16 -4.09032
11964 1 13.7157 60.5706 16.3195 3 1e-16 -4.09036
11965 1 16.2874 60.5706 16.3195 3 4e-16 -4.09022
11966 1 15.4302 60.5706 13.9882 3 1e-16 -4.09027
11967 1 18.0019 60.5706 13.9882 3 1e-16 -4.09012
11968 1 17.1446 60.5706 11.6568 3 4e-16 -4.09017
11969 1 19.7163 60.5706 11.6568 3 1e-16 -4.09001
11970 1 18.8591 60.5706 9.32545 3 4.54384e-28 -4.09006
11971 1 21.4308 60.5706 9.32545 3 4e-16 -4.08989
11972 1 20.5736 60.5706 6.99409 3 3.99999e-16 -4.08995
11973 1 23.1453 60.5706 6.99409 3 4.03897e-28 -4.08978
11974 1 22.288 60.5706 4.66273 3 1e-16 -4.08984
11975 1 24.8597 60.5706 4.66273 3 4e-16 -4.08968
11976 1 24.0025 60.5706 2.33136 3 1e-16 -4.08973
11977 1 26.5742 60.5706 2.33136 3 9.99999e-17 -4.08959
11978 1 25.717 60.5706 0 3 4.0507e-16 -4.08964
11979 1 28.2886 60.5706 0 3 1.0507e-16 -4.08953
11980 1 0.857232 58.5516 40.7989 3 0.000989617 -4.10599
11981 1 0 58.5516 38.4675 3 0.00099079 -4.10599
11982 1 2.5717 58.5516 38.4675 3 0.000980179 -4.10598
11983 1 1.71446 58.5516 36.1361 3 0.000986078 -4.10599
11984 1 4.28616 58.5516 36.1361 3 0.000961107 -4.10597
11985 1 3.42893 58.5516 33.8048 3 0.00097187 -4.10598
11986 1 6.00062 58.5516 33.8048 3 0.00093209 -4.10595
11987 1 5.14339 58.5516 31.4734 3 0.000947848 -4.10596
11988 1 7.71509 58.5516 31.4734 3 0.00089312 -4.10592
11989 1 6.85785 58.5516 29.142 3 0.00091382 -4.10593
11990 1 9.42955 58.5516 29.142 3 0.000844684 -4.10589
11991 1 8.57232 58.5516 26.8107 3 0.000870029 -4.1059
11992 1 11.144 58.5516 26.8107 3 0.000787922 -4.10586
11993 1 10.2868 58.5516 24.4793 3 0.000817217 -4.10587
11994 1 12.8585 58.5516 24.4793 3 0.000724881 -4.10583
11995 1 12.0012 58.5516 22.1479 3 0.000757017 -4.10584
11996 1 14.5729 58.5516 22.1479 3 0.000658332 -4.1058
11997 1 13.7157 58.5516 19.8166 3 0.000691861 -4.10581
11998 1 16.2874 58.5516 19.8166 3 0.000591074 -4.10578
11999 1 15.4302 58.5516 17.4852 3 0.000624647 -4.10579
12000 1 18.0019 58.5516 17.4852 3 0.000524669 -4.10577
12001 1 17.1446 58.5516 15.1539 3 0.000557723 -4.10578
12002 1 19.7163 58.5516 15.1539 3 0.000458403 -4.10576
12003 1 18.8591 58.5516 12.8225 3 0.000491636 -4.10577
12004 1 21.4308 58.5516 12.8225 3 0.000389679 -4.10576
12005 1 20.5736 58.5516 10.4911 3 0.000424557 -4.10576
12006 1 23.1453 58.5516 10.4911 3 0.000315834 -4.10575
12007 1 22.288 58.5516 8.15977 3 0.000353488 -4.10575
12008 1 24.8597 58.5516 8.15977 3 0.000236862 -4.10575
12009 1 24.0025 58.5516 5.82841 3 0.000276842 -4.10575
12010 1 26.5742 58.5516 5.82841 3 0.000157252 -4.10574
12011 1 25.717 58.5516 3.49704 3 0.000196676 -4.10574
12012 1 28.2886 58.5516 3.49704 3 8.5703e-05 -4.10574
12013 1 27.4314 58.5516 1.16568 3 0.000119794 -4.10574
12014 1 30.0031 58.5516 1.16568 3 3.29962e-05 -4.10574
12015 1 0.857473 56.5548 44.2962 3 1.06806e-06 -4.10574
12016 1 64.2924 56.5548 41.9645 3 9.48043e-07 -4.10574
12017 1 2.57244 56.5547 41.9654 3 2.06606e-06 -4.10573
12018 1 1.71495 56.5548 39.6338 3 1.43672e-06 -4.10574
12019 1 4.28749 56.5544 39.6346 3 4.20208e-06 -4.1057
12020 1 3.42995 56.5546 37.303 3 2.97657e-06 -4.10572
12021 1 6.00264 56.554 37.3037 3 7.72884e-06 -4.10566
12022 1 5.14505 56.5542 34.9721 3 5.77088e-06 -4.10568
12023 1 7.71796 56.5534 34.9728 3 1.30196e-05 -4.10562
12024 1 6.86028 56.5537 32.6412 3 1.01318e-05 -4.10564
12025 1 9.43344 56.5526 32.6417 3 2.03596e-05 -4.10557
12026 1 8.57568 56.553 30.3102 3 1.64285e-05 -4.10559
12027 1 11.1491 56.5515 30.3105 3 2.9918e-05 -4.10552
12028 1 10.2913 56.5521 27.9791 3 2.4852e-05 -4.10554
12029 1 12.8649 56.5502 27.9792 3 4.12987e-05 -4.10547
12030 1 12.007 56.5509 25.6479 3 3.5419e-05 -4.10549
12031 1 14.5808 56.5487 25.6477 3 5.34402e-05 -4.10545
12032 1 13.7229 56.5495 23.3164 3 4.74132e-05 -4.10546
12033 1 16.2967 56.5468 23.316 3 6.4315e-05 -4.10546
12034 1 15.4388 56.5478 20.9848 3 5.91397e-05 -4.10545
12035 1 18.0124 56.5447 20.9842 3 7.15175e-05 -4.10551
12036 1 17.1546 56.5458 18.653 3 6.85784e-05 -4.10548
12037 1 19.7277 56.5425 18.6522 3 7.32526e-05 -4.10558
12038 1 18.8701 56.5436 16.3212 3 7.31499e-05 -4.10554
12039 1 21.4425 56.5402 16.3203 3 6.91736e-05 -4.10569
12040 1 20.5851 56.5413 13.9892 3 7.18433e-05 -4.10563
12041 1 23.1566 56.5379 13.9884 3 6.07179e-05 -4.1058
12042 1 22.2996 56.539 11.6573 3 6.5392e-05 -4.10574
12043 1 24.8701 56.5359 11.6566 3 4.99747e-05 -4.10592
12044 1 24.0134 56.5369 9.32545 3 5.54688e-05 -4.10586
12045 1 26.5829 56.5341 9.32506 3 3.9008e-05 -4.10603
12046 1 25.7266 56.5349 6.99378 3 4.43784e-05 -4.10598
12047 1 28.2951 56.5327 6.99367 3 2.97496e-05 -4.10612
12048 1 27.4391 56.5333 4.6623 3 3.40923e-05 -4.10608
12049 1 30.0068 56.5317 4.66244 3 2.33292e-05 -4.10618
12050 1 29.151 56.5321 2.33099 3 2.61152e-05 -4.10615
12051 1 31.7183 56.5313 2.3313 3 2.04271e-05 -4.10621
12052 1 30.8626 56.5315 48.9584 3 2.13988e-05 -4.1062
12053 1 33.4298 56.5315 0.000184346 3 2.13987e-05 -4.1062
12054 1 0.857472 54.5578 47.7935 3 1.17353e-06 -4.10689
12055 1 64.2924 54.5579 45.4616 3 1.0502e-06 -4.10689
12056 1 2.57246 54.5576 45.4633 3 2.17642e-06 -4.10685
12057 1 1.71495 54.5578 43.1313 3 1.54511e-06 -4.10688
12058 1 4.28757 54.5571 43.1329 3 4.27623e-06 -4.10678
12059 1 3.42999 54.5574 40.8011 3 3.08042e-06 -4.10682
12060 1 6.00289 54.5564 40.8025 3 7.66455e-06 -4.10667
12061 1 5.1452 54.5568 38.4707 3 5.79416e-06 -4.10673
12062 1 7.71848 54.5553 38.472 3 1.25246e-05 -4.10653
12063 1 6.86065 54.5559 36.1402 3 9.89856e-06 -4.1066
12064 1 9.43439 54.5539 36.1412 3 1.91666e-05 -4.10637
12065 1 8.57639 54.5547 33.8096 3 1.56108e-05 -4.10645
12066 1 11.1506 54.552 33.8103 3 2.76414e-05 -4.1062
12067 1 10.2925 54.553 31.4787 3 2.3151e-05 -4.10628
12068 1 12.8672 54.5496 31.479 3 3.78003e-05 -4.10602
12069 1 12.0089 54.5508 29.1476 3 3.2574e-05 -4.10611
12070 1 14.584 54.5465 29.1474 3 4.91134e-05 -4.10588
12071 1 13.7256 54.5481 26.8162 3 4.33513e-05 -4.10594
12072 1 16.3009 54.5429 26.8154 3 6.00846e-05 -4.10578
12073 1 15.4425 54.5448 24.4844 3 5.47837e-05 -4.10582
12074 1 18.0176 54.5386 24.4832 3 6.89167e-05 -4.10576
12075 1 17.1593 54.5408 22.1523 3 6.48974e-05 -4.10576
12076 1 19.7337 54.5339 22.1507 3 7.3189e-05 -4.10583
12077 1 18.8757 54.5363 19.8199 3 7.17161e-05 -4.10579
12078 1 21.4491 54.529 19.8182 3 7.15719e-05 -4.10597
12079 1 20.5915 54.5315 17.4874 3 7.31397e-05 -4.10589
12080 1 23.1634 54.524 17.4858 3 6.42053e-05 -4.10616
12081 1 22.3064 54.5265 15.1549 3 6.85282e-05 -4.10606
12082 1 24.8765 54.5194 15.1536 3 5.28765e-05 -4.10637
12083 1 24.0201 54.5217 12.8226 3 5.89024e-05 -4.10627
12084 1 26.5884 54.5154 12.8218 3 4.01072e-05 -4.10657
12085 1 25.7325 54.5173 10.4906 3 4.65067e-05 -4.10648
12086 1 28.2992 54.5122 10.4904 3 2.82602e-05 -4.10674
12087 1 27.4439 54.5137 8.15899 3 3.38936e-05 -4.10666
12088 1 30.0093 54.5101 8.15922 3 1.96384e-05 -4.10685
12089 1 29.1543 54.511 5.82771 3 2.34403e-05 -4.1068
12090 1 31.7188 54.5092 5.82829 3 1.5675e-05 -4.1069
12091 1 30.8641 54.5095 3.49669 3 1.70086e-05 -4.10688
12092 1 33.4283 54.5095 3.49739 3 1.70086e-05 -4.10688
12093 1 32.5736 54.5092 1.1658 3 1.5675e-05 -4.1069
12094 1 35.1381 54.511 1.16638 3 2.34402e-05 -4.1068
12095 1 1.71446 52.5606 46.6289 3 3.14933e-06 -4.10705
12096 1 4.28639 52.5598 46.6312 3 6.02882e-06 -4.10692
12097 1 3.42903 52.5601 44.2991 3 4.7783e-06 -4.10698
12098 1 6.00134 52.5588 44.3012 3 9.49839e-06 -4.10678
12099 1 5.14382 52.5593 41.9692 3 7.59679e-06 -4.10686
12100 1 7.71666 52.5574 41.971 3 1.44333e-05 -4.1066
12101 1 6.85894 52.5581 39.6391 3 1.17649e-05 -4.10669
12102 1 9.43243 52.5554 39.6406 3 2.10083e-05 -4.10638
12103 1 8.57448 52.5565 37.3088 3 1.7502e-05 -4.10649
12104 1 11.1487 52.5528 37.3099 3 2.9395e-05 -4.10614
12105 1 10.2905 52.5542 34.9782 3 2.49661e-05 -4.10626
12106 1 12.8655 52.5494 34.9787 3 3.9559e-05 -4.10589
12107 1 12.007 52.5512 32.6473 3 3.4272e-05 -4.10602
12108 1 14.5827 52.5451 32.6471 3 5.10436e-05 -4.10567
12109 1 13.7241 52.5474 30.316 3 4.51907e-05 -4.10578
12110 1 16.3003 52.5398 30.3151 3 6.287e-05 -4.1055
12111 1 15.4415 52.5426 27.9841 3 5.69808e-05 -4.10558
12112 1 18.0178 52.5334 27.9825 3 7.36589e-05 -4.10544
12113 1 17.159 52.5367 25.6518 3 6.85232e-05 -4.10546
12114 1 19.7349 52.5261 25.6496 3 8.14801e-05 -4.10551
12115 1 18.8764 52.5298 23.3191 3 7.80759e-05 -4.10546
12116 1 21.4511 52.5182 23.3166 3 8.37444e-05 -4.10571
12117 1 20.5931 52.5222 20.9861 3 8.34656e-05 -4.1056
12118 1 23.166 52.5103 20.9836 3 7.90727e-05 -4.106
12119 1 22.3087 52.5142 18.653 3 8.22461e-05 -4.10584
12120 1 24.8793 52.5027 18.651 3 6.84997e-05 -4.10633
12121 1 24.0229 52.5064 16.3202 3 7.43575e-05 -4.10616
12122 1 26.5911 52.496 16.3189 3 5.46001e-05 -4.10665
12123 1 25.7354 52.4992 13.9878 3 6.17394e-05 -4.10649
12124 1 28.3014 52.4906 13.9873 3 4.06068e-05 -4.10692
12125 1 27.4464 52.4931 11.6559 3 4.73203e-05 -4.10679
12126 1 30.0106 52.4871 11.6561 3 2.98991e-05 -4.1071
12127 1 29.1561 52.4886 9.3246 3 3.46489e-05 -4.10702
12128 1 31.7191 52.4855 9.3253 3 2.48604e-05 -4.10718
12129 1 30.8649 52.486 6.99364 3 2.65644e-05 -4.10715
12130 1 33.4275 52.486 6.99453 3 2.65644e-05 -4.10715
12131 1 32.5733 52.4855 4.66288 3 2.48604e-05 -4.10718
12132 1 35.1363 52.4886 4.66358 3 3.46489e-05 -4.10702
12133 1 34.2818 52.4871 2.33205 3 2.98991e-05 -4.1071
12134 1 36.846 52.4931 2.33223 3 4.73203e-05 -4.10679
12135 1 35.991 52.4906 0.000921951 3 4.06068e-05 -4.10692
12136 1 38.557 52.4992 0.000354293 3 6.17394e-05 -4.10649
12137 1 3.42704 50.5624 47.797 3 8.00006e-06 -4.10736
12138 1 5.99796 50.5609 47.7997 3 1.30822e-05 -4.10712
12139 1 5.14089 50.5615 45.4675 3 1.10349e-05 -4.10721
12140 1 7.71245 50.5592 45.4699 3 1.83377e-05 -4.1069
12141 1 6.85514 50.5601 43.1378 3 1.55084e-05 -4.10701
12142 1 9.42752 50.5569 43.1398 3 2.53059e-05 -4.10662
12143 1 8.56991 50.5581 40.8078 3 2.15863e-05 -4.10677
12144 1 11.1433 50.5538 40.8094 3 3.42973e-05 -4.10631
12145 1 10.2853 50.5555 38.4776 3 2.95545e-05 -4.10647
12146 1 12.8597 50.5497 38.4785 3 4.53321e-05 -4.10598
12147 1 12.0014 50.5519 36.1469 3 3.95353e-05 -4.10615
12148 1 14.5769 50.5443 36.147 3 5.80676e-05 -4.10565
12149 1 13.7182 50.5472 33.8158 3 5.15444e-05 -4.10581
12150 1 16.2947 50.5375 33.815 3 7.16393e-05 -4.10535
12151 1 15.4357 50.5411 31.4841 3 6.48546e-05 -4.10549
12152 1 18.0128 50.5291 31.4824 3 8.43955e-05 -4.10515
12153 1 17.1537 50.5335 29.1517 3 7.81961e-05 -4.10524
12154 1 19.7309 50.5193 29.1492 3 9.56053e-05 -4.10512
12155 1 18.8719 50.5244 26.8188 3 9.02979e-05 -4.10511
12156 1 21.4484 50.5084 26.8157 3 0.000103351 -4.10527
12157 1 20.5898 50.5139 24.4854 3 0.000100003 -4.10517
12158 1 23.1644 50.497 24.4822 3 0.000104207 -4.10558
12159 1 22.3066 50.5027 22.1519 3 0.00010485 -4.10541
12160 1 24.8787 50.486 22.149 3 9.6766e-05 -4.10598
12161 1 24.0218 50.4914 19.8185 3 0.000101376 -4.10578
12162 1 26.5911 50.4761 19.8164 3 8.40064e-05 -4.1064
12163 1 25.7352 50.4809 17.4855 3 9.09351e-05 -4.10619
12164 1 28.3017 50.4682 17.4845 3 6.93604e-05 -4.10675
12165 1 27.4466 50.4719 15.1533 3 7.66996e-05 -4.10659
12166 1 30.0108 50.4629 15.1532 3 5.71964e-05 -4.107
12167 1 29.1564 50.4652 12.8217 3 6.27116e-05 -4.10689
12168 1 31.7192 50.4605 12.8223 3 5.12749e-05 -4.10711
12169 1 30.8651 50.4613 10.4907 3 5.33065e-05 -4.10707
12170 1 33.4273 50.4613 10.4916 3 5.33065e-05 -4.10707
12171 1 32.5732 50.4605 8.15992 3 5.12749e-05 -4.10711
12172 1 35.136 50.4652 8.16054 3 6.27116e-05 -4.10689
12173 1 34.2815 50.4629 5.82907 3 5.71964e-05 -4.107
12174 1 36.8458 50.4719 5.82897 3 7.66996e-05 -4.10659
12175 1 35.9907 50.4682 3.4978 3 6.93604e-05 -4.10675
12176 1 38.5572 50.4809 3.49672 3 9.09351e-05 -4.10619
12177 1 37.7013 50.4761 1.16589 3 8.40064e-05 -4.1064
12178 1 40.2706 50.4914 1.1638 3 0.000101376 -4.10578
12179 1 6.8492 48.5615 46.6362 3 2.11128e-05 -4.10755
12180 1 9.41963 48.558 46.6388 3 3.21178e-05 -4.10709
12181 1 8.56264 48.5594 44.3066 3 2.79348e-05 -4.10726
12182 1 11.1342 48.5546 44.3086 3 4.23927e-05 -4.10672
12183 1 10.2768 48.5564 41.9767 3 3.69292e-05 -4.10691
12184 1 12.8498 48.55 41.9781 3 5.5309e-05 -4.10629
12185 1 11.9919 48.5524 39.6464 3 4.84785e-05 -4.10651
12186 1 14.5663 48.5439 39.6469 3 7.1026e-05 -4.10583
12187 1 13.7079 48.5471 37.3155 3 6.28605e-05 -4.10606
12188 1 16.2839 48.5359 37.3151 3 8.8415e-05 -4.10536
12189 1 15.425 48.5401 34.9841 3 7.96234e-05 -4.10559
12190 1 18.0024 48.526 34.9826 3 0.000105127 -4.10495
12191 1 17.143 48.5312 32.6519 3 9.70858e-05 -4.10514
12192 1 19.7214 48.5138 32.6493 3 0.000119477 -4.10468
12193 1 18.8618 48.5201 30.319 3 0.000112472 -4.10479
12194 1 21.4403 48.4998 30.3155 3 0.000132987 -4.10466
12195 1 20.5809 48.507 27.9854 3 0.000126257 -4.10464
12196 1 23.1582 48.4848 27.9814 3 0.000143575 -4.10489
12197 1 22.2994 48.4924 25.6514 3 0.000139127 -4.10475
12198 1 24.8743 48.4699 25.6476 3 0.000143716 -4.10529
12199 1 24.0165 48.4772 23.3174 3 0.000145168 -4.10508
12200 1 26.5882 48.4563 23.3144 3 0.000135718 -4.10576
12201 1 25.7316 48.4629 20.9839 3 0.000140372 -4.10553
12202 1 28.3 48.4453 20.9821 3 0.000123208 -4.1062
12203 1 27.4444 48.4504 18.6511 3 0.00012986 -4.10599
12204 1 30.0101 48.4378 18.6505 3 0.000110689 -4.10652
12205 1 29.1552 48.4411 16.3191 3 0.000116495 -4.10638
12206 1 31.719 48.4345 16.3194 3 0.000103859 -4.10666
12207 1 30.8646 48.4356 13.9879 3 0.000106248 -4.10661
12208 1 33.4278 48.4356 13.9885 3 0.000106248 -4.10661
12209 1 32.5734 48.4345 11.6569 3 0.000103859 -4.10666
12210 1 35.1372 48.4411 11.6572 3 0.000116495 -4.10638
12211 1 34.2823 48.4378 9.32587 3 0.000110689 -4.10652
12212 1 36.848 48.4504 9.32525 3 0.00012986 -4.10599
12213 1 35.9924 48.4453 6.99429 3 0.000123208 -4.1062
12214 1 38.5608 48.4629 6.99245 3 0.000140372 -4.10553
12215 1 37.7041 48.4563 4.66191 3 0.000135718 -4.10576
12216 1 40.2759 48.4772 4.65892 3 0.000145168 -4.10508
12217 1 39.4181 48.4699 2.32872 3 0.000143716 -4.10529
12218 1 41.9929 48.4924 2.32494 3 0.000139127 -4.10475
12219 1 41.1342 48.4848 48.9535 3 0.000143575 -4.10489
12220 1 43.7115 48.507 48.9496 3 0.000126257 -4.10464
12221 1 8.55259 46.5598 47.805 3 3.66203e-05 -4.10798
12222 1 11.1215 46.5548 47.8076 3 5.35734e-05 -4.10735
12223 1 10.265 46.5568 45.4754 3 4.71272e-05 -4.10758
12224 1 12.8355 46.55 45.4773 3 6.94899e-05 -4.10683
12225 1 11.9784 46.5526 43.1455 3 6.10093e-05 -4.1071
12226 1 14.5508 46.5435 43.1466 3 8.98417e-05 -4.10624
12227 1 13.693 46.547 40.815 3 7.90868e-05 -4.10655
12228 1 16.2675 46.5349 40.8152 3 0.000114647 -4.10559
12229 1 15.409 46.5395 38.4839 3 0.000101775 -4.10592
12230 1 17.9857 46.5238 38.4829 3 0.000141292 -4.10492
12231 1 17.1264 46.5297 36.1521 3 0.000128135 -4.10526
12232 1 19.7053 46.5098 36.1499 3 0.000162836 -4.10431
12233 1 18.8454 46.5172 33.8195 3 0.000153068 -4.1046
12234 1 21.4258 46.493 33.8159 3 0.00018036 -4.10394
12235 1 20.5655 46.5017 31.4859 3 0.000171451 -4.10408
12236 1 23.1461 46.4742 31.4815 3 0.000203648 -4.10391
12237 1 22.2861 46.4838 29.1517 3 0.000191148 -4.10387
12238 1 24.865 46.455 29.147 3 0.000222515 -4.1042
12239 1 24.0058 46.4645 26.8172 3 0.000215458 -4.10402
12240 1 26.5817 46.4371 26.8131 3 0.000223329 -4.10465
12241 1 25.7236 46.4458 24.4829 3 0.000223842 -4.10441
12242 1 28.2958 46.4223 24.4801 3 0.000220441 -4.10515
12243 1 27.439 46.4292 22.1495 3 0.000222862 -4.1049
12244 1 30.0079 46.4121 22.148 3 0.000210066 -4.10553
12245 1 29.1521 46.4165 19.8169 3 0.000215832 -4.10536
12246 1 31.7186 46.4075 19.8166 3 0.000202598 -4.10571
12247 1 30.8634 46.409 17.4852 3 0.000205374 -4.10565
12248 1 33.429 46.409 17.4853 3 0.000205374 -4.10565
12249 1 32.5738 46.4075 15.1539 3 0.000202598 -4.10571
12250 1 35.1403 46.4165 15.1535 3 0.000215832 -4.10536
12251 1 34.2845 46.4121 12.8224 3 0.000210066 -4.10553
12252 1 36.8533 46.4292 12.821 3 0.000222862 -4.1049
12253 1 35.9965 46.4223 10.4903 3 0.000220441 -4.10515
12254 1 38.5687 46.4458 10.4875 3 0.000223842 -4.10441
12255 1 37.7107 46.4371 8.15731 3 0.000223329 -4.10465
12256 1 40.2866 46.4645 8.15328 3 0.000215458 -4.10402
12257 1 39.4274 46.455 5.82343 3 0.000222515 -4.1042
12258 1 42.0063 46.4838 5.81875 3 0.000191148 -4.10387
12259 1 41.1463 46.4742 3.48898 3 0.000203648 -4.10391
12260 1 43.7269 46.5017 3.4845 3 0.000171451 -4.10408
12261 1 42.8666 46.493 1.15451 3 0.00018036 -4.10394
12262 1 45.447 46.5172 1.15098 3 0.000153068 -4.1046
12263 1 11.9607 44.552 46.6439 3 7.73617e-05 -4.10793
12264 1 14.53 44.5428 46.6457 3 0.000114335 -4.10692
12265 1 13.6732 44.5464 44.3138 3 0.000100116 -4.10729
12266 1 16.2451 44.534 44.3147 3 0.000149442 -4.10611
12267 1 15.3873 44.5387 41.9832 3 0.000130694 -4.10653
12268 1 17.9622 44.5224 41.983 3 0.000194065 -4.10517
12269 1 17.1034 44.5286 39.6519 3 0.000170679 -4.10565
12270 1 19.6816 44.5074 39.6503 3 0.000239108 -4.10415
12271 1 18.8216 44.5154 37.3197 3 0.000217854 -4.10467
12272 1 21.4033 44.4885 37.3166 3 0.000265741 -4.10323
12273 1 20.5422 44.4984 34.9866 3 0.000254382 -4.10366
12274 1 23.1263 44.4661 34.982 3 0.000295317 -4.10269
12275 1 22.2647 44.4776 32.6524 3 0.00027754 -4.10291
12276 1 24.849 44.4421 32.647 3 0.000351638 -4.10263
12277 1 23.9878 44.4542 30.3175 3 0.000321394 -4.1026
12278 1 26.5698 44.4192 30.3124 3 0.000378308 -4.10293
12279 1 25.7097 44.4303 27.9826 3 0.00037268 -4.10277
12280 1 28.288 44.3997 27.9786 3 0.000392975 -4.10335
12281 1 27.4293 44.4089 25.6484 3 0.00038288 -4.10312
12282 1 30.0038 44.3861 25.6458 3 0.000400711 -4.10381
12283 1 29.1462 44.3921 23.315 3 0.000400339 -4.1036
12284 1 31.7178 44.3799 23.3137 3 0.000394144 -4.10404
12285 1 30.8609 44.382 20.9827 3 0.000396516 -4.10396
12286 1 33.4314 44.382 20.9819 3 0.000396516 -4.10396
12287 1 32.5746 44.3799 18.6508 3 0.000394144 -4.10404
12288 1 35.1462 44.3921 18.6495 3 0.000400339 -4.1036
12289 1 34.2886 44.3861 16.3188 3 0.000400711 -4.10381
12290 1 36.8631 44.4089 16.3162 3 0.00038288 -4.10312
12291 1 36.0043 44.3997 13.9859 3 0.000392975 -4.10335
12292 1 38.5826 44.4303 13.9819 3 0.00037268 -4.10277
12293 1 37.7226 44.4192 11.6521 3 0.000378308 -4.10293
12294 1 40.3046 44.4542 11.647 3 0.000321394 -4.1026
12295 1 39.4434 44.4421 9.3175 3 0.000351638 -4.10263
12296 1 42.0277 44.4776 9.31217 3 0.00027754 -4.10291
12297 1 41.1661 44.4661 6.98251 3 0.000295317 -4.10269
12298 1 43.7502 44.4984 6.97797 3 0.000254382 -4.10366
12299 1 42.8891 44.4885 4.64791 3 0.000265741 -4.10323
12300 1 45.4707 44.5154 4.64481 3 0.000217854 -4.10467
12301 1 44.6107 44.5074 2.31421 3 0.000239108 -4.10415
12302 1 47.189 44.5286 2.31265 3 0.000170679 -4.10565
12303 1 46.3301 44.5224 48.9402 3 0.000194065 -4.10517
12304 1 48.9051 44.5387 48.9399 3 0.000130694 -4.10653
12305 1 13.6482 42.5449 47.8117 3 0.000126503 -4.10829
12306 1 16.2162 42.5329 47.8132 3 0.000191662 -4.10693
12307 1 15.3596 42.5375 45.4815 3 0.000166097 -4.10743
12308 1 17.9312 42.5214 45.4821 3 0.000258139 -4.10578
12309 1 17.0734 42.5276 43.1507 3 0.000222109 -4.10638
12310 1 19.6493 42.5061 43.15 3 0.000348477 -4.10439
12311 1 18.7898 42.5143 40.8191 3 0.000300849 -4.10512
12312 1 21.3708 42.4862 40.8169 3 0.00042324 -4.10279
12313 1 20.5096 42.4968 38.4866 3 0.000393942 -4.10359
12314 1 23.096 42.4611 38.4825 3 0.000450511 -4.10145
12315 1 22.233 42.4743 36.1528 3 0.000438746 -4.10206
12316 1 24.8233 42.4324 36.1473 3 0.000529361 -4.10061
12317 1 23.9595 42.4471 33.8179 3 0.000477406 -4.10095
12318 1 26.5501 42.4036 33.812 3 0.000666688 -4.10046
12319 1 25.6869 42.4177 31.4826 3 0.000607066 -4.10044
12320 1 28.2745 42.3787 31.4775 3 0.000686635 -4.10053
12321 1 27.4126 42.3905 29.1476 3 0.000677918 -4.10047
12322 1 29.9965 42.3605 29.1439 3 0.000772711 -4.10088
12323 1 29.1358 42.3686 26.8136 3 0.000727556 -4.10066
12324 1 31.7164 42.3521 26.811 3 0.000798772 -4.10116
12325 1 30.8566 42.355 24.4803 3 0.000797129 -4.10107
12326 1 33.4358 42.355 24.4783 3 0.000797129 -4.10107
12327 1 32.576 42.3521 22.1476 3 0.000798772 -4.10116
12328 1 35.1566 42.3686 22.1451 3 0.000727556 -4.10066
12329 1 34.2959 42.3605 19.8147 3 0.000772711 -4.10088
12330 1 36.8798 42.3905 19.811 3 0.000677918 -4.10047
12331 1 36.0179 42.3787 17.4811 3 0.000686635 -4.10053
12332 1 38.6055 42.4177 17.476 3 0.000607066 -4.10044
12333 1 37.7423 42.4036 15.1466 3 0.000666688 -4.10046
12334 1 40.3329 42.4471 15.1407 3 0.000477406 -4.10095
12335 1 39.4691 42.4324 12.8113 3 0.000529361 -4.10061
12336 1 42.0594 42.4743 12.8058 3 0.000438746 -4.10206
12337 1 41.1964 42.4611 10.4761 3 0.000450511 -4.10145
12338 1 43.7828 42.4968 10.472 3 0.000393942 -4.10359
12339 1 42.9215 42.4862 8.14172 3 0.00042324 -4.10279
12340 1 45.5025 42.5143 8.13951 3 0.000300849 -4.10512
12341 1 44.6431 42.5061 5.8086 3 0.000348477 -4.10439
12342 1 47.219 42.5276 5.80794 3 0.000222109 -4.10638
12343 1 46.3611 42.5214 3.47657 3 0.000258139 -4.10578
12344 1 48.9327 42.5375 3.47713 3 0.000166097 -4.10743
12345 1 48.0762 42.5329 1.1454 3 0.000191662 -4.10693
12346 1 50.6442 42.5449 1.14692 3 0.000126503 -4.10829
12347 1 17.0357 40.5259 46.6478 3 0.000281858 -4.10748
12348 1 19.6072 40.5054 46.6481 3 0.000470604 -4.10512
12349 1 18.7491 40.5133 44.3169 3 0.000391777 -4.10601
12350 1 21.3269 40.4858 44.3158 3 0.000674869 -4.10288
12351 1 20.4665 40.4963 41.985 3 0.000568832 -4.10409
12352 1 23.0524 40.4595 41.982 3 0.0007533 -4.10038
12353 1 22.1889 40.4736 39.6521 3 0.000739321 -4.1016
12354 1 24.7835 40.427 39.647 3 0.000755249 -4.09835
12355 1 23.9174 40.4438 37.3175 3 0.000740759 -4.09934
12356 1 26.518 40.392 37.3114 3 0.00102093 -4.097
12357 1 25.6506 40.4095 34.9822 3 0.000834341 -4.09754
12358 1 28.2517 40.3604 34.9764 3 0.00123587 -4.0965
12359 1 27.3853 40.3753 32.6466 3 0.00120617 -4.09682
12360 1 29.9833 40.337 32.6423 3 0.00140882 -4.09595
12361 1 29.1177 40.3475 30.3122 3 0.00125765 -4.09618
12362 1 31.7138 40.3255 30.3083 3 0.00174833 -4.0961
12363 1 30.8487 40.3294 27.9782 3 0.00161514 -4.096
12364 1 33.4437 40.3294 27.9745 3 0.00161514 -4.096
12365 1 32.5786 40.3255 25.6444 3 0.00174833 -4.0961
12366 1 35.1747 40.3475 25.6405 3 0.00125765 -4.09618
12367 1 34.309 40.337 23.3105 3 0.00140882 -4.09595
12368 1 36.9071 40.3753 23.3061 3 0.00120617 -4.09682
12369 1 36.0407 40.3604 20.9763 3 0.00123587 -4.0965
12370 1 38.6418 40.4095 20.9706 3 0.000834341 -4.09754
12371 1 37.7744 40.392 18.6413 3 0.00102093 -4.097
12372 1 40.375 40.4438 18.6352 3 0.000740759 -4.09934
12373 1 39.5088 40.427 16.3057 3 0.000755249 -4.09835
12374 1 42.1035 40.4736 16.3007 3 0.000739321 -4.1016
12375 1 41.24 40.4595 13.9707 3 0.0007533 -4.10038
12376 1 43.8259 40.4963 13.9677 3 0.000568832 -4.10409
12377 1 42.9655 40.4858 11.6369 3 0.000674869 -4.10288
12378 1 45.5433 40.5133 11.6358 3 0.000391777 -4.10601
12379 1 44.6851 40.5054 9.3046 3 0.000470604 -4.10512
12380 1 47.2567 40.5259 9.30487 3 0.000281858 -4.10748
12381 1 46.4004 40.5201 6.97323 3 0.000330859 -4.10679
12382 1 48.967 40.5352 6.97453 3 0.000209224 -4.10863
12383 1 48.1122 40.5309 4.64259 3 0.000241917 -4.10809
12384 1 50.6748 40.542 4.64463 3 0.00015952 -4.10956
12385 1 49.8212 40.5389 2.31249 3 0.000182154 -4.10912
12386 1 52.3807 40.5468 2.31506 3 0.000124584 -4.11031
12387 1 51.528 40.5446 48.9414 3 0.000140532 -4.10995
12388 1 54.085 40.5503 48.9443 3 9.9578e-05 -4.11092
12389 1 18.6986 38.5116 47.812 3 0.000497936 -4.10738
12390 1 21.2704 38.4862 47.8119 3 0.000956126 -4.10379
12391 1 20.4117 38.496 45.4808 3 0.000745357 -4.10521
12392 1 22.9931 38.461 45.4792 3 0.00140074 -4.09991
12393 1 22.1306 38.4747 43.1487 3 0.00123353 -4.10194
12394 1 24.7265 38.4263 43.1447 3 0.00134931 -4.09617
12395 1 23.8584 38.4448 40.8152 3 0.00142618 -4.09789
12396 1 26.4684 38.3862 40.8094 3 0.00138854 -4.09254
12397 1 25.5966 38.4067 38.4801 3 0.00134237 -4.0943
12398 1 28.2147 38.3464 38.4739 3 0.0022478 -4.09076
12399 1 27.3412 38.3657 36.1447 3 0.0017486 -4.09123
12400 1 29.9602 38.3177 36.1401 3 0.00244152 -4.08852
12401 1 29.0873 38.3306 33.8099 3 0.00233031 -4.08967
12402 1 31.7086 38.3031 33.8057 3 0.00352126 -4.08753
12403 1 30.834 38.3084 31.476 3 0.00293151 -4.08757
12404 1 33.4583 38.3084 31.4708 3 0.00293151 -4.08757
12405 1 32.5838 38.3031 29.1411 3 0.00352126 -4.08753
12406 1 35.2051 38.3306 29.1369 3 0.00233031 -4.08967
12407 1 34.3321 38.3177 26.8067 3 0.00244152 -4.08852
12408 1 36.9511 38.3657 26.8021 3 0.0017486 -4.09123
12409 1 36.0777 38.3464 24.4729 3 0.0022478 -4.09076
12410 1 38.6958 38.4067 24.4667 3 0.00134237 -4.0943
12411 1 37.824 38.3862 22.1374 3 0.00138854 -4.09254
12412 1 40.434 38.4448 22.1316 3 0.00142618 -4.09789
12413 1 39.5659 38.4263 19.8021 3 0.00134931 -4.09617
12414 1 42.1618 38.4747 19.7981 3 0.00123353 -4.10194
12415 1 41.2992 38.461 17.4676 3 0.00140074 -4.09991
12416 1 43.8807 38.496 17.466 3 0.000745357 -4.10521
12417 1 43.022 38.4862 15.1349 3 0.000956126 -4.10379
12418 1 45.5938 38.5116 15.1348 3 0.000497936 -4.10738
12419 1 44.7379 38.5044 12.8032 3 0.000601529 -4.10638
12420 1 47.3027 38.523 12.8042 3 0.000355448 -4.10893
12421 1 46.4487 38.5177 10.4724 3 0.000418448 -4.10821
12422 1 49.0084 38.5312 10.4741 3 0.000262943 -4.11013
12423 1 48.1559 38.5274 8.14211 3 0.000304374 -4.10957
12424 1 50.7115 38.5371 8.14432 3 0.000200182 -4.11108
12425 1 49.8603 38.5344 5.81216 3 0.00022877 -4.11063
12426 1 52.4127 38.5412 5.81468 3 0.000156521 -4.11184
12427 1 51.5623 38.5393 3.48244 3 0.000176425 -4.11148
12428 1 54.1123 38.5441 3.48516 3 0.000125644 -4.11245
12429 1 53.2627 38.5428 1.15287 3 0.000139759 -4.11216
12430 1 55.8106 38.546 1.15571 3 0.000103655 -4.11293
12431 1 22.0569 36.4759 46.6409 3 0.00172688 -4.10345
12432 1 24.6474 36.4312 46.6387 3 0.00321826 -4.09408
12433 1 23.7795 36.4493 44.3085 3 0.00306559 -4.09744
12434 1 26.3958 36.3874 44.3041 3 0.00318988 -4.08774
12435 1 25.5201 36.4098 41.9741 3 0.00308206 -4.0913
12436 1 28.1566 36.341 41.9699 3 0.00417114 -4.08046
12437 1 27.2748 36.3642 39.64 3 0.00319715 -4.08379
12438 1 29.9249 36.3051 39.6358 3 0.00609461 -4.07857
12439 1 29.0408 36.3193 37.3047 3 0.00590725 -4.08035
12440 1 31.7006 36.2915 37.3031 3 0.00557803 -4.07038
12441 1 30.8112 36.2955 34.9733 3 0.00589158 -4.07495
12442 1 33.4811 36.2955 34.9676 3 0.00589158 -4.07495
12443 1 32.5918 36.2915 32.6378 3 0.00557803 -4.07038
12444 1 35.2516 36.3193 32.6362 3 0.00590725 -4.08035
12445 1 34.3675 36.3051 30.3051 3 0.00609461 -4.07857
12446 1 37.0176 36.3642 30.3008 3 0.00319715 -4.08379
12447 1 36.1358 36.341 27.9709 3 0.00417114 -4.08046
12448 1 38.7722 36.4098 27.9668 3 0.00308206 -4.0913
12449 1 37.8966 36.3874 25.6368 3 0.00318988 -4.08774
12450 1 40.5129 36.4493 25.6324 3 0.00306559 -4.09744
12451 1 39.645 36.4312 23.3022 3 0.00321826 -4.09408
12452 1 42.2355 36.4759 23.3 3 0.00172688 -4.10345
12453 1 41.3761 36.4641 20.969 3 0.00251009 -4.10069
12454 1 43.9485 36.4947 20.9684 3 0.000962799 -4.10695
12455 1 43.0929 36.4861 18.637 3 0.00124811 -4.10542
12456 1 45.6554 36.5081 18.6374 3 0.000641136 -4.10919
12457 1 44.8026 36.502 16.3058 3 0.00077966 -4.10821
12458 1 47.3581 36.5178 16.3069 3 0.000448906 -4.11076
12459 1 46.5073 36.5134 13.9751 3 0.000533808 -4.11003
12460 1 49.0577 36.5247 13.9766 3 0.00032674 -4.11193
12461 1 48.2082 36.5215 11.6447 3 0.000381385 -4.11138
12462 1 50.7548 36.5295 11.6465 3 0.000245275 -4.11284
12463 1 49.9065 36.5273 9.31451 3 0.00028186 -4.11242
12464 1 52.4501 36.5328 9.3164 3 0.000190284 -4.11357
12465 1 51.6027 36.5313 6.9844 3 0.000215238 -4.11322
12466 1 54.144 36.535 6.98633 3 0.000152629 -4.11414
12467 1 53.2972 36.5341 4.65432 3 0.000169651 -4.11387
12468 1 55.8369 36.5365 4.65627 3 0.000126611 -4.11459
12469 1 54.9906 36.5358 2.32426 3 0.000138424 -4.11437
12470 1 57.5289 36.5373 2.32621 3 0.000108721 -4.11494
12471 1 56.6829 36.537 48.9528 3 0.000116846 -4.11477
12472 1 59.2202 36.5378 48.9548 3 9.66157e-05 -4.1152
12473 1 23.6764 34.4548 47.7934 3 0.00592012 -4.09891
12474 1 26.2903 34.396 47.7895 3 0.0105301 -4.0821
12475 1 25.4104 34.4208 45.4602 3 0.0097437 -4.08763
12476 1 28.0656 34.3478 45.4592 3 0.0138828 -4.06229
12477 1 27.1743 34.3716 43.1265 3 0.0124144 -4.0745
12478 1 29.8721 34.3014 43.1246 3 0.0265573 -4.04467
12479 1 28.9651 34.3246 40.7977 3 0.0181084 -4.04794
12480 1 31.6902 34.2996 40.7946 3 0.00450936 -4.04392
12481 1 30.7788 34.2971 38.4599 3 0.0167218 -4.04061
12482 1 33.5136 34.2971 38.4751 3 0.0167218 -4.04061
12483 1 32.6022 34.2996 36.1404 3 0.00450936 -4.04392
12484 1 35.3273 34.3246 36.1373 3 0.0181084 -4.04794
12485 1 34.4203 34.3014 33.8104 3 0.0265573 -4.04467
12486 1 37.1181 34.3716 33.8085 3 0.0124144 -4.0745
12487 1 36.2268 34.3478 31.4758 3 0.0138828 -4.06229
12488 1 38.882 34.4208 31.4748 3 0.0097437 -4.08763
12489 1 38.002 34.396 29.1455 3 0.0105301 -4.0821
12490 1 40.616 34.4548 29.1416 3 0.00592012 -4.09891
12491 1 39.7529 34.4403 26.8112 3 0.00816224 -4.09364
12492 1 42.3282 34.4759 26.8086 3 0.00235013 -4.10581
12493 1 41.4732 34.4661 24.4781 3 0.00352723 -4.10307
12494 1 44.0316 34.4908 24.4765 3 0.00131102 -4.10947
12495 1 43.1809 34.484 22.1454 3 0.00171058 -4.10786
12496 1 45.7296 34.5017 22.145 3 0.00082256 -4.11151
12497 1 44.8812 34.4967 19.8136 3 0.0010314 -4.11059
12498 1 47.4237 34.5094 19.8137 3 0.000544517 -4.11294
12499 1 46.577 34.5058 17.4823 3 0.000662642 -4.11231
12500 1 49.1152 34.5148 17.4826 3 0.000379088 -4.114
12501 1 48.2698 34.5123 15.1511 3 0.000452612 -4.1135
12502 1 50.8048 34.5185 15.1515 3 0.000278421 -4.11479
12503 1 49.9602 34.5168 12.82 3 0.000322982 -4.11441
12504 1 52.4929 34.521 12.8204 3 0.000213748 -4.11541
12505 1 51.649 34.5199 10.4889 3 0.000242188 -4.11512
12506 1 54.1801 34.5225 10.4893 3 0.000171836 -4.1159
12507 1 53.3366 34.5218 8.15783 3 0.000190723 -4.11567
12508 1 55.8664 34.5235 8.15828 3 0.000144167 -4.11628
12509 1 55.0233 34.5231 5.82677 3 0.000156629 -4.1161
12510 1 57.5522 34.524 5.82722 3 0.000125593 -4.11657
12511 1 56.7094 34.5238 3.49571 3 0.000133924 -4.11644
12512 1 59.2376 34.5243 3.49616 3 0.000113274 -4.11679
12513 1 58.395 34.5242 1.16464 3 0.000118807 -4.11669
12514 1 60.9227 34.5244 1.16509 3 0.000105486 -4.11695
12515 1 27.0111 32.3907 46.586 3 5.2658 -4.0762
12516 1 29.7822 32.3586 46.6028 5 4.33741 -4.00223
12517 1 28.8278 32.3602 44.2581 5 4.64227 -4.02379
12518 1 31.6882 32.3221 44.2918 5 3.36755 -4.03647
12519 1 30.7596 32.3358 41.9457 5 4.29487 -4.01722
12520 1 33.5328 32.3358 41.9834 5 4.29487 -4.01722
12521 1 32.6042 32.3221 39.6373 5 3.36755 -4.03647
12522 1 35.4646 32.3602 39.671 5 4.64227 -4.02379
12523 1 34.5102 32.3586 37.3263 5 4.33741 -4.00223
12524 1 37.2813 32.3907 37.3431 3 5.2658 -4.0762
12525 1 36.3789 32.3699 35.012 5 4.98126 -4.05262
12526 1 39.0415 32.4359 35.0039 3 0.0366545 -4.09445
12527 1 38.1721 32.4177 32.6763 3 5.44731 -4.08656
12528 1 40.7495 32.4566 32.6639 3 0.00962052 -4.10511
12529 1 39.8992 32.4477 30.3363 3 0.0199622 -4.10077
12530 1 42.445 32.4714 30.3268 3 0.00359885 -4.11056
12531 1 41.5986 32.4646 27.9977 3 0.00575021 -4.10828
12532 1 44.1328 32.4822 27.9919 3 0.00165626 -4.11302
12533 1 43.2892 32.477 25.6622 3 0.00232825 -4.11213
12534 1 45.8171 32.4902 25.6582 3 0.000870441 -4.11448
12535 1 44.9754 32.4865 23.3279 3 0.00118508 -4.11381
12536 1 47.4995 32.4961 23.3249 3 0.000543753 -4.11541
12537 1 46.6585 32.4934 20.9944 3 0.000686325 -4.11496
12538 1 49.1805 32.5002 20.9919 3 0.00037052 -4.11615
12539 1 48.3401 32.4983 18.6613 3 0.000439292 -4.11582
12540 1 50.8606 32.503 18.6591 3 0.000271177 -4.11673
12541 1 50.0206 32.5017 16.3284 3 0.000314636 -4.11645
12542 1 52.5403 32.5048 16.3265 3 0.000213233 -4.11719
12543 1 51.7005 32.504 13.9957 3 0.00023953 -4.11697
12544 1 54.2196 32.5059 13.9939 3 0.000175519 -4.11756
12545 1 53.38 32.5054 11.6631 3 0.000192013 -4.11739
12546 1 55.8986 32.5065 11.6615 3 0.000150226 -4.11785
12547 1 55.0591 32.5063 9.33065 3 0.000161637 -4.11771
12548 1 57.5775 32.5068 9.32912 3 0.000133417 -4.11808
12549 1 56.7381 32.5067 6.99825 3 0.000141077 -4.11797
12550 1 59.2563 32.5069 6.9968 3 0.000122039 -4.11825
12551 1 58.4169 32.5069 4.66591 3 0.00012712 -4.11817
12552 1 60.935 32.5069 4.66451 3 0.000114696 -4.11837
12553 1 60.0957 32.5069 2.33361 3 0.000117929 -4.11831
12554 1 62.6137 32.5069 2.33225 3 0.000110635 -4.11844
12555 1 61.7744 32.5069 0.00133424 3 0.000112312 -4.11841
12556 1 0.857232 62.5896 40.7989 5 12.3402 -3.52387
12557 1 0 62.5896 38.4675 5 12.3402 -3.52387
12558 1 2.5717 62.5896 38.4675 5 12.3402 -3.52387
12559 1 1.71446 62.5896 36.1361 5 12.3402 -3.52387
12560 1 4.28616 62.5896 36.1361 5 12.3402 -3.52387
12561 1 3.42893 62.5896 33.8048 5 12.3402 -3.52387
12562 1 6.00062 62.5896 33.8048 5 12.3402 -3.52387
12563 1 5.14339 62.5896 31.4734 5 12.3402 -3.52387
12564 1 7.71509 62.5896 31.4734 5 12.3402 -3.52387
12565 1 6.85785 62.5896 29.142 5 12.3402 -3.52387
12566 1 9.42955 62.5896 29.142 5 12.3402 -3.52387
12567 1 8.57232 62.5896 26.8107 5 12.3402 -3.52387
12568 1 11.144 62.5896 26.8107 5 12.3402 -3.52387
12569 1 10.2868 62.5896 24.4793 5 12.3402 -3.52387
12570 1 12.8585 62.5896 24.4793 5 12.3402 -3.52387
12571 1 12.0012 62.5896 22.1479 5 12.3402 -3.52387
12572 1 14.5729 62.5896 22.1479 5 12.3402 -3.52387
12573 1 13.7157 62.5896 19.8166 5 12.3402 -3.52387
12574 1 16.2874 62.5896 19.8166 5 12.3402 -3.52387
12575 1 15.4302 62.5896 17.4852 5 12.3402 -3.52387
12576 1 18.0019 62.5896 17.4852 5 12.3402 -3.52387
12577 1 17.1446 62.5896 15.1539 5 12.3402 -3.52387
12578 1 19.7163 62.5896 15.1539 5 12.3402 -3.52387
12579 1 18.8591 62.5896 12.8225 5 12.3402 -3.52387
12580 1 21.4308 62.5896 12.8225 5 12.3402 -3.52387
12581 1 20.5736 62.5896 10.4911 5 12.3402 -3.52387
12582 1 23.1453 62.5896 10.4911 5 12.3402 -3.52387
12583 1 22.288 62.5896 8.15977 5 12.3402 -3.52387
12584 1 24.8597 62.5896 8.15977 5 12.3402 -3.52387
12585 1 24.0025 62.5896 5.82841 5 12.3402 -3.52387
12586 1 26.5742 62.5896 5.82841 5 12.3402 -3.52387
12587 1 25.717 62.5896 3.49704 5 12.3402 -3.52387
12588 1 28.2886 62.5896 3.49704 5 12.3402 -3.52387
12589 1 27.4314 62.5896 1.16568 5 12.3402 -3.52387
12590 1 30.0031 62.5896 1.16568 5 12.3402 -3.52387
12591 1 0.857232 60.5706 44.2959 3 5.76e-18 -4.09064
12592 1 0 60.5706 41.9645 3 2.304e-17 -4.09064
12593 1 2.5717 60.5706 41.9645 3 4e-16 -4.09063
12594 1 1.71446 60.5706 39.6332 3 4.5376e-16 -4.09064
12595 1 4.28616 60.5706 39.6332 3 1e-16 -4.09062
12596 1 3.42893 60.5706 37.3018 3 1e-16 -4.09062
12597 1 6.00062 60.5706 37.3018 3 1e-16 -4.09059
12598 1 5.14339 60.5706 34.9704 3 1e-16 -4.09061
12599 1 7.71509 60.5706 34.9704 3 4e-16 -4.09056
12600 1 6.85785 60.5706 32.6391 3 4e-16 -4.09058
12601 1 9.42955 60.5706 32.6391 3 6.4371e-28 -4.09052
12602 1 8.57232 60.5706 30.3077 3 1e-16 -4.09054
12603 1 11.144 60.5706 30.3077 3 4e-16 -4.09046
12604 1 10.2868 60.5706 27.9764 3 9.99999e-17 -4.09049
12605 1 12.8585 60.5706 27.9764 3 1e-16 -4.0904
12606 1 12.0012 60.5706 25.645 3 4e-16 -4.09043
12607 1 14.5729 60.5706 25.645 3 1e-16 -4.09032
12608 1 13.7157 60.5706 23.3136 3 1e-16 -4.09036
12609 1 16.2874 60.5706 23.3136 3 4e-16 -4.09022
12610 1 15.4302 60.5706 20.9823 3 1e-16 -4.09027
12611 1 18.0019 60.5706 20.9823 3 1e-16 -4.09012
12612 1 17.1446 60.5706 18.6509 3 4e-16 -4.09017
12613 1 19.7163 60.5706 18.6509 3 1e-16 -4.09001
12614 1 18.8591 60.5706 16.3195 3 5.55358e-28 -4.09006
12615 1 21.4308 60.5706 16.3195 3 4e-16 -4.08989
12616 1 20.5736 60.5706 13.9882 3 3.99999e-16 -4.08995
12617 1 23.1453 60.5706 13.9882 3 4.2914e-28 -4.08978
12618 1 22.288 60.5706 11.6568 3 1e-16 -4.08984
12619 1 24.8597 60.5706 11.6568 3 4e-16 -4.08968
12620 1 24.0025 60.5706 9.32545 3 1e-16 -4.08973
12621 1 26.5742 60.5706 9.32545 3 9.99999e-17 -4.08959
12622 1 25.717 60.5706 6.99409 3 4e-16 -4.08964
12623 1 28.2886 60.5706 6.99409 3 1e-16 -4.08953
12624 1 27.4314 60.5706 4.66273 3 1e-16 -4.08956
12625 1 30.0031 60.5706 4.66273 3 4e-16 -4.08948
12626 1 29.1459 60.5706 2.33136 3 1e-16 -4.0895
12627 1 31.7176 60.5706 2.33136 3 1e-16 -4.08946
12628 1 30.8603 60.5706 0 3 4.0507e-16 -4.08947
12629 1 33.432 60.5706 0 3 1.0507e-16 -4.08947
12630 1 0.857232 58.5516 47.7929 3 0.000989616 -4.10599
12631 1 0 58.5516 45.4616 3 0.00099079 -4.10599
12632 1 2.5717 58.5516 45.4616 3 0.000980179 -4.10598
12633 1 1.71446 58.5516 43.1302 3 0.000986078 -4.10599
12634 1 4.28616 58.5516 43.1302 3 0.000961107 -4.10597
12635 1 3.42893 58.5516 40.7989 3 0.00097187 -4.10598
12636 1 6.00062 58.5516 40.7989 3 0.00093209 -4.10595
12637 1 5.14339 58.5516 38.4675 3 0.000947848 -4.10596
12638 1 7.71509 58.5516 38.4675 3 0.00089312 -4.10592
12639 1 6.85785 58.5516 36.1361 3 0.00091382 -4.10593
12640 1 9.42955 58.5516 36.1361 3 0.000844684 -4.10589
12641 1 8.57232 58.5516 33.8048 3 0.000870029 -4.1059
12642 1 11.144 58.5516 33.8048 3 0.000787922 -4.10586
12643 1 10.2868 58.5516 31.4734 3 0.000817217 -4.10587
12644 1 12.8585 58.5516 31.4734 3 0.000724881 -4.10583
12645 1 12.0012 58.5516 29.142 3 0.000757017 -4.10584
12646 1 14.5729 58.5516 29.142 3 0.000658332 -4.1058
12647 1 13.7157 58.5516 26.8107 3 0.000691861 -4.10581
12648 1 16.2874 58.5516 26.8107 3 0.000591074 -4.10578
12649 1 15.4302 58.5516 24.4793 3 0.000624647 -4.10579
12650 1 18.0019 58.5516 24.4793 3 0.000524669 -4.10577
12651 1 17.1446 58.5516 22.1479 3 0.000557723 -4.10578
12652 1 19.7163 58.5516 22.1479 3 0.000458403 -4.10576
12653 1 18.8591 58.5516 19.8166 3 0.000491636 -4.10577
12654 1 21.4308 58.5516 19.8166 3 0.000389679 -4.10576
12655 1 20.5736 58.5516 17.4852 3 0.000424557 -4.10576
12656 1 23.1453 58.5516 17.4852 3 0.000315834 -4.10575
12657 1 22.288 58.5516 15.1539 3 0.000353488 -4.10575
12658 1 24.8597 58.5516 15.1539 3 0.000236862 -4.10575
12659 1 24.0025 58.5516 12.8225 3 0.000276842 -4.10575
12660 1 26.5742 58.5516 12.8225 3 0.000157252 -4.10574
12661 1 25.717 58.5516 10.4911 3 0.000196676 -4.10574
12662 1 28.2886 58.5516 10.4911 3 8.5703e-05 -4.10574
12663 1 27.4314 58.5516 8.15977 3 0.000119794 -4.10574
12664 1 30.0031 58.5516 8.15977 3 3.29962e-05 -4.10574
12665 1 29.1459 58.5516 5.82841 3 5.6351e-05 -4.10574
12666 1 31.7176 58.5516 5.82841 3 8.46362e-06 -4.10574
12667 1 30.8603 58.5516 3.49704 3 1.67882e-05 -4.10574
12668 1 33.432 58.5516 3.49704 3 1.67882e-05 -4.10574
12669 1 32.5748 58.5516 1.16568 3 8.46362e-06 -4.10574
12670 1 35.1465 58.5516 1.16568 3 5.63512e-05 -4.10574
12671 1 1.71495 56.5548 46.6278 3 1.43672e-06 -4.10574
12672 1 4.28749 56.5544 46.6287 3 4.20208e-06 -4.1057
12673 1 3.42995 56.5546 44.297 3 2.97657e-06 -4.10572
12674 1 6.00264 56.554 44.2978 3 7.72884e-06 -4.10566
12675 1 5.14505 56.5542 41.9662 3 5.77088e-06 -4.10568
12676 1 7.71796 56.5534 41.9669 3 1.30196e-05 -4.10562
12677 1 6.86028 56.5537 39.6353 3 1.01318e-05 -4.10564
12678 1 9.43344 56.5526 39.6358 3 2.03596e-05 -4.10557
12679 1 8.57568 56.553 37.3043 3 1.64285e-05 -4.10559
12680 1 11.1491 56.5515 37.3046 3 2.9918e-05 -4.10552
12681 1 10.2913 56.5521 34.9732 3 2.4852e-05 -4.10554
12682 1 12.8649 56.5502 34.9733 3 4.12987e-05 -4.10547
12683 1 12.007 56.5509 32.6419 3 3.5419e-05 -4.10549
12684 1 14.5808 56.5487 32.6418 3 5.34402e-05 -4.10545
12685 1 13.7229 56.5495 30.3105 3 4.74132e-05 -4.10546
12686 1 16.2967 56.5468 30.3101 3 6.4315e-05 -4.10546
12687 1 15.4388 56.5478 27.9789 3 5.91397e-05 -4.10545
12688 1 18.0124 56.5447 27.9782 3 7.15175e-05 -4.10551
12689 1 17.1546 56.5458 25.6471 3 6.85784e-05 -4.10548
12690 1 19.7277 56.5425 25.6463 3 7.32526e-05 -4.10558
12691 1 18.8701 56.5436 23.3152 3 7.31499e-05 -4.10554
12692 1 21.4425 56.5402 23.3144 3 6.91736e-05 -4.10569
12693 1 20.5851 56.5413 20.9833 3 7.18433e-05 -4.10563
12694 1 23.1566 56.5379 20.9825 3 6.07179e-05 -4.1058
12695 1 22.2996 56.539 18.6514 3 6.5392e-05 -4.10574
12696 1 24.8701 56.5359 18.6507 3 4.99747e-05 -4.10592
12697 1 24.0134 56.5369 16.3195 3 5.54688e-05 -4.10586
12698 1 26.5829 56.5341 16.3191 3 3.9008e-05 -4.10603
12699 1 25.7266 56.5349 13.9879 3 4.43784e-05 -4.10598
12700 1 28.2951 56.5327 13.9878 3 2.97496e-05 -4.10612
12701 1 27.4391 56.5333 11.6564 3 3.40923e-05 -4.10608
12702 1 30.0068 56.5317 11.6565 3 2.33292e-05 -4.10618
12703 1 29.151 56.5321 9.32508 3 2.61152e-05 -4.10615
12704 1 31.7183 56.5313 9.32539 3 2.04271e-05 -4.10621
12705 1 30.8626 56.5315 6.9939 3 2.13988e-05 -4.1062
12706 1 33.4298 56.5315 6.99427 3 2.13987e-05 -4.1062
12707 1 32.574 56.5313 4.66279 3 2.04271e-05 -4.10621
12708 1 35.1414 56.5321 4.6631 3 2.61152e-05 -4.10615
12709 1 34.2855 56.5317 2.33165 3 2.33292e-05 -4.10618
12710 1 36.8533 56.5333 2.33179 3 3.40923e-05 -4.10608
12711 1 35.9973 56.5327 0.00042079 3 2.97497e-05 -4.10612
12712 1 38.5658 56.5349 0.000311284 3 4.43784e-05 -4.10598
12713 1 3.42999 54.5574 47.7951 3 3.08042e-06 -4.10682
12714 1 6.00289 54.5564 47.7966 3 7.66455e-06 -4.10667
12715 1 5.1452 54.5568 45.4648 3 5.79416e-06 -4.10673
12716 1 7.71848 54.5553 45.4661 3 1.25246e-05 -4.10653
12717 1 6.86065 54.5559 43.1343 3 9.89856e-06 -4.1066
12718 1 9.43439 54.5539 43.1353 3 1.91666e-05 -4.10637
12719 1 8.57639 54.5547 40.8037 3 1.56108e-05 -4.10645
12720 1 11.1506 54.552 40.8043 3 2.76414e-05 -4.1062
12721 1 10.2925 54.553 38.4728 3 2.3151e-05 -4.10628
12722 1 12.8672 54.5496 38.4731 3 3.78003e-05 -4.10602
12723 1 12.0089 54.5508 36.1417 3 3.2574e-05 -4.10611
12724 1 14.584 54.5465 36.1415 3 4.91134e-05 -4.10588
12725 1 13.7256 54.5481 33.8103 3 4.33513e-05 -4.10594
12726 1 16.3009 54.5429 33.8095 3 6.00846e-05 -4.10578
12727 1 15.4425 54.5448 31.4785 3 5.47837e-05 -4.10582
12728 1 18.0176 54.5386 31.4773 3 6.89167e-05 -4.10576
12729 1 17.1593 54.5408 29.1464 3 6.48974e-05 -4.10576
12730 1 19.7337 54.5339 29.1448 3 7.3189e-05 -4.10583
12731 1 18.8757 54.5363 26.814 3 7.17161e-05 -4.10579
12732 1 21.4491 54.529 26.8123 3 7.15719e-05 -4.10597
12733 1 20.5915 54.5315 24.4815 3 7.31397e-05 -4.10589
12734 1 23.1634 54.524 24.4799 3 6.42053e-05 -4.10616
12735 1 22.3064 54.5265 22.149 3 6.85282e-05 -4.10606
12736 1 24.8765 54.5194 22.1477 3 5.28765e-05 -4.10637
12737 1 24.0201 54.5217 19.8167 3 5.89024e-05 -4.10627
12738 1 26.5884 54.5154 19.8159 3 4.01072e-05 -4.10657
12739 1 25.7325 54.5173 17.4847 3 4.65067e-05 -4.10648
12740 1 28.2992 54.5122 17.4844 3 2.82602e-05 -4.10674
12741 1 27.4439 54.5137 15.1531 3 3.38936e-05 -4.10666
12742 1 30.0093 54.5101 15.1533 3 1.96384e-05 -4.10685
12743 1 29.1543 54.511 12.8218 3 2.34403e-05 -4.1068
12744 1 31.7188 54.5092 12.8224 3 1.5675e-05 -4.1069
12745 1 30.8641 54.5095 10.4908 3 1.70086e-05 -4.10688
12746 1 33.4283 54.5095 10.4915 3 1.70086e-05 -4.10688
12747 1 32.5736 54.5092 8.15989 3 1.5675e-05 -4.1069
12748 1 35.1381 54.511 8.16047 3 2.34402e-05 -4.1068
12749 1 34.2831 54.5101 5.82896 3 1.96384e-05 -4.10685
12750 1 36.8485 54.5137 5.82919 3 3.38936e-05 -4.10666
12751 1 35.9932 54.5122 3.49782 3 2.82602e-05 -4.10674
12752 1 38.5598 54.5173 3.49756 3 4.65067e-05 -4.10648
12753 1 37.704 54.5154 1.16638 3 4.01072e-05 -4.10657
12754 1 40.2723 54.5217 1.16556 3 5.89024e-05 -4.10627
12755 1 6.85894 52.5581 46.6332 3 1.17649e-05 -4.10669
12756 1 9.43243 52.5554 46.6347 3 2.10083e-05 -4.10638
12757 1 8.57448 52.5565 44.3029 3 1.7502e-05 -4.10649
12758 1 11.1487 52.5528 44.304 3 2.9395e-05 -4.10614
12759 1 10.2905 52.5542 41.9723 3 2.49661e-05 -4.10626
12760 1 12.8655 52.5494 41.9728 3 3.9559e-05 -4.10589
12761 1 12.007 52.5512 39.6414 3 3.4272e-05 -4.10602
12762 1 14.5827 52.5451 39.6412 3 5.10436e-05 -4.10567
12763 1 13.7241 52.5474 37.31 3 4.51907e-05 -4.10578
12764 1 16.3003 52.5398 37.3092 3 6.287e-05 -4.1055
12765 1 15.4415 52.5426 34.9782 3 5.69808e-05 -4.10558
12766 1 18.0178 52.5334 34.9766 3 7.36589e-05 -4.10544
12767 1 17.159 52.5367 32.6459 3 6.85232e-05 -4.10546
12768 1 19.7349 52.5261 32.6437 3 8.14801e-05 -4.10551
12769 1 18.8764 52.5298 30.3132 3 7.80759e-05 -4.10546
12770 1 21.4511 52.5182 30.3107 3 8.37444e-05 -4.10571
12771 1 20.5931 52.5222 27.9802 3 8.34656e-05 -4.1056
12772 1 23.166 52.5103 27.9777 3 7.90727e-05 -4.106
12773 1 22.3087 52.5142 25.6471 3 8.22461e-05 -4.10584
12774 1 24.8793 52.5027 25.6451 3 6.84997e-05 -4.10633
12775 1 24.0229 52.5064 23.3143 3 7.43575e-05 -4.10616
12776 1 26.5911 52.496 23.313 3 5.46001e-05 -4.10665
12777 1 25.7354 52.4992 20.9819 3 6.17394e-05 -4.10649
12778 1 28.3014 52.4906 20.9813 3 4.06068e-05 -4.10692
12779 1 27.4464 52.4931 18.65 3 4.73203e-05 -4.10679
12780 1 30.0106 52.4871 18.6502 3 2.98991e-05 -4.1071
12781 1 29.1561 52.4886 16.3187 3 3.46489e-05 -4.10702
12782 1 31.7191 52.4855 16.3194 3 2.48604e-05 -4.10718
12783 1 30.8649 52.486 13.9877 3 2.65644e-05 -4.10715
12784 1 33.4275 52.486 13.9886 3 2.65644e-05 -4.10715
12785 1 32.5733 52.4855 11.657 3 2.48604e-05 -4.10718
12786 1 35.1363 52.4886 11.6577 3 3.46489e-05 -4.10702
12787 1 34.2818 52.4871 9.32614 3 2.98991e-05 -4.1071
12788 1 36.846 52.4931 9.32632 3 4.73203e-05 -4.10679
12789 1 35.991 52.4906 6.99501 3 4.06068e-05 -4.10692
12790 1 38.557 52.4992 6.99444 3 6.17394e-05 -4.10649
12791 1 37.7013 52.496 4.66341 3 5.46001e-05 -4.10665
12792 1 40.2695 52.5064 4.66204 3 7.43575e-05 -4.10616
12793 1 39.4131 52.5027 2.33126 3 6.84997e-05 -4.10633
12794 1 41.9837 52.5142 2.32922 3 8.22461e-05 -4.10584
12795 1 41.1264 52.5103 48.9573 3 7.90727e-05 -4.106
12796 1 43.6993 52.5222 48.9548 3 8.34656e-05 -4.1056
12797 1 8.56991 50.5581 47.8019 3 2.15863e-05 -4.10677
12798 1 11.1433 50.5538 47.8034 3 3.42973e-05 -4.10631
12799 1 10.2853 50.5555 45.4717 3 2.95545e-05 -4.10647
12800 1 12.8597 50.5497 45.4726 3 4.53321e-05 -4.10598
12801 1 12.0014 50.5519 43.141 3 3.95353e-05 -4.10615
12802 1 14.5769 50.5443 43.1411 3 5.80676e-05 -4.10565
12803 1 13.7182 50.5472 40.8099 3 5.15444e-05 -4.10581
12804 1 16.2947 50.5375 40.8091 3 7.16393e-05 -4.10535
12805 1 15.4357 50.5411 38.4781 3 6.48546e-05 -4.10549
12806 1 18.0128 50.5291 38.4765 3 8.43955e-05 -4.10515
12807 1 17.1537 50.5335 36.1458 3 7.81961e-05 -4.10524
12808 1 19.7309 50.5193 36.1433 3 9.56053e-05 -4.10512
12809 1 18.8719 50.5244 33.8129 3 9.02979e-05 -4.10511
12810 1 21.4484 50.5084 33.8098 3 0.000103351 -4.10527
12811 1 20.5898 50.5139 31.4795 3 0.000100003 -4.10517
12812 1 23.1644 50.497 31.4763 3 0.000104207 -4.10558
12813 1 22.3066 50.5027 29.1459 3 0.00010485 -4.10541
12814 1 24.8787 50.486 29.1431 3 9.6766e-05 -4.10598
12815 1 24.0218 50.4914 26.8126 3 0.000101376 -4.10578
12816 1 26.5911 50.4761 26.8105 3 8.40064e-05 -4.1064
12817 1 25.7352 50.4809 24.4796 3 9.09351e-05 -4.10619
12818 1 28.3017 50.4682 24.4786 3 6.93604e-05 -4.10675
12819 1 27.4466 50.4719 22.1474 3 7.66996e-05 -4.10659
12820 1 30.0108 50.4629 22.1473 3 5.71964e-05 -4.107
12821 1 29.1564 50.4652 19.8158 3 6.27116e-05 -4.10689
12822 1 31.7192 50.4605 19.8164 3 5.12749e-05 -4.10711
12823 1 30.8651 50.4613 17.4848 3 5.33065e-05 -4.10707
12824 1 33.4273 50.4613 17.4857 3 5.33065e-05 -4.10707
12825 1 32.5732 50.4605 15.154 3 5.12749e-05 -4.10711
12826 1 35.136 50.4652 15.1546 3 6.27116e-05 -4.10689
12827 1 34.2815 50.4629 12.8232 3 5.71964e-05 -4.107
12828 1 36.8458 50.4719 12.8231 3 7.66996e-05 -4.10659
12829 1 35.9907 50.4682 10.4919 3 6.93604e-05 -4.10675
12830 1 38.5572 50.4809 10.4908 3 9.09351e-05 -4.10619
12831 1 37.7013 50.4761 8.15998 3 8.40064e-05 -4.1064
12832 1 40.2706 50.4914 8.15789 3 0.000101376 -4.10578
12833 1 39.4136 50.486 5.82738 3 9.6766e-05 -4.10598
12834 1 41.9858 50.5027 5.8245 3 0.00010485 -4.10541
12835 1 41.1279 50.497 3.4942 3 0.000104207 -4.10558
12836 1 43.7026 50.5139 3.49095 3 0.000100003 -4.10517
12837 1 42.844 50.5084 1.16068 3 0.000103351 -4.10527
12838 1 45.4204 50.5244 1.15757 3 9.02979e-05 -4.10511
12839 1 11.9919 48.5524 46.6405 3 4.84785e-05 -4.10651
12840 1 14.5663 48.5439 46.641 3 7.1026e-05 -4.10583
12841 1 13.7079 48.5471 44.3096 3 6.28605e-05 -4.10606
12842 1 16.2839 48.5359 44.3092 3 8.8415e-05 -4.10536
12843 1 15.425 48.5401 41.9782 3 7.96234e-05 -4.10559
12844 1 18.0024 48.526 41.9767 3 0.000105127 -4.10495
12845 1 17.143 48.5312 39.646 3 9.70858e-05 -4.10514
12846 1 19.7214 48.5138 39.6434 3 0.000119477 -4.10468
12847 1 18.8618 48.5201 37.3131 3 0.000112472 -4.10479
12848 1 21.4403 48.4998 37.3096 3 0.000132987 -4.10466
12849 1 20.5809 48.507 34.9795 3 0.000126257 -4.10464
12850 1 23.1582 48.4848 34.9755 3 0.000143575 -4.10489
12851 1 22.2994 48.4924 32.6455 3 0.000139127 -4.10475
12852 1 24.8743 48.4699 32.6417 3 0.000143716 -4.10529
12853 1 24.0165 48.4772 30.3115 3 0.000145168 -4.10508
12854 1 26.5882 48.4563 30.3085 3 0.000135718 -4.10576
12855 1 25.7316 48.4629 27.978 3 0.000140372 -4.10553
12856 1 28.3 48.4453 27.9762 3 0.000123208 -4.1062
12857 1 27.4444 48.4504 25.6452 3 0.00012986 -4.10599
12858 1 30.0101 48.4378 25.6446 3 0.000110689 -4.10652
12859 1 29.1552 48.4411 23.3132 3 0.000116495 -4.10638
12860 1 31.719 48.4345 23.3135 3 0.000103859 -4.10666
12861 1 30.8646 48.4356 20.982 3 0.000106248 -4.10661
12862 1 33.4278 48.4356 20.9826 3 0.000106248 -4.10661
12863 1 32.5734 48.4345 18.651 3 0.000103859 -4.10666
12864 1 35.1372 48.4411 18.6513 3 0.000116495 -4.10638
12865 1 34.2823 48.4378 16.32 3 0.000110689 -4.10652
12866 1 36.848 48.4504 16.3193 3 0.00012986 -4.10599
12867 1 35.9924 48.4453 13.9884 3 0.000123208 -4.1062
12868 1 38.5608 48.4629 13.9865 3 0.000140372 -4.10553
12869 1 37.7041 48.4563 11.656 3 0.000135718 -4.10576
12870 1 40.2759 48.4772 11.653 3 0.000145168 -4.10508
12871 1 39.4181 48.4699 9.32281 3 0.000143716 -4.10529
12872 1 41.9929 48.4924 9.31902 3 0.000139127 -4.10475
12873 1 41.1342 48.4848 6.989 3 0.000143575 -4.10489
12874 1 43.7115 48.507 6.98503 3 0.000126257 -4.10464
12875 1 42.8521 48.4998 4.65495 3 0.000132987 -4.10466
12876 1 45.4305 48.5201 4.65144 3 0.000112472 -4.10479
12877 1 44.571 48.5138 2.32112 3 0.000119477 -4.10468
12878 1 47.1494 48.5312 2.31854 3 9.70858e-05 -4.10514
12879 1 46.29 48.526 48.9465 3 0.000105127 -4.10495
12880 1 48.8674 48.5401 48.945 3 7.96234e-05 -4.10559
12881 1 13.693 46.547 47.8091 3 7.90868e-05 -4.10655
12882 1 16.2675 46.5349 47.8092 3 0.000114647 -4.10559
12883 1 15.409 46.5395 45.478 3 0.000101775 -4.10592
12884 1 17.9857 46.5238 45.477 3 0.000141292 -4.10492
12885 1 17.1264 46.5297 43.1462 3 0.000128135 -4.10526
12886 1 19.7053 46.5098 43.1439 3 0.000162836 -4.10431
12887 1 18.8454 46.5172 40.8136 3 0.000153068 -4.1046
12888 1 21.4258 46.493 40.81 3 0.00018036 -4.10394
12889 1 20.5655 46.5017 38.48 3 0.000171451 -4.10408
12890 1 23.1461 46.4742 38.4756 3 0.000203648 -4.10391
12891 1 22.2861 46.4838 36.1458 3 0.000191148 -4.10387
12892 1 24.865 46.455 36.1411 3 0.000222515 -4.1042
12893 1 24.0058 46.4645 33.8113 3 0.000215458 -4.10402
12894 1 26.5817 46.4371 33.8072 3 0.000223329 -4.10465
12895 1 25.7236 46.4458 31.477 3 0.000223842 -4.10441
12896 1 28.2958 46.4223 31.4742 3 0.000220441 -4.10515
12897 1 27.439 46.4292 29.1435 3 0.000222862 -4.1049
12898 1 30.0079 46.4121 29.1421 3 0.000210066 -4.10553
12899 1 29.1521 46.4165 26.811 3 0.000215832 -4.10536
12900 1 31.7186 46.4075 26.8106 3 0.000202598 -4.10571
12901 1 30.8634 46.409 24.4793 3 0.000205374 -4.10565
12902 1 33.429 46.409 24.4794 3 0.000205374 -4.10565
12903 1 32.5738 46.4075 22.148 3 0.000202598 -4.10571
12904 1 35.1403 46.4165 22.1476 3 0.000215832 -4.10536
12905 1 34.2845 46.4121 19.8165 3 0.000210066 -4.10553
12906 1 36.8533 46.4292 19.8151 3 0.000222862 -4.1049
12907 1 35.9965 46.4223 17.4844 3 0.000220441 -4.10515
12908 1 38.5687 46.4458 17.4816 3 0.000223842 -4.10441
12909 1 37.7107 46.4371 15.1514 3 0.000223329 -4.10465
12910 1 40.2866 46.4645 15.1474 3 0.000215458 -4.10402
12911 1 39.4274 46.455 12.8175 3 0.000222515 -4.1042
12912 1 42.0063 46.4838 12.8128 3 0.000191148 -4.10387
12913 1 41.1463 46.4742 10.4831 3 0.000203648 -4.10391
12914 1 43.7269 46.5017 10.4786 3 0.000171451 -4.10408
12915 1 42.8666 46.493 8.1486 3 0.00018036 -4.10394
12916 1 45.447 46.5172 8.14507 3 0.000153068 -4.1046
12917 1 44.5871 46.5098 5.81468 3 0.000162836 -4.10431
12918 1 47.166 46.5297 5.81243 3 0.000128135 -4.10526
12919 1 46.3067 46.5238 3.4816 3 0.000141292 -4.10492
12920 1 48.8834 46.5395 3.48062 3 0.000101775 -4.10592
12921 1 48.0249 46.5349 1.14938 3 0.000114647 -4.10559
12922 1 50.5994 46.547 1.14954 3 7.90868e-05 -4.10655
12923 1 17.1034 44.5286 46.646 3 0.000170679 -4.10565
12924 1 19.6816 44.5074 46.6444 3 0.000239108 -4.10415
12925 1 18.8216 44.5154 44.3138 3 0.000217854 -4.10467
12926 1 21.4033 44.4885 44.3107 3 0.000265741 -4.10323
12927 1 20.5422 44.4984 41.9807 3 0.000254382 -4.10366
12928 1 23.1263 44.4661 41.9761 3 0.000295317 -4.10269
12929 1 22.2647 44.4776 39.6465 3 0.00027754 -4.10291
12930 1 24.849 44.4421 39.6411 3 0.000351638 -4.10263
12931 1 23.9878 44.4542 37.3116 3 0.000321394 -4.1026
12932 1 26.5698 44.4192 37.3065 3 0.000378308 -4.10293
12933 1 25.7097 44.4303 34.9767 3 0.00037268 -4.10277
12934 1 28.288 44.3997 34.9727 3 0.000392975 -4.10335
12935 1 27.4293 44.4089 32.6425 3 0.00038288 -4.10312
12936 1 30.0038 44.3861 32.6399 3 0.000400711 -4.10381
12937 1 29.1462 44.3921 30.3091 3 0.000400339 -4.1036
12938 1 31.7178 44.3799 30.3078 3 0.000394144 -4.10404
12939 1 30.8609 44.382 27.9767 3 0.000396516 -4.10396
12940 1 33.4314 44.382 27.976 3 0.000396516 -4.10396
12941 1 32.5746 44.3799 25.6449 3 0.000394144 -4.10404
12942 1 35.1462 44.3921 25.6436 3 0.000400339 -4.1036
12943 1 34.2886 44.3861 23.3128 3 0.000400711 -4.10381
12944 1 36.8631 44.4089 23.3103 3 0.00038288 -4.10312
12945 1 36.0043 44.3997 20.98 3 0.000392975 -4.10335
12946 1 38.5826 44.4303 20.976 3 0.00037268 -4.10277
12947 1 37.7226 44.4192 18.6462 3 0.000378308 -4.10293
12948 1 40.3046 44.4542 18.6411 3 0.000321394 -4.1026
12949 1 39.4434 44.4421 16.3116 3 0.000351638 -4.10263
12950 1 42.0277 44.4776 16.3063 3 0.00027754 -4.10291
12951 1 41.1661 44.4661 13.9766 3 0.000295317 -4.10269
12952 1 43.7502 44.4984 13.9721 3 0.000254382 -4.10366
12953 1 42.8891 44.4885 11.642 3 0.000265741 -4.10323
12954 1 45.4707 44.5154 11.6389 3 0.000217854 -4.10467
12955 1 44.6107 44.5074 9.3083 3 0.000239108 -4.10415
12956 1 47.189 44.5286 9.30674 3 0.000170679 -4.10565
12957 1 46.3301 44.5224 6.97566 3 0.000194065 -4.10517
12958 1 48.9051 44.5387 6.97541 3 0.000130694 -4.10653
12959 1 48.0473 44.534 4.64393 3 0.000149442 -4.10611
12960 1 50.6192 44.5464 4.64478 3 0.000100116 -4.10729
12961 1 49.7623 44.5428 2.31297 3 0.000114335 -4.10692
12962 1 52.3317 44.552 2.31469 3 7.73617e-05 -4.10793
12963 1 51.4756 44.5494 48.9413 3 8.78852e-05 -4.10762
12964 1 54.0428 44.5561 48.9437 3 6.04978e-05 -4.10847
12965 1 18.7898 42.5143 47.8132 3 0.000300849 -4.10512
12966 1 21.3708 42.4862 47.811 3 0.00042324 -4.10279
12967 1 20.5096 42.4968 45.4807 3 0.000393942 -4.10359
12968 1 23.096 42.4611 45.4766 3 0.000450511 -4.10145
12969 1 22.233 42.4743 43.1469 3 0.000438746 -4.10206
12970 1 24.8233 42.4324 43.1414 3 0.000529361 -4.10061
12971 1 23.9595 42.4471 40.812 3 0.000477406 -4.10095
12972 1 26.5501 42.4036 40.8061 3 0.000666688 -4.10046
12973 1 25.6869 42.4177 38.4767 3 0.000607066 -4.10044
12974 1 28.2745 42.3787 38.4716 3 0.000686635 -4.10053
12975 1 27.4126 42.3905 36.1417 3 0.000677918 -4.10047
12976 1 29.9965 42.3605 36.138 3 0.000772711 -4.10088
12977 1 29.1358 42.3686 33.8077 3 0.000727556 -4.10066
12978 1 31.7164 42.3521 33.8051 3 0.000798772 -4.10116
12979 1 30.8566 42.355 31.4744 3 0.000797129 -4.10107
12980 1 33.4358 42.355 31.4724 3 0.000797129 -4.10107
12981 1 32.576 42.3521 29.1417 3 0.000798772 -4.10116
12982 1 35.1566 42.3686 29.1392 3 0.000727556 -4.10066
12983 1 34.2959 42.3605 26.8088 3 0.000772711 -4.10088
12984 1 36.8798 42.3905 26.8051 3 0.000677918 -4.10047
12985 1 36.0179 42.3787 24.4752 3 0.000686635 -4.10053
12986 1 38.6055 42.4177 24.4701 3 0.000607066 -4.10044
12987 1 37.7423 42.4036 22.1407 3 0.000666688 -4.10046
12988 1 40.3329 42.4471 22.1348 3 0.000477406 -4.10095
12989 1 39.4691 42.4324 19.8054 3 0.000529361 -4.10061
12990 1 42.0594 42.4743 19.7999 3 0.000438746 -4.10206
12991 1 41.1964 42.4611 17.4702 3 0.000450511 -4.10145
12992 1 43.7828 42.4968 17.4661 3 0.000393942 -4.10359
12993 1 42.9215 42.4862 15.1358 3 0.00042324 -4.10279
12994 1 45.5025 42.5143 15.1336 3 0.000300849 -4.10512
12995 1 44.6431 42.5061 12.8027 3 0.000348477 -4.10439
12996 1 47.219 42.5276 12.802 3 0.000222109 -4.10638
12997 1 46.3611 42.5214 10.4707 3 0.000258139 -4.10578
12998 1 48.9327 42.5375 10.4712 3 0.000166097 -4.10743
12999 1 48.0762 42.5329 8.13949 3 0.000191662 -4.10693
13000 1 50.6442 42.5449 8.14101 3 0.000126503 -4.10829
13001 1 49.7887 42.5415 5.80901 3 0.000144591 -4.10788
13002 1 52.3538 42.5502 5.81126 3 9.82295e-05 -4.109
13003 1 51.4992 42.5478 3.47904 3 0.000111213 -4.10866
13004 1 54.0619 42.5541 3.48185 3 7.77779e-05 -4.10959
13005 1 53.208 42.5523 1.14947 3 8.71759e-05 -4.10931
13006 1 55.7687 42.5568 1.15269 3 6.28703e-05 -4.11006
13007 1 22.1889 40.4736 46.6461 3 0.000739321 -4.1016
13008 1 24.7835 40.427 46.6411 3 0.000755249 -4.09835
13009 1 23.9174 40.4438 44.3116 3 0.000740759 -4.09934
13010 1 26.518 40.392 44.3055 3 0.00102093 -4.097
13011 1 25.6506 40.4095 41.9762 3 0.000834341 -4.09754
13012 1 28.2517 40.3604 41.9705 3 0.00123587 -4.0965
13013 1 27.3853 40.3753 39.6407 3 0.00120617 -4.09682
13014 1 29.9833 40.337 39.6363 3 0.00140882 -4.09595
13015 1 29.1177 40.3475 37.3063 3 0.00125765 -4.09618
13016 1 31.7138 40.3255 37.3024 3 0.00174833 -4.0961
13017 1 30.8487 40.3294 34.9723 3 0.00161514 -4.096
13018 1 33.4437 40.3294 34.9686 3 0.00161514 -4.096
13019 1 32.5786 40.3255 32.6385 3 0.00174833 -4.0961
13020 1 35.1747 40.3475 32.6346 3 0.00125765 -4.09618
13021 1 34.309 40.337 30.3046 3 0.00140882 -4.09595
13022 1 36.9071 40.3753 30.3002 3 0.00120617 -4.09682
13023 1 36.0407 40.3604 27.9704 3 0.00123587 -4.0965
13024 1 38.6418 40.4095 27.9646 3 0.000834341 -4.09754
13025 1 37.7744 40.392 25.6354 3 0.00102093 -4.097
13026 1 40.375 40.4438 25.6293 3 0.000740759 -4.09934
13027 1 39.5088 40.427 23.2998 3 0.000755249 -4.09835
13028 1 42.1035 40.4736 23.2947 3 0.000739321 -4.1016
13029 1 41.24 40.4595 20.9648 3 0.0007533 -4.10038
13030 1 43.8259 40.4963 20.9618 3 0.000568832 -4.10409
13031 1 42.9655 40.4858 18.631 3 0.000674869 -4.10288
13032 1 45.5433 40.5133 18.6299 3 0.000391777 -4.10601
13033 1 44.6851 40.5054 16.2987 3 0.000470604 -4.10512
13034 1 47.2567 40.5259 16.299 3 0.000281858 -4.10748
13035 1 46.4004 40.5201 13.9673 3 0.000330859 -4.10679
13036 1 48.967 40.5352 13.9686 3 0.000209224 -4.10863
13037 1 48.1122 40.5309 11.6367 3 0.000241917 -4.10809
13038 1 50.6748 40.542 11.6387 3 0.00015952 -4.10956
13039 1 49.8212 40.5389 9.30658 3 0.000182154 -4.10912
13040 1 52.3807 40.5468 9.30915 3 0.000124584 -4.11031
13041 1 51.528 40.5446 6.97686 3 0.000140532 -4.10995
13042 1 54.085 40.5503 6.97981 3 9.9578e-05 -4.11092
13043 1 53.233 40.5487 4.64741 3 0.00011106 -4.11063
13044 1 55.788 40.5526 4.65064 3 8.15436e-05 -4.11141
13045 1 54.9366 40.5515 2.31816 3 8.98292e-05 -4.11118
13046 1 57.49 40.5542 2.32158 3 6.85581e-05 -4.11179
13047 1 56.6391 40.5535 48.9477 3 7.44571e-05 -4.11161
13048 1 59.1912 40.5552 48.9512 3 5.94724e-05 -4.11209
13049 1 23.8584 38.4448 47.8093 3 0.00142618 -4.09789
13050 1 26.4684 38.3862 47.8035 3 0.00138854 -4.09254
13051 1 25.5966 38.4067 45.4742 3 0.00134237 -4.0943
13052 1 28.2147 38.3464 45.4679 3 0.0022478 -4.09076
13053 1 27.3412 38.3657 43.1387 3 0.0017486 -4.09123
13054 1 29.9602 38.3177 43.1342 3 0.00244152 -4.08852
13055 1 29.0873 38.3306 40.804 3 0.00233031 -4.08967
13056 1 31.7086 38.3031 40.7998 3 0.00352126 -4.08753
13057 1 30.834 38.3084 38.4701 3 0.00293151 -4.08757
13058 1 33.4583 38.3084 38.4649 3 0.00293151 -4.08757
13059 1 32.5838 38.3031 36.1352 3 0.00352126 -4.08753
13060 1 35.2051 38.3306 36.131 3 0.00233031 -4.08967
13061 1 34.3321 38.3177 33.8008 3 0.00244152 -4.08852
13062 1 36.9511 38.3657 33.7962 3 0.0017486 -4.09123
13063 1 36.0777 38.3464 31.467 3 0.0022478 -4.09076
13064 1 38.6958 38.4067 31.4608 3 0.00134237 -4.0943
13065 1 37.824 38.3862 29.1315 3 0.00138854 -4.09254
13066 1 40.434 38.4448 29.1257 3 0.00142618 -4.09789
13067 1 39.5659 38.4263 26.7962 3 0.00134931 -4.09617
13068 1 42.1618 38.4747 26.7922 3 0.00123353 -4.10194
13069 1 41.2992 38.461 24.4617 3 0.00140074 -4.09991
13070 1 43.8807 38.496 24.4601 3 0.000745357 -4.10521
13071 1 43.022 38.4862 22.129 3 0.000956126 -4.10379
13072 1 45.5938 38.5116 22.1289 3 0.000497936 -4.10738
13073 1 44.7379 38.5044 19.7973 3 0.000601529 -4.10638
13074 1 47.3027 38.523 19.7983 3 0.000355448 -4.10893
13075 1 46.4487 38.5177 17.4665 3 0.000418448 -4.10821
13076 1 49.0084 38.5312 17.4682 3 0.000262943 -4.11013
13077 1 48.1559 38.5274 15.1362 3 0.000304374 -4.10957
13078 1 50.7115 38.5371 15.1384 3 0.000200182 -4.11108
13079 1 49.8603 38.5344 12.8062 3 0.00022877 -4.11063
13080 1 52.4127 38.5412 12.8088 3 0.000156521 -4.11184
13081 1 51.5623 38.5393 10.4765 3 0.000176425 -4.11148
13082 1 54.1123 38.5441 10.4793 3 0.000125644 -4.11245
13083 1 53.2627 38.5428 8.14696 3 0.000139759 -4.11216
13084 1 55.8106 38.546 8.1498 3 0.000103655 -4.11293
13085 1 54.9616 38.5451 5.81747 3 0.000113716 -4.11271
13086 1 57.508 38.5472 5.82039 3 8.81217e-05 -4.11331
13087 1 56.6594 38.5467 3.48805 3 9.52062e-05 -4.11313
13088 1 59.2047 38.548 3.49102 3 7.738e-05 -4.11359
13089 1 58.3565 38.5477 1.15866 3 8.22134e-05 -4.11346
13090 1 60.9009 38.5485 1.16165 3 7.03797e-05 -4.11379
13091 1 27.2748 36.3642 46.6341 3 0.00319715 -4.08379
13092 1 29.9249 36.3051 46.6298 3 0.00609461 -4.07857
13093 1 29.0408 36.3193 44.2988 3 0.00590725 -4.08035
13094 1 31.7006 36.2915 44.2972 3 0.00557803 -4.07038
13095 1 30.8112 36.2955 41.9674 3 0.00589158 -4.07495
13096 1 33.4811 36.2955 41.9617 3 0.00589158 -4.07495
13097 1 32.5918 36.2915 39.6318 3 0.00557803 -4.07038
13098 1 35.2516 36.3193 39.6303 3 0.00590725 -4.08035
13099 1 34.3675 36.3051 37.2992 3 0.00609461 -4.07857
13100 1 37.0176 36.3642 37.2949 3 0.00319715 -4.08379
13101 1 36.1358 36.341 34.965 3 0.00417114 -4.08046
13102 1 38.7722 36.4098 34.9609 3 0.00308206 -4.0913
13103 1 37.8966 36.3874 32.6309 3 0.00318988 -4.08774
13104 1 40.5129 36.4493 32.6265 3 0.00306559 -4.09744
13105 1 39.645 36.4312 30.2962 3 0.00321826 -4.09408
13106 1 42.2355 36.4759 30.2941 3 0.00172688 -4.10345
13107 1 41.3761 36.4641 27.9631 3 0.00251009 -4.10069
13108 1 43.9485 36.4947 27.9625 3 0.000962799 -4.10695
13109 1 43.0929 36.4861 25.6311 3 0.00124811 -4.10542
13110 1 45.6554 36.5081 25.6315 3 0.000641136 -4.10919
13111 1 44.8026 36.502 23.2999 3 0.00077966 -4.10821
13112 1 47.3581 36.5178 23.301 3 0.000448906 -4.11076
13113 1 46.5073 36.5134 20.9692 3 0.000533808 -4.11003
13114 1 49.0577 36.5247 20.9707 3 0.00032674 -4.11193
13115 1 48.2082 36.5215 18.6388 3 0.000381385 -4.11138
13116 1 50.7548 36.5295 18.6406 3 0.000245275 -4.11284
13117 1 49.9065 36.5273 16.3086 3 0.00028186 -4.11242
13118 1 52.4501 36.5328 16.3105 3 0.000190284 -4.11357
13119 1 51.6027 36.5313 13.9785 3 0.000215238 -4.11322
13120 1 54.144 36.535 13.9804 3 0.000152629 -4.11414
13121 1 53.2972 36.5341 11.6484 3 0.000169651 -4.11387
13122 1 55.8369 36.5365 11.6504 3 0.000126611 -4.11459
13123 1 54.9906 36.5358 9.31835 3 0.000138424 -4.11437
13124 1 57.5289 36.5373 9.3203 3 0.000108721 -4.11494
13125 1 56.6829 36.537 6.98829 3 0.000116846 -4.11477
13126 1 59.2202 36.5378 6.99023 3 9.66157e-05 -4.1152
13127 1 58.3746 36.5376 4.65822 3 0.000102039 -4.11508
13128 1 60.9112 36.5381 4.66016 3 8.88578e-05 -4.11538
13129 1 60.0658 36.538 2.32815 3 9.22731e-05 -4.1153
13130 1 62.6019 36.5382 2.33008 3 8.45085e-05 -4.11548
13131 1 61.7565 36.5382 48.9567 3 8.62987e-05 -4.11544
13132 1 28.9651 34.3246 47.7917 3 0.0181084 -4.04794
13133 1 31.6902 34.2996 47.7887 3 0.00450936 -4.04392
13134 1 30.7788 34.2971 45.454 3 0.0167218 -4.04061
13135 1 33.5136 34.2971 45.4692 3 0.0167218 -4.04061
13136 1 32.6022 34.2996 43.1345 3 0.00450936 -4.04392
13137 1 35.3273 34.3246 43.1314 3 0.0181084 -4.04794
13138 1 34.4203 34.3014 40.8045 3 0.0265573 -4.04467
13139 1 37.1181 34.3716 40.8026 3 0.0124144 -4.0745
13140 1 36.2268 34.3478 38.4699 3 0.0138828 -4.06229
13141 1 38.882 34.4208 38.4689 3 0.0097437 -4.08763
13142 1 38.002 34.396 36.1395 3 0.0105301 -4.0821
13143 1 40.616 34.4548 36.1357 3 0.00592012 -4.09891
13144 1 39.7529 34.4403 33.8053 3 0.00816224 -4.09364
13145 1 42.3282 34.4759 33.8027 3 0.00235013 -4.10581
13146 1 41.4732 34.4661 31.4722 3 0.00352723 -4.10307
13147 1 44.0316 34.4908 31.4706 3 0.00131102 -4.10947
13148 1 43.1809 34.484 29.1395 3 0.00171058 -4.10786
13149 1 45.7296 34.5017 29.139 3 0.00082256 -4.11151
13150 1 44.8812 34.4967 26.8077 3 0.0010314 -4.11059
13151 1 47.4237 34.5094 26.8078 3 0.000544517 -4.11294
13152 1 46.577 34.5058 24.4764 3 0.000662642 -4.11231
13153 1 49.1152 34.5148 24.4766 3 0.000379088 -4.114
13154 1 48.2698 34.5123 22.1452 3 0.000452612 -4.1135
13155 1 50.8048 34.5185 22.1456 3 0.000278421 -4.11479
13156 1 49.9602 34.5168 19.8141 3 0.000322982 -4.11441
13157 1 52.4929 34.521 19.8145 3 0.000213748 -4.11541
13158 1 51.649 34.5199 17.483 3 0.000242188 -4.11512
13159 1 54.1801 34.5225 17.4834 3 0.000171836 -4.1159
13160 1 53.3366 34.5218 15.1519 3 0.000190723 -4.11567
13161 1 55.8664 34.5235 15.1524 3 0.000144167 -4.11628
13162 1 55.0233 34.5231 12.8209 3 0.000156629 -4.1161
13163 1 57.5522 34.524 12.8213 3 0.000125593 -4.11657
13164 1 56.7094 34.5238 10.4898 3 0.000133924 -4.11644
13165 1 59.2376 34.5243 10.4902 3 0.000113274 -4.11679
13166 1 58.395 34.5242 8.15873 3 0.000118807 -4.11669
13167 1 60.9227 34.5244 8.15918 3 0.000105486 -4.11695
13168 1 60.0802 34.5243 5.82767 3 0.00010893 -4.11688
13169 1 62.6076 34.5244 5.82811 3 0.000101178 -4.11704
13170 1 61.7651 34.5244 3.4966 3 0.000102928 -4.117
13171 1 63.45 34.5244 1.16553 3 0.000100115 -4.11706
13172 1 32.6042 32.3221 46.6314 5 3.36755 -4.03647
13173 1 35.4646 32.3602 46.6651 5 4.64227 -4.02379
13174 1 34.5102 32.3586 44.3204 5 4.33741 -4.00223
13175 1 37.2813 32.3907 44.3372 3 5.2658 -4.0762
13176 1 36.3789 32.3699 42.006 5 4.98126 -4.05262
13177 1 39.0415 32.4359 41.998 3 0.0366545 -4.09445
13178 1 38.1721 32.4177 39.6704 3 5.44731 -4.08656
13179 1 40.7495 32.4566 39.658 3 0.00962052 -4.10511
13180 1 39.8992 32.4477 37.3304 3 0.0199622 -4.10077
13181 1 42.445 32.4714 37.3208 3 0.00359885 -4.11056
13182 1 41.5986 32.4646 34.9918 3 0.00575021 -4.10828
13183 1 44.1328 32.4822 34.986 3 0.00165626 -4.11302
13184 1 43.2892 32.477 32.6563 3 0.00232825 -4.11213
13185 1 45.8171 32.4902 32.6523 3 0.000870441 -4.11448
13186 1 44.9754 32.4865 30.322 3 0.00118508 -4.11381
13187 1 47.4995 32.4961 30.319 3 0.000543753 -4.11541
13188 1 46.6585 32.4934 27.9885 3 0.000686325 -4.11496
13189 1 49.1805 32.5002 27.986 3 0.00037052 -4.11615
13190 1 48.3401 32.4983 25.6554 3 0.000439292 -4.11582
13191 1 50.8606 32.503 25.6532 3 0.000271177 -4.11673
13192 1 50.0206 32.5017 23.3225 3 0.000314636 -4.11645
13193 1 52.5403 32.5048 23.3205 3 0.000213233 -4.11719
13194 1 51.7005 32.504 20.9898 3 0.00023953 -4.11697
13195 1 54.2196 32.5059 20.988 3 0.000175519 -4.11756
13196 1 53.38 32.5054 18.6572 3 0.000192013 -4.11739
13197 1 55.8986 32.5065 18.6556 3 0.000150226 -4.11785
13198 1 55.0591 32.5063 16.3247 3 0.000161637 -4.11771
13199 1 57.5775 32.5068 16.3232 3 0.000133417 -4.11808
13200 1 56.7381 32.5067 13.9923 3 0.000141077 -4.11797
13201 1 59.2563 32.5069 13.9909 3 0.000122039 -4.11825
13202 1 58.4169 32.5069 11.66 3 0.00012712 -4.11817
13203 1 60.935 32.5069 11.6586 3 0.000114696 -4.11837
13204 1 60.0957 32.5069 9.32769 3 0.000117929 -4.11831
13205 1 62.6137 32.5069 9.32634 3 0.000110635 -4.11844
13206 1 61.7744 32.5069 6.99542 3 0.000112312 -4.11841
13207 1 63.4531 32.5069 4.66317 3 0.000109647 -4.11845
13208 1 0.857232 62.5896 47.7929 5 12.3402 -3.52387
13209 1 0 62.5896 45.4616 5 12.3402 -3.52387
13210 1 2.5717 62.5896 45.4616 5 12.3402 -3.52387
13211 1 1.71446 62.5896 43.1302 5 12.3402 -3.52387
13212 1 4.28616 62.5896 43.1302 5 12.3402 -3.52387
13213 1 3.42893 62.5896 40.7989 5 12.3402 -3.52387
13214 1 6.00062 62.5896 40.7989 5 12.3402 -3.52387
13215 1 5.14339 62.5896 38.4675 5 12.3402 -3.52387
13216 1 7.71509 62.5896 38.4675 5 12.3402 -3.52387
13217 1 6.85785 62.5896 36.1361 5 12.3402 -3.52387
13218 1 9.42955 62.5896 36.1361 5 12.3402 -3.52387
13219 1 8.57232 62.5896 33.8048 5 12.3402 -3.52387
13220 1 11.144 62.5896 33.8048 5 12.3402 -3.52387
13221 1 10.2868 62.5896 31.4734 5 12.3402 -3.52387
13222 1 12.8585 62.5896 31.4734 5 12.3402 -3.52387
13223 1 12.0012 62.5896 29.142 5 12.3402 -3.52387
13224 1 14.5729 62.5896 29.142 5 12.3402 -3.52387
13225 1 13.7157 62.5896 26.8107 5 12.3402 -3.52387
13226 1 16.2874 62.5896 26.8107 5 12.3402 -3.52387
13227 1 15.4302 62.5896 24.4793 5 12.3402 -3.52387
13228 1 18.0019 62.5896 24.4793 5 12.3402 -3.52387
13229 1 17.1446 62.5896 22.1479 5 12.3402 -3.52387
13230 1 19.7163 62.5896 22.1479 5 12.3402 -3.52387
13231 1 18.8591 62.5896 19.8166 5 12.3402 -3.52387
13232 1 21.4308 62.5896 19.8166 5 12.3402 -3.52387
13233 1 20.5736 62.5896 17.4852 5 12.3402 -3.52387
13234 1 23.1453 62.5896 17.4852 5 12.3402 -3.52387
13235 1 22.288 62.5896 15.1539 5 12.3402 -3.52387
13236 1 24.8597 62.5896 15.1539 5 12.3402 -3.52387
13237 1 24.0025 62.5896 12.8225 5 12.3402 -3.52387
13238 1 26.5742 62.5896 12.8225 5 12.3402 -3.52387
13239 1 25.717 62.5896 10.4911 5 12.3402 -3.52387
13240 1 28.2886 62.5896 10.4911 5 12.3402 -3.52387
13241 1 27.4314 62.5896 8.15977 5 12.3402 -3.52387
13242 1 30.0031 62.5896 8.15977 5 12.3402 -3.52387
13243 1 29.1459 62.5896 5.82841 5 12.3402 -3.52387
13244 1 31.7176 62.5896 5.82841 5 12.3402 -3.52387
13245 1 30.8603 62.5896 3.49704 5 12.3402 -3.52387
13246 1 33.432 62.5896 3.49704 5 12.3402 -3.52387
13247 1 32.5748 62.5896 1.16568 5 12.3402 -3.52387
13248 1 35.1465 62.5896 1.16568 5 12.3402 -3.52387
13249 1 1.71446 60.5706 46.6273 3 4.5545e-16 -4.09064
13250 1 4.28616 60.5706 46.6273 3 1.0169e-16 -4.09062
13251 1 3.42893 60.5706 44.2959 3 1e-16 -4.09062
13252 1 6.00062 60.5706 44.2959 3 1e-16 -4.09059
13253 1 5.14339 60.5706 41.9645 3 1e-16 -4.09061
13254 1 7.71509 60.5706 41.9645 3 4e-16 -4.09056
13255 1 6.85785 60.5706 39.6332 3 4e-16 -4.09058
13256 1 9.42955 60.5706 39.6332 3 4.41762e-28 -4.09052
13257 1 8.57232 60.5706 37.3018 3 1e-16 -4.09054
13258 1 11.144 60.5706 37.3018 3 4e-16 -4.09046
13259 1 10.2868 60.5706 34.9704 3 9.99999e-17 -4.09049
13260 1 12.8585 60.5706 34.9704 3 1e-16 -4.0904
13261 1 12.0012 60.5706 32.6391 3 4e-16 -4.09043
13262 1 14.5729 60.5706 32.6391 3 1e-16 -4.09032
13263 1 13.7157 60.5706 30.3077 3 1e-16 -4.09036
13264 1 16.2874 60.5706 30.3077 3 4e-16 -4.09022
13265 1 15.4302 60.5706 27.9764 3 1e-16 -4.09027
13266 1 18.0019 60.5706 27.9764 3 1e-16 -4.09012
13267 1 17.1446 60.5706 25.645 3 4e-16 -4.09017
13268 1 19.7163 60.5706 25.645 3 1e-16 -4.09001
13269 1 18.8591 60.5706 23.3136 3 4.54384e-28 -4.09006
13270 1 21.4308 60.5706 23.3136 3 4e-16 -4.08989
13271 1 20.5736 60.5706 20.9823 3 3.99999e-16 -4.08995
13272 1 23.1453 60.5706 20.9823 3 4.03897e-28 -4.08978
13273 1 22.288 60.5706 18.6509 3 1e-16 -4.08984
13274 1 24.8597 60.5706 18.6509 3 4e-16 -4.08968
13275 1 24.0025 60.5706 16.3195 3 1e-16 -4.08973
13276 1 26.5742 60.5706 16.3195 3 9.99999e-17 -4.08959
13277 1 25.717 60.5706 13.9882 3 4e-16 -4.08964
13278 1 28.2886 60.5706 13.9882 3 1e-16 -4.08953
13279 1 27.4314 60.5706 11.6568 3 1e-16 -4.08956
13280 1 30.0031 60.5706 11.6568 3 4e-16 -4.08948
13281 1 29.1459 60.5706 9.32545 3 1e-16 -4.0895
13282 1 31.7176 60.5706 9.32545 3 1e-16 -4.08946
13283 1 30.8603 60.5706 6.99409 3 4e-16 -4.08947
13284 1 33.432 60.5706 6.99409 3 9.99999e-17 -4.08947
13285 1 32.5748 60.5706 4.66273 3 4.03897e-28 -4.08946
13286 1 35.1465 60.5706 4.66273 3 4.00001e-16 -4.0895
13287 1 34.2893 60.5706 2.33136 3 4e-16 -4.08948
13288 1 36.861 60.5706 2.33136 3 1e-16 -4.08956
13289 1 36.0037 60.5706 0 3 1.0507e-16 -4.08953
13290 1 38.5754 60.5706 0 3 1.0507e-16 -4.08964
13291 1 3.42893 58.5516 47.7929 3 0.00097187 -4.10598
13292 1 6.00062 58.5516 47.7929 3 0.00093209 -4.10595
13293 1 5.14339 58.5516 45.4616 3 0.000947848 -4.10596
13294 1 7.71509 58.5516 45.4616 3 0.00089312 -4.10592
13295 1 6.85785 58.5516 43.1302 3 0.00091382 -4.10593
13296 1 9.42955 58.5516 43.1302 3 0.000844684 -4.10589
13297 1 8.57232 58.5516 40.7989 3 0.000870029 -4.1059
13298 1 11.144 58.5516 40.7989 3 0.000787922 -4.10586
13299 1 10.2868 58.5516 38.4675 3 0.000817217 -4.10587
13300 1 12.8585 58.5516 38.4675 3 0.000724881 -4.10583
13301 1 12.0012 58.5516 36.1361 3 0.000757017 -4.10584
13302 1 14.5729 58.5516 36.1361 3 0.000658332 -4.1058
13303 1 13.7157 58.5516 33.8048 3 0.000691861 -4.10581
13304 1 16.2874 58.5516 33.8048 3 0.000591074 -4.10578
13305 1 15.4302 58.5516 31.4734 3 0.000624647 -4.10579
13306 1 18.0019 58.5516 31.4734 3 0.000524669 -4.10577
13307 1 17.1446 58.5516 29.142 3 0.000557723 -4.10578
13308 1 19.7163 58.5516 29.142 3 0.000458403 -4.10576
13309 1 18.8591 58.5516 26.8107 3 0.000491636 -4.10577
13310 1 21.4308 58.5516 26.8107 3 0.000389679 -4.10576
13311 1 20.5736 58.5516 24.4793 3 0.000424557 -4.10576
13312 1 23.1453 58.5516 24.4793 3 0.000315834 -4.10575
13313 1 22.288 58.5516 22.1479 3 0.000353488 -4.10575
13314 1 24.8597 58.5516 22.1479 3 0.000236862 -4.10575
13315 1 24.0025 58.5516 19.8166 3 0.000276842 -4.10575
13316 1 26.5742 58.5516 19.8166 3 0.000157252 -4.10574
13317 1 25.717 58.5516 17.4852 3 0.000196676 -4.10574
13318 1 28.2886 58.5516 17.4852 3 8.5703e-05 -4.10574
13319 1 27.4314 58.5516 15.1539 3 0.000119794 -4.10574
13320 1 30.0031 58.5516 15.1539 3 3.29962e-05 -4.10574
13321 1 29.1459 58.5516 12.8225 3 5.6351e-05 -4.10574
13322 1 31.7176 58.5516 12.8225 3 8.46362e-06 -4.10574
13323 1 30.8603 58.5516 10.4911 3 1.67882e-05 -4.10574
13324 1 33.432 58.5516 10.4911 3 1.67882e-05 -4.10574
13325 1 32.5748 58.5516 8.15977 3 8.46362e-06 -4.10574
13326 1 35.1465 58.5516 8.15977 3 5.63512e-05 -4.10574
13327 1 34.2893 58.5516 5.82841 3 3.29959e-05 -4.10574
13328 1 36.861 58.5516 5.82841 3 0.000119794 -4.10574
13329 1 36.0037 58.5516 3.49704 3 8.57031e-05 -4.10574
13330 1 38.5754 58.5516 3.49704 3 0.000196676 -4.10574
13331 1 37.7182 58.5516 1.16568 3 0.000157252 -4.10574
13332 1 40.2899 58.5516 1.16568 3 0.000276842 -4.10575
13333 1 6.86028 56.5537 46.6294 3 1.01318e-05 -4.10564
13334 1 9.43344 56.5526 46.6299 3 2.03596e-05 -4.10557
13335 1 8.57568 56.553 44.2984 3 1.64285e-05 -4.10559
13336 1 11.1491 56.5515 44.2987 3 2.9918e-05 -4.10552
13337 1 10.2913 56.5521 41.9673 3 2.4852e-05 -4.10554
13338 1 12.8649 56.5502 41.9674 3 4.12987e-05 -4.10547
13339 1 12.007 56.5509 39.636 3 3.5419e-05 -4.10549
13340 1 14.5808 56.5487 39.6359 3 5.34402e-05 -4.10545
13341 1 13.7229 56.5495 37.3046 3 4.74132e-05 -4.10546
13342 1 16.2967 56.5468 37.3042 3 6.4315e-05 -4.10546
13343 1 15.4388 56.5478 34.973 3 5.91397e-05 -4.10545
13344 1 18.0124 56.5447 34.9723 3 7.15175e-05 -4.10551
13345 1 17.1546 56.5458 32.6412 3 6.85784e-05 -4.10548
13346 1 19.7277 56.5425 32.6404 3 7.32526e-05 -4.10558
13347 1 18.8701 56.5436 30.3093 3 7.31499e-05 -4.10554
13348 1 21.4425 56.5402 30.3084 3 6.91736e-05 -4.10569
13349 1 20.5851 56.5413 27.9774 3 7.18433e-05 -4.10563
13350 1 23.1566 56.5379 27.9766 3 6.07179e-05 -4.1058
13351 1 22.2996 56.539 25.6454 3 6.5392e-05 -4.10574
13352 1 24.8701 56.5359 25.6448 3 4.99747e-05 -4.10592
13353 1 24.0134 56.5369 23.3136 3 5.54688e-05 -4.10586
13354 1 26.5829 56.5341 23.3132 3 3.9008e-05 -4.10603
13355 1 25.7266 56.5349 20.982 3 4.43784e-05 -4.10598
13356 1 28.2951 56.5327 20.9818 3 2.97496e-05 -4.10612
13357 1 27.4391 56.5333 18.6505 3 3.40923e-05 -4.10608
13358 1 30.0068 56.5317 18.6506 3 2.33292e-05 -4.10618
13359 1 29.151 56.5321 16.3192 3 2.61152e-05 -4.10615
13360 1 31.7183 56.5313 16.3195 3 2.04271e-05 -4.10621
13361 1 30.8626 56.5315 13.988 3 2.13988e-05 -4.1062
13362 1 33.4298 56.5315 13.9884 3 2.13987e-05 -4.1062
13363 1 32.574 56.5313 11.6569 3 2.04271e-05 -4.10621
13364 1 35.1414 56.5321 11.6572 3 2.61152e-05 -4.10615
13365 1 34.2855 56.5317 9.32574 3 2.33292e-05 -4.10618
13366 1 36.8533 56.5333 9.32588 3 3.40923e-05 -4.10608
13367 1 35.9973 56.5327 6.99451 3 2.97497e-05 -4.10612
13368 1 38.5658 56.5349 6.9944 3 4.43784e-05 -4.10598
13369 1 37.7095 56.5341 4.66312 3 3.9008e-05 -4.10603
13370 1 40.2789 56.5369 4.66273 3 5.54688e-05 -4.10586
13371 1 39.4223 56.5359 2.33154 3 4.99747e-05 -4.10592
13372 1 41.9927 56.539 2.33091 3 6.53921e-05 -4.10574
13373 1 41.1358 56.5379 48.9584 3 6.0718e-05 -4.1058
13374 1 43.7072 56.5413 48.9576 3 7.18434e-05 -4.10563
13375 1 8.57639 54.5547 47.7978 3 1.56108e-05 -4.10645
13376 1 11.1506 54.552 47.7984 3 2.76414e-05 -4.1062
13377 1 10.2925 54.553 45.4669 3 2.3151e-05 -4.10628
13378 1 12.8672 54.5496 45.4672 3 3.78003e-05 -4.10602
13379 1 12.0089 54.5508 43.1358 3 3.2574e-05 -4.10611
13380 1 14.584 54.5465 43.1355 3 4.91134e-05 -4.10588
13381 1 13.7256 54.5481 40.8043 3 4.33513e-05 -4.10594
13382 1 16.3009 54.5429 40.8036 3 6.00846e-05 -4.10578
13383 1 15.4425 54.5448 38.4726 3 5.47837e-05 -4.10582
13384 1 18.0176 54.5386 38.4713 3 6.89167e-05 -4.10576
13385 1 17.1593 54.5408 36.1405 3 6.48974e-05 -4.10576
13386 1 19.7337 54.5339 36.1389 3 7.3189e-05 -4.10583
13387 1 18.8757 54.5363 33.8081 3 7.17161e-05 -4.10579
13388 1 21.4491 54.529 33.8064 3 7.15719e-05 -4.10597
13389 1 20.5915 54.5315 31.4756 3 7.31397e-05 -4.10589
13390 1 23.1634 54.524 31.474 3 6.42053e-05 -4.10616
13391 1 22.3064 54.5265 29.1431 3 6.85282e-05 -4.10606
13392 1 24.8765 54.5194 29.1418 3 5.28765e-05 -4.10637
13393 1 24.0201 54.5217 26.8108 3 5.89024e-05 -4.10627
13394 1 26.5884 54.5154 26.81 3 4.01072e-05 -4.10657
13395 1 25.7325 54.5173 24.4788 3 4.65067e-05 -4.10648
13396 1 28.2992 54.5122 24.4785 3 2.82602e-05 -4.10674
13397 1 27.4439 54.5137 22.1472 3 3.38936e-05 -4.10666
13398 1 30.0093 54.5101 22.1474 3 1.96384e-05 -4.10685
13399 1 29.1543 54.511 19.8159 3 2.34403e-05 -4.1068
13400 1 31.7188 54.5092 19.8165 3 1.5675e-05 -4.1069
13401 1 30.8641 54.5095 17.4849 3 1.70086e-05 -4.10688
13402 1 33.4283 54.5095 17.4856 3 1.70086e-05 -4.10688
13403 1 32.5736 54.5092 15.154 3 1.5675e-05 -4.1069
13404 1 35.1381 54.511 15.1546 3 2.34402e-05 -4.1068
13405 1 34.2831 54.5101 12.823 3 1.96384e-05 -4.10685
13406 1 36.8485 54.5137 12.8233 3 3.38936e-05 -4.10666
13407 1 35.9932 54.5122 10.4919 3 2.82602e-05 -4.10674
13408 1 38.5598 54.5173 10.4916 3 4.65067e-05 -4.10648
13409 1 37.704 54.5154 8.16046 3 4.01072e-05 -4.10657
13410 1 40.2723 54.5217 8.15965 3 5.89024e-05 -4.10627
13411 1 39.4159 54.5194 5.82865 3 5.28765e-05 -4.10637
13412 1 41.986 54.5265 5.82735 3 6.85282e-05 -4.10606
13413 1 41.129 54.524 3.49649 3 6.42053e-05 -4.10616
13414 1 43.7008 54.5315 3.49487 3 7.31397e-05 -4.10589
13415 1 42.8433 54.529 1.16408 3 7.15719e-05 -4.10597
13416 1 45.4166 54.5363 1.16236 3 7.17161e-05 -4.10579
13417 1 12.007 52.5512 46.6355 3 3.4272e-05 -4.10602
13418 1 14.5827 52.5451 46.6353 3 5.10436e-05 -4.10567
13419 1 13.7241 52.5474 44.3041 3 4.51907e-05 -4.10578
13420 1 16.3003 52.5398 44.3032 3 6.287e-05 -4.1055
13421 1 15.4415 52.5426 41.9723 3 5.69808e-05 -4.10558
13422 1 18.0178 52.5334 41.9707 3 7.36589e-05 -4.10544
13423 1 17.159 52.5367 39.64 3 6.85232e-05 -4.10546
13424 1 19.7349 52.5261 39.6378 3 8.14801e-05 -4.10551
13425 1 18.8764 52.5298 37.3073 3 7.80759e-05 -4.10546
13426 1 21.4511 52.5182 37.3048 3 8.37444e-05 -4.10571
13427 1 20.5931 52.5222 34.9743 3 8.34656e-05 -4.1056
13428 1 23.166 52.5103 34.9718 3 7.90727e-05 -4.106
13429 1 22.3087 52.5142 32.6412 3 8.22461e-05 -4.10584
13430 1 24.8793 52.5027 32.6392 3 6.84997e-05 -4.10633
13431 1 24.0229 52.5064 30.3084 3 7.43575e-05 -4.10616
13432 1 26.5911 52.496 30.307 3 5.46001e-05 -4.10665
13433 1 25.7354 52.4992 27.976 3 6.17394e-05 -4.10649
13434 1 28.3014 52.4906 27.9754 3 4.06068e-05 -4.10692
13435 1 27.4464 52.4931 25.6441 3 4.73203e-05 -4.10679
13436 1 30.0106 52.4871 25.6443 3 2.98991e-05 -4.1071
13437 1 29.1561 52.4886 23.3128 3 3.46489e-05 -4.10702
13438 1 31.7191 52.4855 23.3135 3 2.48604e-05 -4.10718
13439 1 30.8649 52.486 20.9818 3 2.65644e-05 -4.10715
13440 1 33.4275 52.486 20.9827 3 2.65644e-05 -4.10715
13441 1 32.5733 52.4855 18.6511 3 2.48604e-05 -4.10718
13442 1 35.1363 52.4886 18.6518 3 3.46489e-05 -4.10702
13443 1 34.2818 52.4871 16.3202 3 2.98991e-05 -4.1071
13444 1 36.846 52.4931 16.3204 3 4.73203e-05 -4.10679
13445 1 35.991 52.4906 13.9891 3 4.06068e-05 -4.10692
13446 1 38.557 52.4992 13.9885 3 6.17394e-05 -4.10649
13447 1 37.7013 52.496 11.6575 3 5.46001e-05 -4.10665
13448 1 40.2695 52.5064 11.6561 3 7.43575e-05 -4.10616
13449 1 39.4131 52.5027 9.32535 3 6.84997e-05 -4.10633
13450 1 41.9837 52.5142 9.32331 3 8.22461e-05 -4.10584
13451 1 41.1264 52.5103 6.99272 3 7.90727e-05 -4.106
13452 1 43.6993 52.5222 6.99028 3 8.34656e-05 -4.1056
13453 1 42.8413 52.5182 4.65976 3 8.37444e-05 -4.10571
13454 1 45.416 52.5298 4.65728 3 7.80759e-05 -4.10546
13455 1 44.5575 52.5261 2.32671 3 8.14801e-05 -4.10551
13456 1 47.1333 52.5367 2.32455 3 6.85232e-05 -4.10546
13457 1 46.2746 52.5334 48.9524 3 7.36589e-05 -4.10544
13458 1 48.8509 52.5426 48.9509 3 5.69808e-05 -4.10558
13459 1 13.7182 50.5472 47.804 3 5.15444e-05 -4.10581
13460 1 16.2947 50.5375 47.8032 3 7.16393e-05 -4.10535
13461 1 15.4357 50.5411 45.4722 3 6.48546e-05 -4.10549
13462 1 18.0128 50.5291 45.4705 3 8.43955e-05 -4.10515
13463 1 17.1537 50.5335 43.1399 3 7.81961e-05 -4.10524
13464 1 19.7309 50.5193 43.1374 3 9.56053e-05 -4.10512
13465 1 18.8719 50.5244 40.807 3 9.02979e-05 -4.10511
13466 1 21.4484 50.5084 40.8039 3 0.000103351 -4.10527
13467 1 20.5898 50.5139 38.4736 3 0.000100003 -4.10517
13468 1 23.1644 50.497 38.4703 3 0.000104207 -4.10558
13469 1 22.3066 50.5027 36.14 3 0.00010485 -4.10541
13470 1 24.8787 50.486 36.1372 3 9.6766e-05 -4.10598
13471 1 24.0218 50.4914 33.8066 3 0.000101376 -4.10578
13472 1 26.5911 50.4761 33.8046 3 8.40064e-05 -4.1064
13473 1 25.7352 50.4809 31.4737 3 9.09351e-05 -4.10619
13474 1 28.3017 50.4682 31.4727 3 6.93604e-05 -4.10675
13475 1 27.4466 50.4719 29.1415 3 7.66996e-05 -4.10659
13476 1 30.0108 50.4629 29.1414 3 5.71964e-05 -4.107
13477 1 29.1564 50.4652 26.8099 3 6.27116e-05 -4.10689
13478 1 31.7192 50.4605 26.8105 3 5.12749e-05 -4.10711
13479 1 30.8651 50.4613 24.4789 3 5.33065e-05 -4.10707
13480 1 33.4273 50.4613 24.4798 3 5.33065e-05 -4.10707
13481 1 32.5732 50.4605 22.1481 3 5.12749e-05 -4.10711
13482 1 35.136 50.4652 22.1487 3 6.27116e-05 -4.10689
13483 1 34.2815 50.4629 19.8172 3 5.71964e-05 -4.107
13484 1 36.8458 50.4719 19.8172 3 7.66996e-05 -4.10659
13485 1 35.9907 50.4682 17.486 3 6.93604e-05 -4.10675
13486 1 38.5572 50.4809 17.4849 3 9.09351e-05 -4.10619
13487 1 37.7013 50.4761 15.1541 3 8.40064e-05 -4.1064
13488 1 40.2706 50.4914 15.152 3 0.000101376 -4.10578
13489 1 39.4136 50.486 12.8215 3 9.6766e-05 -4.10598
13490 1 41.9858 50.5027 12.8186 3 0.00010485 -4.10541
13491 1 41.1279 50.497 10.4883 3 0.000104207 -4.10558
13492 1 43.7026 50.5139 10.485 3 0.000100003 -4.10517
13493 1 42.844 50.5084 8.15477 3 0.000103351 -4.10527
13494 1 45.4204 50.5244 8.15166 3 9.02979e-05 -4.10511
13495 1 44.5614 50.5193 5.82126 3 9.56053e-05 -4.10512
13496 1 47.1386 50.5335 5.81873 3 7.81961e-05 -4.10524
13497 1 46.2795 50.5291 3.48808 3 8.43955e-05 -4.10515
13498 1 48.8567 50.5411 3.48639 3 6.48546e-05 -4.10549
13499 1 47.9977 50.5375 1.15544 3 7.16393e-05 -4.10535
13500 1 50.5742 50.5472 1.15467 3 5.15444e-05 -4.10581
13501 1 17.143 48.5312 46.6401 3 9.70858e-05 -4.10514
13502 1 19.7214 48.5138 46.6375 3 0.000119477 -4.10468
13503 1 18.8618 48.5201 44.3072 3 0.000112472 -4.10479
13504 1 21.4403 48.4998 44.3037 3 0.000132987 -4.10466
13505 1 20.5809 48.507 41.9736 3 0.000126257 -4.10464
13506 1 23.1582 48.4848 41.9696 3 0.000143575 -4.10489
13507 1 22.2994 48.4924 39.6396 3 0.000139127 -4.10475
13508 1 24.8743 48.4699 39.6358 3 0.000143716 -4.10529
13509 1 24.0165 48.4772 37.3056 3 0.000145168 -4.10508
13510 1 26.5882 48.4563 37.3026 3 0.000135718 -4.10576
13511 1 25.7316 48.4629 34.9721 3 0.000140372 -4.10553
13512 1 28.3 48.4453 34.9702 3 0.000123208 -4.1062
13513 1 27.4444 48.4504 32.6393 3 0.00012986 -4.10599
13514 1 30.0101 48.4378 32.6387 3 0.000110689 -4.10652
13515 1 29.1552 48.4411 30.3073 3 0.000116495 -4.10638
13516 1 31.719 48.4345 30.3076 3 0.000103859 -4.10666
13517 1 30.8646 48.4356 27.976 3 0.000106248 -4.10661
13518 1 33.4278 48.4356 27.9767 3 0.000106248 -4.10661
13519 1 32.5734 48.4345 25.6451 3 0.000103859 -4.10666
13520 1 35.1372 48.4411 25.6454 3 0.000116495 -4.10638
13521 1 34.2823 48.4378 23.3141 3 0.000110689 -4.10652
13522 1 36.848 48.4504 23.3134 3 0.00012986 -4.10599
13523 1 35.9924 48.4453 20.9825 3 0.000123208 -4.1062
13524 1 38.5608 48.4629 20.9806 3 0.000140372 -4.10553
13525 1 37.7041 48.4563 18.6501 3 0.000135718 -4.10576
13526 1 40.2759 48.4772 18.6471 3 0.000145168 -4.10508
13527 1 39.4181 48.4699 16.3169 3 0.000143716 -4.10529
13528 1 41.9929 48.4924 16.3131 3 0.000139127 -4.10475
13529 1 41.1342 48.4848 13.9831 3 0.000143575 -4.10489
13530 1 43.7115 48.507 13.9791 3 0.000126257 -4.10464
13531 1 42.8521 48.4998 11.649 3 0.000132987 -4.10466
13532 1 45.4305 48.5201 11.6455 3 0.000112472 -4.10479
13533 1 44.571 48.5138 9.31521 3 0.000119477 -4.10468
13534 1 47.1494 48.5312 9.31263 3 9.70858e-05 -4.10514
13535 1 46.29 48.526 6.98194 3 0.000105127 -4.10495
13536 1 48.8674 48.5401 6.98047 3 7.96234e-05 -4.10559
13537 1 48.0085 48.5359 4.64941 3 8.8415e-05 -4.10536
13538 1 50.5845 48.5471 4.64901 3 6.28605e-05 -4.10606
13539 1 49.7261 48.5439 2.31761 3 7.1026e-05 -4.10583
13540 1 52.3005 48.5524 2.31816 3 4.84785e-05 -4.10651
13541 1 51.4426 48.55 48.9451 3 5.5309e-05 -4.10629
13542 1 54.0156 48.5564 48.9465 3 3.69292e-05 -4.10691
13543 1 18.8454 46.5172 47.8076 3 0.000153068 -4.1046
13544 1 21.4258 46.493 47.8041 3 0.00018036 -4.10394
13545 1 20.5655 46.5017 45.4741 3 0.000171451 -4.10408
13546 1 23.1461 46.4742 45.4697 3 0.000203648 -4.10391
13547 1 22.2861 46.4838 43.1399 3 0.000191148 -4.10387
13548 1 24.865 46.455 43.1352 3 0.000222515 -4.1042
13549 1 24.0058 46.4645 40.8053 3 0.000215458 -4.10402
13550 1 26.5817 46.4371 40.8013 3 0.000223329 -4.10465
13551 1 25.7236 46.4458 38.4711 3 0.000223842 -4.10441
13552 1 28.2958 46.4223 38.4683 3 0.000220441 -4.10515
13553 1 27.439 46.4292 36.1376 3 0.000222862 -4.1049
13554 1 30.0079 46.4121 36.1362 3 0.000210066 -4.10553
13555 1 29.1521 46.4165 33.8051 3 0.000215832 -4.10536
13556 1 31.7186 46.4075 33.8047 3 0.000202598 -4.10571
13557 1 30.8634 46.409 31.4734 3 0.000205374 -4.10565
13558 1 33.429 46.409 31.4734 3 0.000205374 -4.10565
13559 1 32.5738 46.4075 29.1421 3 0.000202598 -4.10571
13560 1 35.1403 46.4165 29.1417 3 0.000215832 -4.10536
13561 1 34.2845 46.4121 26.8106 3 0.000210066 -4.10553
13562 1 36.8533 46.4292 26.8092 3 0.000222862 -4.1049
13563 1 35.9965 46.4223 24.4785 3 0.000220441 -4.10515
13564 1 38.5687 46.4458 24.4757 3 0.000223842 -4.10441
13565 1 37.7107 46.4371 22.1455 3 0.000223329 -4.10465
13566 1 40.2866 46.4645 22.1415 3 0.000215458 -4.10402
13567 1 39.4274 46.455 19.8116 3 0.000222515 -4.1042
13568 1 42.0063 46.4838 19.8069 3 0.000191148 -4.10387
13569 1 41.1463 46.4742 17.4772 3 0.000203648 -4.10391
13570 1 43.7269 46.5017 17.4727 3 0.000171451 -4.10408
13571 1 42.8666 46.493 15.1427 3 0.00018036 -4.10394
13572 1 45.447 46.5172 15.1392 3 0.000153068 -4.1046
13573 1 44.5871 46.5098 12.8088 3 0.000162836 -4.10431
13574 1 47.166 46.5297 12.8065 3 0.000128135 -4.10526
13575 1 46.3067 46.5238 10.4757 3 0.000141292 -4.10492
13576 1 48.8834 46.5395 10.4747 3 0.000101775 -4.10592
13577 1 48.0249 46.5349 8.14347 3 0.000114647 -4.10559
13578 1 50.5994 46.547 8.14363 3 7.90868e-05 -4.10655
13579 1 49.7416 46.5435 5.81204 3 8.98417e-05 -4.10624
13580 1 52.314 46.5526 5.81316 3 6.10093e-05 -4.1071
13581 1 51.4569 46.55 3.48128 3 6.94899e-05 -4.10683
13582 1 54.0274 46.5568 3.48318 3 4.71272e-05 -4.10758
13583 1 53.1709 46.5548 1.15107 3 5.35734e-05 -4.10735
13584 1 55.7398 46.5598 1.15359 3 3.66203e-05 -4.10798
13585 1 22.2647 44.4776 46.6405 3 0.00027754 -4.10291
13586 1 24.849 44.4421 46.6352 3 0.000351638 -4.10263
13587 1 23.9878 44.4542 44.3057 3 0.000321394 -4.1026
13588 1 26.5698 44.4192 44.3006 3 0.000378308 -4.10293
13589 1 25.7097 44.4303 41.9708 3 0.00037268 -4.10277
13590 1 28.288 44.3997 41.9668 3 0.000392975 -4.10335
13591 1 27.4293 44.4089 39.6365 3 0.00038288 -4.10312
13592 1 30.0038 44.3861 39.634 3 0.000400711 -4.10381
13593 1 29.1462 44.3921 37.3032 3 0.000400339 -4.1036
13594 1 31.7178 44.3799 37.3019 3 0.000394144 -4.10404
13595 1 30.8609 44.382 34.9708 3 0.000396516 -4.10396
13596 1 33.4314 44.382 34.9701 3 0.000396516 -4.10396
13597 1 32.5746 44.3799 32.639 3 0.000394144 -4.10404
13598 1 35.1462 44.3921 32.6377 3 0.000400339 -4.1036
13599 1 34.2886 44.3861 30.3069 3 0.000400711 -4.10381
13600 1 36.8631 44.4089 30.3044 3 0.00038288 -4.10312
13601 1 36.0043 44.3997 27.9741 3 0.000392975 -4.10335
13602 1 38.5826 44.4303 27.9701 3 0.00037268 -4.10277
13603 1 37.7226 44.4192 25.6403 3 0.000378308 -4.10293
13604 1 40.3046 44.4542 25.6352 3 0.000321394 -4.1026
13605 1 39.4434 44.4421 23.3057 3 0.000351638 -4.10263
13606 1 42.0277 44.4776 23.3003 3 0.00027754 -4.10291
13607 1 41.1661 44.4661 20.9707 3 0.000295317 -4.10269
13608 1 43.7502 44.4984 20.9662 3 0.000254382 -4.10366
13609 1 42.8891 44.4885 18.6361 3 0.000265741 -4.10323
13610 1 45.4707 44.5154 18.633 3 0.000217854 -4.10467
13611 1 44.6107 44.5074 16.3024 3 0.000239108 -4.10415
13612 1 47.189 44.5286 16.3008 3 0.000170679 -4.10565
13613 1 46.3301 44.5224 13.9698 3 0.000194065 -4.10517
13614 1 48.9051 44.5387 13.9695 3 0.000130694 -4.10653
13615 1 48.0473 44.534 11.638 3 0.000149442 -4.10611
13616 1 50.6192 44.5464 11.6389 3 0.000100116 -4.10729
13617 1 49.7623 44.5428 9.30706 3 0.000114335 -4.10692
13618 1 52.3317 44.552 9.30878 3 7.73617e-05 -4.10793
13619 1 51.4756 44.5494 6.97672 3 8.78852e-05 -4.10762
13620 1 54.0428 44.5561 6.97913 3 6.04978e-05 -4.10847
13621 1 53.1874 44.5542 4.64686 3 6.82774e-05 -4.10821
13622 1 55.7527 44.5591 4.64981 3 4.81043e-05 -4.10891
13623 1 54.8979 44.5577 2.31739 3 5.38302e-05 -4.1087
13624 1 57.4618 44.5611 2.32076 3 3.89599e-05 -4.10927
13625 1 56.6074 44.5602 48.9468 3 4.31812e-05 -4.1091
13626 1 59.17 44.5625 48.9505 3 3.24567e-05 -4.10954
13627 1 23.9595 42.4471 47.8061 3 0.000477406 -4.10095
13628 1 26.5501 42.4036 47.8002 3 0.000666688 -4.10046
13629 1 25.6869 42.4177 45.4708 3 0.000607066 -4.10044
13630 1 28.2745 42.3787 45.4657 3 0.000686635 -4.10053
13631 1 27.4126 42.3905 43.1358 3 0.000677918 -4.10047
13632 1 29.9965 42.3605 43.1321 3 0.000772711 -4.10088
13633 1 29.1358 42.3686 40.8017 3 0.000727556 -4.10066
13634 1 31.7164 42.3521 40.7992 3 0.000798772 -4.10116
13635 1 30.8566 42.355 38.4685 3 0.000797129 -4.10107
13636 1 33.4358 42.355 38.4665 3 0.000797129 -4.10107
13637 1 32.576 42.3521 36.1358 3 0.000798772 -4.10116
13638 1 35.1566 42.3686 36.1332 3 0.000727556 -4.10066
13639 1 34.2959 42.3605 33.8029 3 0.000772711 -4.10088
13640 1 36.8798 42.3905 33.7992 3 0.000677918 -4.10047
13641 1 36.0179 42.3787 31.4693 3 0.000686635 -4.10053
13642 1 38.6055 42.4177 31.4642 3 0.000607066 -4.10044
13643 1 37.7423 42.4036 29.1348 3 0.000666688 -4.10046
13644 1 40.3329 42.4471 29.1289 3 0.000477406 -4.10095
13645 1 39.4691 42.4324 26.7995 3 0.000529361 -4.10061
13646 1 42.0594 42.4743 26.794 3 0.000438746 -4.10206
13647 1 41.1964 42.4611 24.4643 3 0.000450511 -4.10145
13648 1 43.7828 42.4968 24.4602 3 0.000393942 -4.10359
13649 1 42.9215 42.4862 22.1299 3 0.00042324 -4.10279
13650 1 45.5025 42.5143 22.1277 3 0.000300849 -4.10512
13651 1 44.6431 42.5061 19.7968 3 0.000348477 -4.10439
13652 1 47.219 42.5276 19.7961 3 0.000222109 -4.10638
13653 1 46.3611 42.5214 17.4647 3 0.000258139 -4.10578
13654 1 48.9327 42.5375 17.4653 3 0.000166097 -4.10743
13655 1 48.0762 42.5329 15.1336 3 0.000191662 -4.10693
13656 1 50.6442 42.5449 15.1351 3 0.000126503 -4.10829
13657 1 49.7887 42.5415 12.8031 3 0.000144591 -4.10788
13658 1 52.3538 42.5502 12.8053 3 9.82295e-05 -4.109
13659 1 51.4992 42.5478 10.4731 3 0.000111213 -4.10866
13660 1 54.0619 42.5541 10.4759 3 7.77779e-05 -4.10959
13661 1 53.208 42.5523 8.14356 3 8.71759e-05 -4.10931
13662 1 55.7687 42.5568 8.14678 3 6.28703e-05 -4.11006
13663 1 54.9155 42.5556 5.81429 3 6.97246e-05 -4.10984
13664 1 57.4746 42.5587 5.81782 3 5.20948e-05 -4.11044
13665 1 56.6218 42.5579 3.48523 3 5.70569e-05 -4.11026
13666 1 59.1797 42.5599 3.48899 3 4.44245e-05 -4.11072
13667 1 58.3272 42.5594 1.15635 3 4.79016e-05 -4.11059
13668 1 60.8842 42.5607 1.16026 3 3.93075e-05 -4.11093
13669 1 27.3853 40.3753 46.6348 3 0.00120617 -4.09682
13670 1 29.9833 40.337 46.6304 3 0.00140882 -4.09595
13671 1 29.1177 40.3475 44.3004 3 0.00125765 -4.09618
13672 1 31.7138 40.3255 44.2965 3 0.00174833 -4.0961
13673 1 30.8487 40.3294 41.9664 3 0.00161514 -4.096
13674 1 33.4437 40.3294 41.9627 3 0.00161514 -4.096
13675 1 32.5786 40.3255 39.6326 3 0.00174833 -4.0961
13676 1 35.1747 40.3475 39.6287 3 0.00125765 -4.09618
13677 1 34.309 40.337 37.2986 3 0.00140882 -4.09595
13678 1 36.9071 40.3753 37.2943 3 0.00120617 -4.09682
13679 1 36.0407 40.3604 34.9645 3 0.00123587 -4.0965
13680 1 38.6418 40.4095 34.9587 3 0.000834341 -4.09754
13681 1 37.7744 40.392 32.6295 3 0.00102093 -4.097
13682 1 40.375 40.4438 32.6234 3 0.000740759 -4.09934
13683 1 39.5088 40.427 30.2939 3 0.000755249 -4.09835
13684 1 42.1035 40.4736 30.2888 3 0.000739321 -4.1016
13685 1 41.24 40.4595 27.9589 3 0.0007533 -4.10038
13686 1 43.8259 40.4963 27.9559 3 0.000568832 -4.10409
13687 1 42.9655 40.4858 25.6251 3 0.000674869 -4.10288
13688 1 45.5433 40.5133 25.624 3 0.000391777 -4.10601
13689 1 44.6851 40.5054 23.2928 3 0.000470604 -4.10512
13690 1 47.2567 40.5259 23.2931 3 0.000281858 -4.10748
13691 1 46.4004 40.5201 20.9614 3 0.000330859 -4.10679
13692 1 48.967 40.5352 20.9627 3 0.000209224 -4.10863
13693 1 48.1122 40.5309 18.6308 3 0.000241917 -4.10809
13694 1 50.6748 40.542 18.6328 3 0.00015952 -4.10956
13695 1 49.8212 40.5389 16.3007 3 0.000182154 -4.10912
13696 1 52.3807 40.5468 16.3032 3 0.000124584 -4.11031
13697 1 51.528 40.5446 13.9709 3 0.000140532 -4.10995
13698 1 54.085 40.5503 13.9739 3 9.9578e-05 -4.11092
13699 1 53.233 40.5487 11.6415 3 0.00011106 -4.11063
13700 1 55.788 40.5526 11.6447 3 8.15436e-05 -4.11141
13701 1 54.9366 40.5515 9.31225 3 8.98292e-05 -4.11118
13702 1 57.49 40.5542 9.31567 3 6.85581e-05 -4.11179
13703 1 56.6391 40.5535 6.98314 3 7.44571e-05 -4.11161
13704 1 59.1912 40.5552 6.98669 3 5.94724e-05 -4.11209
13705 1 58.3407 40.5548 4.65413 3 6.36053e-05 -4.11195
13706 1 60.8919 40.5559 4.65777 3 5.34147e-05 -4.11229
13707 1 60.0416 40.5556 2.32518 3 5.61058e-05 -4.1122
13708 1 62.5922 40.5562 2.32888 3 4.9966e-05 -4.11241
13709 1 61.7421 40.5561 48.9549 3 5.13916e-05 -4.11236
13710 1 29.0873 38.3306 47.7981 3 0.00233031 -4.08967
13711 1 31.7086 38.3031 47.7939 3 0.00352126 -4.08753
13712 1 30.834 38.3084 45.4642 3 0.00293151 -4.08757
13713 1 33.4583 38.3084 45.459 3 0.00293151 -4.08757
13714 1 32.5838 38.3031 43.1293 3 0.00352126 -4.08753
13715 1 35.2051 38.3306 43.1251 3 0.00233031 -4.08967
13716 1 34.3321 38.3177 40.7948 3 0.00244152 -4.08852
13717 1 36.9511 38.3657 40.7903 3 0.0017486 -4.09123
13718 1 36.0777 38.3464 38.4611 3 0.0022478 -4.09076
13719 1 38.6958 38.4067 38.4549 3 0.00134237 -4.0943
13720 1 37.824 38.3862 36.1255 3 0.00138854 -4.09254
13721 1 40.434 38.4448 36.1198 3 0.00142618 -4.09789
13722 1 39.5659 38.4263 33.7903 3 0.00134931 -4.09617
13723 1 42.1618 38.4747 33.7862 3 0.00123353 -4.10194
13724 1 41.2992 38.461 31.4557 3 0.00140074 -4.09991
13725 1 43.8807 38.496 31.4542 3 0.000745357 -4.10521
13726 1 43.022 38.4862 29.1231 3 0.000956126 -4.10379
13727 1 45.5938 38.5116 29.123 3 0.000497936 -4.10738
13728 1 44.7379 38.5044 26.7914 3 0.000601529 -4.10638
13729 1 47.3027 38.523 26.7924 3 0.000355448 -4.10893
13730 1 46.4487 38.5177 24.4606 3 0.000418448 -4.10821
13731 1 49.0084 38.5312 24.4623 3 0.000262943 -4.11013
13732 1 48.1559 38.5274 22.1303 3 0.000304374 -4.10957
13733 1 50.7115 38.5371 22.1325 3 0.000200182 -4.11108
13734 1 49.8603 38.5344 19.8003 3 0.00022877 -4.11063
13735 1 52.4127 38.5412 19.8029 3 0.000156521 -4.11184
13736 1 51.5623 38.5393 17.4706 3 0.000176425 -4.11148
13737 1 54.1123 38.5441 17.4733 3 0.000125644 -4.11245
13738 1 53.2627 38.5428 15.141 3 0.000139759 -4.11216
13739 1 55.8106 38.546 15.1439 3 0.000103655 -4.11293
13740 1 54.9616 38.5451 12.8116 3 0.000113716 -4.11271
13741 1 57.508 38.5472 12.8145 3 8.81217e-05 -4.11331
13742 1 56.6594 38.5467 10.4821 3 9.52062e-05 -4.11313
13743 1 59.2047 38.548 10.4851 3 7.738e-05 -4.11359
13744 1 58.3565 38.5477 8.15275 3 8.22134e-05 -4.11346
13745 1 60.9009 38.5485 8.15574 3 7.03797e-05 -4.11379
13746 1 60.0529 38.5483 5.82338 3 7.3456e-05 -4.1137
13747 1 62.5967 38.5487 5.82639 3 6.63748e-05 -4.11391
13748 1 61.7488 38.5486 3.49402 3 6.80542e-05 -4.11386
13749 1 63.4446 38.5488 1.16467 3 6.54262e-05 -4.11394
13750 1 32.5918 36.2915 46.6259 3 0.00557803 -4.07038
13751 1 35.2516 36.3193 46.6244 3 0.00590725 -4.08035
13752 1 34.3675 36.3051 44.2933 3 0.00609461 -4.07857
13753 1 37.0176 36.3642 44.289 3 0.00319715 -4.08379
13754 1 36.1358 36.341 41.9591 3 0.00417114 -4.08046
13755 1 38.7722 36.4098 41.955 3 0.00308206 -4.0913
13756 1 37.8966 36.3874 39.625 3 0.00318988 -4.08774
13757 1 40.5129 36.4493 39.6206 3 0.00306559 -4.09744
13758 1 39.645 36.4312 37.2903 3 0.00321826 -4.09408
13759 1 42.2355 36.4759 37.2882 3 0.00172688 -4.10345
13760 1 41.3761 36.4641 34.9571 3 0.00251009 -4.10069
13761 1 43.9485 36.4947 34.9565 3 0.000962799 -4.10695
13762 1 43.0929 36.4861 32.6252 3 0.00124811 -4.10542
13763 1 45.6554 36.5081 32.6256 3 0.000641136 -4.10919
13764 1 44.8026 36.502 30.294 3 0.00077966 -4.10821
13765 1 47.3581 36.5178 30.2951 3 0.000448906 -4.11076
13766 1 46.5073 36.5134 27.9633 3 0.000533808 -4.11003
13767 1 49.0577 36.5247 27.9648 3 0.00032674 -4.11193
13768 1 48.2082 36.5215 25.6329 3 0.000381385 -4.11138
13769 1 50.7548 36.5295 25.6347 3 0.000245275 -4.11284
13770 1 49.9065 36.5273 23.3027 3 0.00028186 -4.11242
13771 1 52.4501 36.5328 23.3046 3 0.000190284 -4.11357
13772 1 51.6027 36.5313 20.9726 3 0.000215238 -4.11322
13773 1 54.144 36.535 20.9745 3 0.000152629 -4.11414
13774 1 53.2972 36.5341 18.6425 3 0.000169651 -4.11387
13775 1 55.8369 36.5365 18.6445 3 0.000126611 -4.11459
13776 1 54.9906 36.5358 16.3124 3 0.000138424 -4.11437
13777 1 57.5289 36.5373 16.3144 3 0.000108721 -4.11494
13778 1 56.6829 36.537 13.9824 3 0.000116846 -4.11477
13779 1 59.2202 36.5378 13.9843 3 9.66157e-05 -4.1152
13780 1 58.3746 36.5376 11.6523 3 0.000102039 -4.11508
13781 1 60.9112 36.5381 11.6542 3 8.88578e-05 -4.11538
13782 1 60.0658 36.538 9.32224 3 9.22731e-05 -4.1153
13783 1 62.6019 36.5382 9.32417 3 8.45085e-05 -4.11548
13784 1 61.7565 36.5382 6.99217 3 8.62987e-05 -4.11544
13785 1 63.4471 36.5383 4.66209 3 8.34506e-05 -4.11551
13786 1 34.4203 34.3014 47.7986 3 0.0265573 -4.04467
13787 1 37.1181 34.3716 47.7967 3 0.0124144 -4.0745
13788 1 36.2268 34.3478 45.464 3 0.0138828 -4.06229
13789 1 38.882 34.4208 45.463 3 0.0097437 -4.08763
13790 1 38.002 34.396 43.1336 3 0.0105301 -4.0821
13791 1 40.616 34.4548 43.1298 3 0.00592012 -4.09891
13792 1 39.7529 34.4403 40.7994 3 0.00816224 -4.09364
13793 1 42.3282 34.4759 40.7968 3 0.00235013 -4.10581
13794 1 41.4732 34.4661 38.4663 3 0.00352723 -4.10307
13795 1 44.0316 34.4908 38.4647 3 0.00131102 -4.10947
13796 1 43.1809 34.484 36.1336 3 0.00171058 -4.10786
13797 1 45.7296 34.5017 36.1331 3 0.00082256 -4.11151
13798 1 44.8812 34.4967 33.8018 3 0.0010314 -4.11059
13799 1 47.4237 34.5094 33.8019 3 0.000544517 -4.11294
13800 1 46.577 34.5058 31.4704 3 0.000662642 -4.11231
13801 1 49.1152 34.5148 31.4707 3 0.000379088 -4.114
13802 1 48.2698 34.5123 29.1392 3 0.000452612 -4.1135
13803 1 50.8048 34.5185 29.1396 3 0.000278421 -4.11479
13804 1 49.9602 34.5168 26.8081 3 0.000322982 -4.11441
13805 1 52.4929 34.521 26.8086 3 0.000213748 -4.11541
13806 1 51.649 34.5199 24.4771 3 0.000242188 -4.11512
13807 1 54.1801 34.5225 24.4775 3 0.000171836 -4.1159
13808 1 53.3366 34.5218 22.146 3 0.000190723 -4.11567
13809 1 55.8664 34.5235 22.1465 3 0.000144167 -4.11628
13810 1 55.0233 34.5231 19.8149 3 0.000156629 -4.1161
13811 1 57.5522 34.524 19.8154 3 0.000125593 -4.11657
13812 1 56.7094 34.5238 17.4839 3 0.000133924 -4.11644
13813 1 59.2376 34.5243 17.4843 3 0.000113274 -4.11679
13814 1 58.395 34.5242 15.1528 3 0.000118807 -4.11669
13815 1 60.9227 34.5244 15.1533 3 0.000105486 -4.11695
13816 1 60.0802 34.5243 12.8218 3 0.00010893 -4.11688
13817 1 62.6076 34.5244 12.8222 3 0.000101178 -4.11704
13818 1 61.7651 34.5244 10.4907 3 0.000102928 -4.117
13819 1 63.45 34.5244 8.15962 3 0.000100115 -4.11706
13820 1 38.1721 32.4177 46.6644 3 5.44731 -4.08656
13821 1 40.7495 32.4566 46.6521 3 0.00962052 -4.10511
13822 1 39.8992 32.4477 44.3245 3 0.0199622 -4.10077
13823 1 42.445 32.4714 44.3149 3 0.00359885 -4.11056
13824 1 41.5986 32.4646 41.9859 3 0.00575021 -4.10828
13825 1 44.1328 32.4822 41.9801 3 0.00165626 -4.11302
13826 1 43.2892 32.477 39.6504 3 0.00232825 -4.11213
13827 1 45.8171 32.4902 39.6464 3 0.000870441 -4.11448
13828 1 44.9754 32.4865 37.3161 3 0.00118508 -4.11381
13829 1 47.4995 32.4961 37.3131 3 0.000543753 -4.11541
13830 1 46.6585 32.4934 34.9826 3 0.000686325 -4.11496
13831 1 49.1805 32.5002 34.9801 3 0.00037052 -4.11615
13832 1 48.3401 32.4983 32.6495 3 0.000439292 -4.11582
13833 1 50.8606 32.503 32.6473 3 0.000271177 -4.11673
13834 1 50.0206 32.5017 30.3166 3 0.000314636 -4.11645
13835 1 52.5403 32.5048 30.3146 3 0.000213233 -4.11719
13836 1 51.7005 32.504 27.9839 3 0.00023953 -4.11697
13837 1 54.2196 32.5059 27.9821 3 0.000175519 -4.11756
13838 1 53.38 32.5054 25.6513 3 0.000192013 -4.11739
13839 1 55.8986 32.5065 25.6497 3 0.000150226 -4.11785
13840 1 55.0591 32.5063 23.3188 3 0.000161637 -4.11771
13841 1 57.5775 32.5068 23.3173 3 0.000133417 -4.11808
13842 1 56.7381 32.5067 20.9864 3 0.000141077 -4.11797
13843 1 59.2563 32.5069 20.985 3 0.000122039 -4.11825
13844 1 58.4169 32.5069 18.6541 3 0.00012712 -4.11817
13845 1 60.935 32.5069 18.6527 3 0.000114696 -4.11837
13846 1 60.0957 32.5069 16.3218 3 0.000117929 -4.11831
13847 1 62.6137 32.5069 16.3204 3 0.000110635 -4.11844
13848 1 61.7744 32.5069 13.9895 3 0.000112312 -4.11841
13849 1 63.4531 32.5069 11.6573 3 0.000109647 -4.11845
13850 1 3.42893 62.5896 47.7929 5 12.3402 -3.52387
13851 1 6.00062 62.5896 47.7929 5 12.3402 -3.52387
13852 1 5.14339 62.5896 45.4616 5 12.3402 -3.52387
13853 1 7.71509 62.5896 45.4616 5 12.3402 -3.52387
13854 1 6.85785 62.5896 43.1302 5 12.3402 -3.52387
13855 1 9.42955 62.5896 43.1302 5 12.3402 -3.52387
13856 1 8.57232 62.5896 40.7989 5 12.3402 -3.52387
13857 1 11.144 62.5896 40.7989 5 12.3402 -3.52387
13858 1 10.2868 62.5896 38.4675 5 12.3402 -3.52387
13859 1 12.8585 62.5896 38.4675 5 12.3402 -3.52387
13860 1 12.0012 62.5896 36.1361 5 12.3402 -3.52387
13861 1 14.5729 62.5896 36.1361 5 12.3402 -3.52387
13862 1 13.7157 62.5896 33.8048 5 12.3402 -3.52387
13863 1 16.2874 62.5896 33.8048 5 12.3402 -3.52387
13864 1 15.4302 62.5896 31.4734 5 12.3402 -3.52387
13865 1 18.0019 62.5896 31.4734 5 12.3402 -3.52387
13866 1 17.1446 62.5896 29.142 5 12.3402 -3.52387
13867 1 19.7163 62.5896 29.142 5 12.3402 -3.52387
13868 1 18.8591 62.5896 26.8107 5 12.3402 -3.52387
13869 1 21.4308 62.5896 26.8107 5 12.3402 -3.52387
13870 1 20.5736 62.5896 24.4793 5 12.3402 -3.52387
13871 1 23.1453 62.5896 24.4793 5 12.3402 -3.52387
13872 1 22.288 62.5896 22.1479 5 12.3402 -3.52387
13873 1 24.8597 62.5896 22.1479 5 12.3402 -3.52387
13874 1 24.0025 62.5896 19.8166 5 12.3402 -3.52387
13875 1 26.5742 62.5896 19.8166 5 12.3402 -3.52387
13876 1 25.717 62.5896 17.4852 5 12.3402 -3.52387
13877 1 28.2886 62.5896 17.4852 5 12.3402 -3.52387
13878 1 27.4314 62.5896 15.1539 5 12.3402 -3.52387
13879 1 30.0031 62.5896 15.1539 5 12.3402 -3.52387
13880 1 29.1459 62.5896 12.8225 5 12.3402 -3.52387
13881 1 31.7176 62.5896 12.8225 5 12.3402 -3.52387
13882 1 30.8603 62.5896 10.4911 5 12.3402 -3.52387
13883 1 33.432 62.5896 10.4911 5 12.3402 -3.52387
13884 1 32.5748 62.5896 8.15977 5 12.3402 -3.52387
13885 1 35.1465 62.5896 8.15977 5 12.3402 -3.52387
13886 1 34.2893 62.5896 5.82841 5 12.3402 -3.52387
13887 1 36.861 62.5896 5.82841 5 12.3402 -3.52387
13888 1 36.0037 62.5896 3.49704 5 12.3402 -3.52387
13889 1 38.5754 62.5896 3.49704 5 12.3402 -3.52387
13890 1 37.7182 62.5896 1.16568 5 12.3402 -3.52387
13891 1 40.2899 62.5896 1.16568 5 12.3402 -3.52387
13892 1 6.85785 60.5706 46.6273 3 4.0169e-16 -4.09058
13893 1 9.42955 60.5706 46.6273 3 1.69002e-18 -4.09052
13894 1 8.57232 60.5706 44.2959 3 1e-16 -4.09054
13895 1 11.144 60.5706 44.2959 3 4e-16 -4.09046
13896 1 10.2868 60.5706 41.9645 3 9.99999e-17 -4.09049
13897 1 12.8585 60.5706 41.9645 3 1e-16 -4.0904
13898 1 12.0012 60.5706 39.6332 3 4e-16 -4.09043
13899 1 14.5729 60.5706 39.6332 3 1e-16 -4.09032
13900 1 13.7157 60.5706 37.3018 3 1e-16 -4.09036
13901 1 16.2874 60.5706 37.3018 3 4e-16 -4.09022
13902 1 15.4302 60.5706 34.9704 3 1e-16 -4.09027
13903 1 18.0019 60.5706 34.9704 3 1e-16 -4.09012
13904 1 17.1446 60.5706 32.6391 3 4e-16 -4.09017
13905 1 19.7163 60.5706 32.6391 3 1e-16 -4.09001
13906 1 18.8591 60.5706 30.3077 3 4.54384e-28 -4.09006
13907 1 21.4308 60.5706 30.3077 3 4e-16 -4.08989
13908 1 20.5736 60.5706 27.9764 3 3.99999e-16 -4.08995
13909 1 23.1453 60.5706 27.9764 3 5.55358e-28 -4.08978
13910 1 22.288 60.5706 25.645 3 1e-16 -4.08984
13911 1 24.8597 60.5706 25.645 3 4e-16 -4.08968
13912 1 24.0025 60.5706 23.3136 3 1e-16 -4.08973
13913 1 26.5742 60.5706 23.3136 3 9.99999e-17 -4.08959
13914 1 25.717 60.5706 20.9823 3 4e-16 -4.08964
13915 1 28.2886 60.5706 20.9823 3 1e-16 -4.08953
13916 1 27.4314 60.5706 18.6509 3 1e-16 -4.08956
13917 1 30.0031 60.5706 18.6509 3 4e-16 -4.08948
13918 1 29.1459 60.5706 16.3195 3 1e-16 -4.0895
13919 1 31.7176 60.5706 16.3195 3 1e-16 -4.08946
13920 1 30.8603 60.5706 13.9882 3 4e-16 -4.08947
13921 1 33.432 60.5706 13.9882 3 9.99999e-17 -4.08947
13922 1 32.5748 60.5706 11.6568 3 4.03897e-28 -4.08946
13923 1 35.1465 60.5706 11.6568 3 4.00001e-16 -4.0895
13924 1 34.2893 60.5706 9.32545 3 4e-16 -4.08948
13925 1 36.861 60.5706 9.32545 3 1e-16 -4.08956
13926 1 36.0037 60.5706 6.99409 3 9.99999e-17 -4.08953
13927 1 38.5754 60.5706 6.99409 3 1e-16 -4.08964
13928 1 37.7182 60.5706 4.66273 3 9.99999e-17 -4.08959
13929 1 40.2899 60.5706 4.66273 3 3.99999e-16 -4.08973
13930 1 39.4327 60.5706 2.33136 3 4e-16 -4.08968
13931 1 42.0044 60.5706 2.33136 3 4.03897e-28 -4.08984
13932 1 41.1471 60.5706 0 3 1.0507e-16 -4.08978
13933 1 43.7188 60.5706 0 3 4.0507e-16 -4.08995
13934 1 8.57232 58.5516 47.7929 3 0.000870029 -4.1059
13935 1 11.144 58.5516 47.7929 3 0.000787922 -4.10586
13936 1 10.2868 58.5516 45.4616 3 0.000817217 -4.10587
13937 1 12.8585 58.5516 45.4616 3 0.000724881 -4.10583
13938 1 12.0012 58.5516 43.1302 3 0.000757017 -4.10584
13939 1 14.5729 58.5516 43.1302 3 0.000658332 -4.1058
13940 1 13.7157 58.5516 40.7989 3 0.000691861 -4.10581
13941 1 16.2874 58.5516 40.7989 3 0.000591074 -4.10578
13942 1 15.4302 58.5516 38.4675 3 0.000624647 -4.10579
13943 1 18.0019 58.5516 38.4675 3 0.000524669 -4.10577
13944 1 17.1446 58.5516 36.1361 3 0.000557723 -4.10578
13945 1 19.7163 58.5516 36.1361 3 0.000458403 -4.10576
13946 1 18.8591 58.5516 33.8048 3 0.000491636 -4.10577
13947 1 21.4308 58.5516 33.8048 3 0.000389679 -4.10576
13948 1 20.5736 58.5516 31.4734 3 0.000424557 -4.10576
13949 1 23.1453 58.5516 31.4734 3 0.000315834 -4.10575
13950 1 22.288 58.5516 29.142 3 0.000353488 -4.10575
13951 1 24.8597 58.5516 29.142 3 0.000236862 -4.10575
13952 1 24.0025 58.5516 26.8107 3 0.000276842 -4.10575
13953 1 26.5742 58.5516 26.8107 3 0.000157252 -4.10574
13954 1 25.717 58.5516 24.4793 3 0.000196676 -4.10574
13955 1 28.2886 58.5516 24.4793 3 8.5703e-05 -4.10574
13956 1 27.4314 58.5516 22.1479 3 0.000119794 -4.10574
13957 1 30.0031 58.5516 22.1479 3 3.29962e-05 -4.10574
13958 1 29.1459 58.5516 19.8166 3 5.6351e-05 -4.10574
13959 1 31.7176 58.5516 19.8166 3 8.46362e-06 -4.10574
13960 1 30.8603 58.5516 17.4852 3 1.67882e-05 -4.10574
13961 1 33.432 58.5516 17.4852 3 1.67882e-05 -4.10574
13962 1 32.5748 58.5516 15.1539 3 8.46362e-06 -4.10574
13963 1 35.1465 58.5516 15.1539 3 5.63512e-05 -4.10574
13964 1 34.2893 58.5516 12.8225 3 3.29959e-05 -4.10574
13965 1 36.861 58.5516 12.8225 3 0.000119794 -4.10574
13966 1 36.0037 58.5516 10.4911 3 8.57031e-05 -4.10574
13967 1 38.5754 58.5516 10.4911 3 0.000196676 -4.10574
13968 1 37.7182 58.5516 8.15977 3 0.000157252 -4.10574
13969 1 40.2899 58.5516 8.15977 3 0.000276842 -4.10575
13970 1 39.4327 58.5516 5.82841 3 0.000236861 -4.10575
13971 1 42.0044 58.5516 5.82841 3 0.000353488 -4.10575
13972 1 41.1471 58.5516 3.49704 3 0.000315834 -4.10575
13973 1 43.7188 58.5516 3.49704 3 0.000424556 -4.10576
13974 1 42.8616 58.5516 1.16568 3 0.00038968 -4.10576
13975 1 45.4333 58.5516 1.16568 3 0.000491636 -4.10577
13976 1 12.007 56.5509 46.6301 3 3.5419e-05 -4.10549
13977 1 14.5808 56.5487 46.63 3 5.34402e-05 -4.10545
13978 1 13.7229 56.5495 44.2987 3 4.74132e-05 -4.10546
13979 1 16.2967 56.5468 44.2983 3 6.4315e-05 -4.10546
13980 1 15.4388 56.5478 41.9671 3 5.91397e-05 -4.10545
13981 1 18.0124 56.5447 41.9664 3 7.15175e-05 -4.10551
13982 1 17.1546 56.5458 39.6353 3 6.85784e-05 -4.10548
13983 1 19.7277 56.5425 39.6345 3 7.32526e-05 -4.10558
13984 1 18.8701 56.5436 37.3034 3 7.31499e-05 -4.10554
13985 1 21.4425 56.5402 37.3025 3 6.91736e-05 -4.10569
13986 1 20.5851 56.5413 34.9715 3 7.18433e-05 -4.10563
13987 1 23.1566 56.5379 34.9707 3 6.07179e-05 -4.1058
13988 1 22.2996 56.539 32.6395 3 6.5392e-05 -4.10574
13989 1 24.8701 56.5359 32.6389 3 4.99747e-05 -4.10592
13990 1 24.0134 56.5369 30.3077 3 5.54688e-05 -4.10586
13991 1 26.5829 56.5341 30.3073 3 3.9008e-05 -4.10603
13992 1 25.7266 56.5349 27.976 3 4.43784e-05 -4.10598
13993 1 28.2951 56.5327 27.9759 3 2.97496e-05 -4.10612
13994 1 27.4391 56.5333 25.6446 3 3.40923e-05 -4.10608
13995 1 30.0068 56.5317 25.6447 3 2.33292e-05 -4.10618
13996 1 29.151 56.5321 23.3133 3 2.61152e-05 -4.10615
13997 1 31.7183 56.5313 23.3136 3 2.04271e-05 -4.10621
13998 1 30.8626 56.5315 20.9821 3 2.13988e-05 -4.1062
13999 1 33.4298 56.5315 20.9825 3 2.13987e-05 -4.1062
14000 1 32.574 56.5313 18.651 3 2.04271e-05 -4.10621
14001 1 35.1414 56.5321 18.6513 3 2.61152e-05 -4.10615
14002 1 34.2855 56.5317 16.3198 3 2.33292e-05 -4.10618
14003 1 36.8533 56.5333 16.32 3 3.40923e-05 -4.10608
14004 1 35.9973 56.5327 13.9886 3 2.97497e-05 -4.10612
14005 1 38.5658 56.5349 13.9885 3 4.43784e-05 -4.10598
14006 1 37.7095 56.5341 11.6572 3 3.9008e-05 -4.10603
14007 1 40.2789 56.5369 11.6568 3 5.54688e-05 -4.10586
14008 1 39.4223 56.5359 9.32563 3 4.99747e-05 -4.10592
14009 1 41.9927 56.539 9.325 3 6.53921e-05 -4.10574
14010 1 41.1358 56.5379 6.99388 3 6.0718e-05 -4.1058
14011 1 43.7072 56.5413 6.99307 3 7.18434e-05 -4.10563
14012 1 42.8499 56.5402 4.662 3 6.91735e-05 -4.10569
14013 1 45.4223 56.5436 4.66112 3 7.31499e-05 -4.10554
14014 1 44.5647 56.5425 2.33005 3 7.32525e-05 -4.10558
14015 1 47.1378 56.5458 2.32922 3 6.85784e-05 -4.10548
14016 1 46.28 56.5447 48.9567 3 7.15176e-05 -4.10551
14017 1 48.8536 56.5478 48.9561 3 5.91397e-05 -4.10545
14018 1 13.7256 54.5481 47.7984 3 4.33513e-05 -4.10594
14019 1 16.3009 54.5429 47.7977 3 6.00846e-05 -4.10578
14020 1 15.4425 54.5448 45.4667 3 5.47837e-05 -4.10582
14021 1 18.0176 54.5386 45.4654 3 6.89167e-05 -4.10576
14022 1 17.1593 54.5408 43.1345 3 6.48974e-05 -4.10576
14023 1 19.7337 54.5339 43.133 3 7.3189e-05 -4.10583
14024 1 18.8757 54.5363 40.8022 3 7.17161e-05 -4.10579
14025 1 21.4491 54.529 40.8005 3 7.15719e-05 -4.10597
14026 1 20.5915 54.5315 38.4697 3 7.31397e-05 -4.10589
14027 1 23.1634 54.524 38.468 3 6.42053e-05 -4.10616
14028 1 22.3064 54.5265 36.1372 3 6.85282e-05 -4.10606
14029 1 24.8765 54.5194 36.1359 3 5.28765e-05 -4.10637
14030 1 24.0201 54.5217 33.8049 3 5.89024e-05 -4.10627
14031 1 26.5884 54.5154 33.8041 3 4.01072e-05 -4.10657
14032 1 25.7325 54.5173 31.4729 3 4.65067e-05 -4.10648
14033 1 28.2992 54.5122 31.4726 3 2.82602e-05 -4.10674
14034 1 27.4439 54.5137 29.1413 3 3.38936e-05 -4.10666
14035 1 30.0093 54.5101 29.1415 3 1.96384e-05 -4.10685
14036 1 29.1543 54.511 26.81 3 2.34403e-05 -4.1068
14037 1 31.7188 54.5092 26.8106 3 1.5675e-05 -4.1069
14038 1 30.8641 54.5095 24.479 3 1.70086e-05 -4.10688
14039 1 33.4283 54.5095 24.4797 3 1.70086e-05 -4.10688
14040 1 32.5736 54.5092 22.1481 3 1.5675e-05 -4.1069
14041 1 35.1381 54.511 22.1486 3 2.34402e-05 -4.1068
14042 1 34.2831 54.5101 19.8171 3 1.96384e-05 -4.10685
14043 1 36.8485 54.5137 19.8174 3 3.38936e-05 -4.10666
14044 1 35.9932 54.5122 17.486 3 2.82602e-05 -4.10674
14045 1 38.5598 54.5173 17.4857 3 4.65067e-05 -4.10648
14046 1 37.704 54.5154 15.1546 3 4.01072e-05 -4.10657
14047 1 40.2723 54.5217 15.1537 3 5.89024e-05 -4.10627
14048 1 39.4159 54.5194 12.8227 3 5.28765e-05 -4.10637
14049 1 41.986 54.5265 12.8214 3 6.85282e-05 -4.10606
14050 1 41.129 54.524 10.4906 3 6.42053e-05 -4.10616
14051 1 43.7008 54.5315 10.489 3 7.31397e-05 -4.10589
14052 1 42.8433 54.529 8.15817 3 7.15719e-05 -4.10597
14053 1 45.4166 54.5363 8.15645 3 7.17161e-05 -4.10579
14054 1 44.5586 54.5339 5.82565 3 7.3189e-05 -4.10583
14055 1 47.1331 54.5408 5.82408 3 6.48974e-05 -4.10576
14056 1 46.2748 54.5386 3.4932 3 6.89167e-05 -4.10576
14057 1 48.8499 54.5448 3.49197 3 5.47837e-05 -4.10582
14058 1 47.9915 54.5429 1.16094 3 6.00846e-05 -4.10578
14059 1 50.5668 54.5481 1.16019 3 4.33513e-05 -4.10594
14060 1 17.159 52.5367 46.6341 3 6.85232e-05 -4.10546
14061 1 19.7349 52.5261 46.6319 3 8.14801e-05 -4.10551
14062 1 18.8764 52.5298 44.3013 3 7.80759e-05 -4.10546
14063 1 21.4511 52.5182 44.2989 3 8.37444e-05 -4.10571
14064 1 20.5931 52.5222 41.9683 3 8.34656e-05 -4.1056
14065 1 23.166 52.5103 41.9659 3 7.90727e-05 -4.106
14066 1 22.3087 52.5142 39.6353 3 8.22461e-05 -4.10584
14067 1 24.8793 52.5027 39.6333 3 6.84997e-05 -4.10633
14068 1 24.0229 52.5064 37.3025 3 7.43575e-05 -4.10616
14069 1 26.5911 52.496 37.3011 3 5.46001e-05 -4.10665
14070 1 25.7354 52.4992 34.9701 3 6.17394e-05 -4.10649
14071 1 28.3014 52.4906 34.9695 3 4.06068e-05 -4.10692
14072 1 27.4464 52.4931 32.6382 3 4.73203e-05 -4.10679
14073 1 30.0106 52.4871 32.6384 3 2.98991e-05 -4.1071
14074 1 29.1561 52.4886 30.3069 3 3.46489e-05 -4.10702
14075 1 31.7191 52.4855 30.3076 3 2.48604e-05 -4.10718
14076 1 30.8649 52.486 27.9759 3 2.65644e-05 -4.10715
14077 1 33.4275 52.486 27.9768 3 2.65644e-05 -4.10715
14078 1 32.5733 52.4855 25.6451 3 2.48604e-05 -4.10718
14079 1 35.1363 52.4886 25.6459 3 3.46489e-05 -4.10702
14080 1 34.2818 52.4871 23.3143 3 2.98991e-05 -4.1071
14081 1 36.846 52.4931 23.3145 3 4.73203e-05 -4.10679
14082 1 35.991 52.4906 20.9832 3 4.06068e-05 -4.10692
14083 1 38.557 52.4992 20.9826 3 6.17394e-05 -4.10649
14084 1 37.7013 52.496 18.6516 3 5.46001e-05 -4.10665
14085 1 40.2695 52.5064 18.6502 3 7.43575e-05 -4.10616
14086 1 39.4131 52.5027 16.3194 3 6.84997e-05 -4.10633
14087 1 41.9837 52.5142 16.3174 3 8.22461e-05 -4.10584
14088 1 41.1264 52.5103 13.9868 3 7.90727e-05 -4.106
14089 1 43.6993 52.5222 13.9844 3 8.34656e-05 -4.1056
14090 1 42.8413 52.5182 11.6538 3 8.37444e-05 -4.10571
14091 1 45.416 52.5298 11.6514 3 7.80759e-05 -4.10546
14092 1 44.5575 52.5261 9.3208 3 8.14801e-05 -4.10551
14093 1 47.1333 52.5367 9.31863 3 6.85232e-05 -4.10546
14094 1 46.2746 52.5334 6.98791 3 7.36589e-05 -4.10544
14095 1 48.8509 52.5426 6.98632 3 5.69808e-05 -4.10558
14096 1 47.9921 52.5398 4.65538 3 6.287e-05 -4.1055
14097 1 50.5683 52.5474 4.65449 3 4.51907e-05 -4.10578
14098 1 49.7097 52.5451 2.3233 3 5.10436e-05 -4.10567
14099 1 52.2853 52.5512 2.32314 3 3.4272e-05 -4.10602
14100 1 51.4269 52.5494 48.9503 3 3.9559e-05 -4.10589
14101 1 54.0019 52.5542 48.9508 3 2.49661e-05 -4.10626
14102 1 18.8719 50.5244 47.8011 3 9.02979e-05 -4.10511
14103 1 21.4484 50.5084 47.7979 3 0.000103351 -4.10527
14104 1 20.5898 50.5139 45.4677 3 0.000100003 -4.10517
14105 1 23.1644 50.497 45.4644 3 0.000104207 -4.10558
14106 1 22.3066 50.5027 43.1341 3 0.00010485 -4.10541
14107 1 24.8787 50.486 43.1312 3 9.6766e-05 -4.10598
14108 1 24.0218 50.4914 40.8007 3 0.000101376 -4.10578
14109 1 26.5911 50.4761 40.7986 3 8.40064e-05 -4.1064
14110 1 25.7352 50.4809 38.4678 3 9.09351e-05 -4.10619
14111 1 28.3017 50.4682 38.4667 3 6.93604e-05 -4.10675
14112 1 27.4466 50.4719 36.1356 3 7.66996e-05 -4.10659
14113 1 30.0108 50.4629 36.1355 3 5.71964e-05 -4.107
14114 1 29.1564 50.4652 33.804 3 6.27116e-05 -4.10689
14115 1 31.7192 50.4605 33.8046 3 5.12749e-05 -4.10711
14116 1 30.8651 50.4613 31.473 3 5.33065e-05 -4.10707
14117 1 33.4273 50.4613 31.4738 3 5.33065e-05 -4.10707
14118 1 32.5732 50.4605 29.1422 3 5.12749e-05 -4.10711
14119 1 35.136 50.4652 29.1428 3 6.27116e-05 -4.10689
14120 1 34.2815 50.4629 26.8113 3 5.71964e-05 -4.107
14121 1 36.8458 50.4719 26.8112 3 7.66996e-05 -4.10659
14122 1 35.9907 50.4682 24.4801 3 6.93604e-05 -4.10675
14123 1 38.5572 50.4809 24.479 3 9.09351e-05 -4.10619
14124 1 37.7013 50.4761 22.1482 3 8.40064e-05 -4.1064
14125 1 40.2706 50.4914 22.1461 3 0.000101376 -4.10578
14126 1 39.4136 50.486 19.8156 3 9.6766e-05 -4.10598
14127 1 41.9858 50.5027 19.8127 3 0.00010485 -4.10541
14128 1 41.1279 50.497 17.4824 3 0.000104207 -4.10558
14129 1 43.7026 50.5139 17.4791 3 0.000100003 -4.10517
14130 1 42.844 50.5084 15.1489 3 0.000103351 -4.10527
14131 1 45.4204 50.5244 15.1457 3 9.02979e-05 -4.10511
14132 1 44.5614 50.5193 12.8153 3 9.56053e-05 -4.10512
14133 1 47.1386 50.5335 12.8128 3 7.81961e-05 -4.10524
14134 1 46.2795 50.5291 10.4822 3 8.43955e-05 -4.10515
14135 1 48.8567 50.5411 10.4805 3 6.48546e-05 -4.10549
14136 1 47.9977 50.5375 8.14953 3 7.16393e-05 -4.10535
14137 1 50.5742 50.5472 8.14876 3 5.15444e-05 -4.10581
14138 1 49.7155 50.5443 5.8175 3 5.80676e-05 -4.10565
14139 1 52.291 50.5519 5.81761 3 3.95353e-05 -4.10615
14140 1 51.4327 50.5497 3.48607 3 4.53321e-05 -4.10598
14141 1 54.0071 50.5555 3.48695 3 2.95545e-05 -4.10647
14142 1 53.1491 50.5538 1.15518 3 3.42973e-05 -4.10631
14143 1 55.7225 50.5581 1.15669 3 2.15863e-05 -4.10677
14144 1 22.2994 48.4924 46.6337 3 0.000139127 -4.10475
14145 1 24.8743 48.4699 46.6299 3 0.000143716 -4.10529
14146 1 24.0165 48.4772 44.2997 3 0.000145168 -4.10508
14147 1 26.5882 48.4563 44.2967 3 0.000135718 -4.10576
14148 1 25.7316 48.4629 41.9662 3 0.000140372 -4.10553
14149 1 28.3 48.4453 41.9643 3 0.000123208 -4.1062
14150 1 27.4444 48.4504 39.6334 3 0.00012986 -4.10599
14151 1 30.0101 48.4378 39.6328 3 0.000110689 -4.10652
14152 1 29.1552 48.4411 37.3014 3 0.000116495 -4.10638
14153 1 31.719 48.4345 37.3017 3 0.000103859 -4.10666
14154 1 30.8646 48.4356 34.9701 3 0.000106248 -4.10661
14155 1 33.4278 48.4356 34.9708 3 0.000106248 -4.10661
14156 1 32.5734 48.4345 32.6392 3 0.000103859 -4.10666
14157 1 35.1372 48.4411 32.6395 3 0.000116495 -4.10638
14158 1 34.2823 48.4378 30.3081 3 0.000110689 -4.10652
14159 1 36.848 48.4504 30.3075 3 0.00012986 -4.10599
14160 1 35.9924 48.4453 27.9766 3 0.000123208 -4.1062
14161 1 38.5608 48.4629 27.9747 3 0.000140372 -4.10553
14162 1 37.7041 48.4563 25.6442 3 0.000135718 -4.10576
14163 1 40.2759 48.4772 25.6412 3 0.000145168 -4.10508
14164 1 39.4181 48.4699 23.311 3 0.000143716 -4.10529
14165 1 41.9929 48.4924 23.3072 3 0.000139127 -4.10475
14166 1 41.1342 48.4848 20.9772 3 0.000143575 -4.10489
14167 1 43.7115 48.507 20.9732 3 0.000126257 -4.10464
14168 1 42.8521 48.4998 18.6431 3 0.000132987 -4.10466
14169 1 45.4305 48.5201 18.6396 3 0.000112472 -4.10479
14170 1 44.571 48.5138 16.3093 3 0.000119477 -4.10468
14171 1 47.1494 48.5312 16.3067 3 9.70858e-05 -4.10514
14172 1 46.29 48.526 13.976 3 0.000105127 -4.10495
14173 1 48.8674 48.5401 13.9746 3 7.96234e-05 -4.10559
14174 1 48.0085 48.5359 11.6435 3 8.8415e-05 -4.10536
14175 1 50.5845 48.5471 11.6431 3 6.28605e-05 -4.10606
14176 1 49.7261 48.5439 9.3117 3 7.1026e-05 -4.10583
14177 1 52.3005 48.5524 9.31225 3 4.84785e-05 -4.10651
14178 1 51.4426 48.55 6.98056 3 5.5309e-05 -4.10629
14179 1 54.0156 48.5564 6.98191 3 3.69292e-05 -4.10691
14180 1 53.1581 48.5546 4.64998 3 4.23927e-05 -4.10672
14181 1 55.7297 48.5594 4.652 3 2.79348e-05 -4.10726
14182 1 54.8728 48.558 2.31987 3 3.21178e-05 -4.10709
14183 1 57.4432 48.5615 2.32242 3 2.11128e-05 -4.10755
14184 1 56.5865 48.5605 48.9488 3 2.42822e-05 -4.10742
14185 1 59.156 48.563 48.9517 3 1.61641e-05 -4.10778
14186 1 24.0058 46.4645 47.7994 3 0.000215458 -4.10402
14187 1 26.5817 46.4371 47.7954 3 0.000223329 -4.10465
14188 1 25.7236 46.4458 45.4652 3 0.000223842 -4.10441
14189 1 28.2958 46.4223 45.4624 3 0.000220441 -4.10515
14190 1 27.439 46.4292 43.1317 3 0.000222862 -4.1049
14191 1 30.0079 46.4121 43.1303 3 0.000210066 -4.10553
14192 1 29.1521 46.4165 40.7992 3 0.000215832 -4.10536
14193 1 31.7186 46.4075 40.7988 3 0.000202598 -4.10571
14194 1 30.8634 46.409 38.4674 3 0.000205374 -4.10565
14195 1 33.429 46.409 38.4675 3 0.000205374 -4.10565
14196 1 32.5738 46.4075 36.1362 3 0.000202598 -4.10571
14197 1 35.1403 46.4165 36.1358 3 0.000215832 -4.10536
14198 1 34.2845 46.4121 33.8047 3 0.000210066 -4.10553
14199 1 36.8533 46.4292 33.8033 3 0.000222862 -4.1049
14200 1 35.9965 46.4223 31.4726 3 0.000220441 -4.10515
14201 1 38.5687 46.4458 31.4698 3 0.000223842 -4.10441
14202 1 37.7107 46.4371 29.1396 3 0.000223329 -4.10465
14203 1 40.2866 46.4645 29.1356 3 0.000215458 -4.10402
14204 1 39.4274 46.455 26.8057 3 0.000222515 -4.1042
14205 1 42.0063 46.4838 26.801 3 0.000191148 -4.10387
14206 1 41.1463 46.4742 24.4712 3 0.000203648 -4.10391
14207 1 43.7269 46.5017 24.4668 3 0.000171451 -4.10408
14208 1 42.8666 46.493 22.1368 3 0.00018036 -4.10394
14209 1 45.447 46.5172 22.1332 3 0.000153068 -4.1046
14210 1 44.5871 46.5098 19.8029 3 0.000162836 -4.10431
14211 1 47.166 46.5297 19.8006 3 0.000128135 -4.10526
14212 1 46.3067 46.5238 17.4698 3 0.000141292 -4.10492
14213 1 48.8834 46.5395 17.4688 3 0.000101775 -4.10592
14214 1 48.0249 46.5349 15.1376 3 0.000114647 -4.10559
14215 1 50.5994 46.547 15.1377 3 7.90868e-05 -4.10655
14216 1 49.7416 46.5435 12.8061 3 8.98417e-05 -4.10624
14217 1 52.314 46.5526 12.8072 3 6.10093e-05 -4.1071
14218 1 51.4569 46.55 10.4754 3 6.94899e-05 -4.10683
14219 1 54.0274 46.5568 10.4773 3 4.71272e-05 -4.10758
14220 1 53.1709 46.5548 8.14516 3 5.35734e-05 -4.10735
14221 1 55.7398 46.5598 8.14768 3 3.66203e-05 -4.10798
14222 1 54.8837 46.5584 5.81539 3 4.14914e-05 -4.10779
14223 1 57.4513 46.5619 5.8184 3 2.8816e-05 -4.10831
14224 1 56.5957 46.561 3.48596 3 3.24265e-05 -4.10815
14225 1 59.1622 46.5634 3.48935 3 2.31807e-05 -4.10856
14226 1 58.3068 46.5628 1.15681 3 2.57534e-05 -4.10844
14227 1 60.8725 46.5644 1.16047 3 1.93806e-05 -4.10874
14228 1 27.4293 44.4089 46.6306 3 0.00038288 -4.10312
14229 1 30.0038 44.3861 46.6281 3 0.000400711 -4.10381
14230 1 29.1462 44.3921 44.2973 3 0.000400339 -4.1036
14231 1 31.7178 44.3799 44.296 3 0.000394144 -4.10404
14232 1 30.8609 44.382 41.9649 3 0.000396516 -4.10396
14233 1 33.4314 44.382 41.9642 3 0.000396516 -4.10396
14234 1 32.5746 44.3799 39.6331 3 0.000394144 -4.10404
14235 1 35.1462 44.3921 39.6318 3 0.000400339 -4.1036
14236 1 34.2886 44.3861 37.301 3 0.000400711 -4.10381
14237 1 36.8631 44.4089 37.2984 3 0.00038288 -4.10312
14238 1 36.0043 44.3997 34.9682 3 0.000392975 -4.10335
14239 1 38.5826 44.4303 34.9642 3 0.00037268 -4.10277
14240 1 37.7226 44.4192 32.6344 3 0.000378308 -4.10293
14241 1 40.3046 44.4542 32.6293 3 0.000321394 -4.1026
14242 1 39.4434 44.4421 30.2998 3 0.000351638 -4.10263
14243 1 42.0277 44.4776 30.2944 3 0.00027754 -4.10291
14244 1 41.1661 44.4661 27.9648 3 0.000295317 -4.10269
14245 1 43.7502 44.4984 27.9602 3 0.000254382 -4.10366
14246 1 42.8891 44.4885 25.6302 3 0.000265741 -4.10323
14247 1 45.4707 44.5154 25.6271 3 0.000217854 -4.10467
14248 1 44.6107 44.5074 23.2965 3 0.000239108 -4.10415
14249 1 47.189 44.5286 23.2949 3 0.000170679 -4.10565
14250 1 46.3301 44.5224 20.9638 3 0.000194065 -4.10517
14251 1 48.9051 44.5387 20.9636 3 0.000130694 -4.10653
14252 1 48.0473 44.534 18.6321 3 0.000149442 -4.10611
14253 1 50.6192 44.5464 18.633 3 0.000100116 -4.10729
14254 1 49.7623 44.5428 16.3012 3 0.000114335 -4.10692
14255 1 52.3317 44.552 16.3029 3 7.73617e-05 -4.10793
14256 1 51.4756 44.5494 13.9708 3 8.78852e-05 -4.10762
14257 1 54.0428 44.5561 13.9732 3 6.04978e-05 -4.10847
14258 1 53.1874 44.5542 11.6409 3 6.82774e-05 -4.10821
14259 1 55.7527 44.5591 11.6439 3 4.81043e-05 -4.10891
14260 1 54.8979 44.5577 9.31148 3 5.38302e-05 -4.1087
14261 1 57.4618 44.5611 9.31485 3 3.89599e-05 -4.10927
14262 1 56.6074 44.5602 6.9823 3 4.31812e-05 -4.1091
14263 1 59.17 44.5625 6.98598 3 3.24567e-05 -4.10954
14264 1 58.316 44.5619 4.65335 3 3.54152e-05 -4.10942
14265 1 60.8778 44.5634 4.65725 3 2.80714e-05 -4.10974
14266 1 60.024 44.563 2.32456 3 2.99929e-05 -4.10965
14267 1 62.5852 44.5639 2.3286 3 2.55411e-05 -4.10985
14268 1 61.7315 44.5637 48.9545 3 2.66081e-05 -4.1098
14269 1 29.1358 42.3686 47.7958 3 0.000727556 -4.10066
14270 1 31.7164 42.3521 47.7933 3 0.000798772 -4.10116
14271 1 30.8566 42.355 45.4626 3 0.000797129 -4.10107
14272 1 33.4358 42.355 45.4606 3 0.000797129 -4.10107
14273 1 32.576 42.3521 43.1299 3 0.000798772 -4.10116
14274 1 35.1566 42.3686 43.1273 3 0.000727556 -4.10066
14275 1 34.2959 42.3605 40.797 3 0.000772711 -4.10088
14276 1 36.8798 42.3905 40.7933 3 0.000677918 -4.10047
14277 1 36.0179 42.3787 38.4634 3 0.000686635 -4.10053
14278 1 38.6055 42.4177 38.4583 3 0.000607066 -4.10044
14279 1 37.7423 42.4036 36.1289 3 0.000666688 -4.10046
14280 1 40.3329 42.4471 36.1229 3 0.000477406 -4.10095
14281 1 39.4691 42.4324 33.7936 3 0.000529361 -4.10061
14282 1 42.0594 42.4743 33.7881 3 0.000438746 -4.10206
14283 1 41.1964 42.4611 31.4584 3 0.000450511 -4.10145
14284 1 43.7828 42.4968 31.4543 3 0.000393942 -4.10359
14285 1 42.9215 42.4862 29.124 3 0.00042324 -4.10279
14286 1 45.5025 42.5143 29.1218 3 0.000300849 -4.10512
14287 1 44.6431 42.5061 26.7909 3 0.000348477 -4.10439
14288 1 47.219 42.5276 26.7902 3 0.000222109 -4.10638
14289 1 46.3611 42.5214 24.4588 3 0.000258139 -4.10578
14290 1 48.9327 42.5375 24.4594 3 0.000166097 -4.10743
14291 1 48.0762 42.5329 22.1277 3 0.000191662 -4.10693
14292 1 50.6442 42.5449 22.1292 3 0.000126503 -4.10829
14293 1 49.7887 42.5415 19.7972 3 0.000144591 -4.10788
14294 1 52.3538 42.5502 19.7994 3 9.82295e-05 -4.109
14295 1 51.4992 42.5478 17.4672 3 0.000111213 -4.10866
14296 1 54.0619 42.5541 17.47 3 7.77779e-05 -4.10959
14297 1 53.208 42.5523 15.1376 3 8.71759e-05 -4.10931
14298 1 55.7687 42.5568 15.1409 3 6.28703e-05 -4.11006
14299 1 54.9155 42.5556 12.8084 3 6.97246e-05 -4.10984
14300 1 57.4746 42.5587 12.8119 3 5.20948e-05 -4.11044
14301 1 56.6218 42.5579 10.4793 3 5.70569e-05 -4.11026
14302 1 59.1797 42.5599 10.4831 3 4.44245e-05 -4.11072
14303 1 58.3272 42.5594 8.15044 3 4.79016e-05 -4.11059
14304 1 60.8842 42.5607 8.15435 3 3.93075e-05 -4.11093
14305 1 60.032 42.5604 5.82166 3 4.15799e-05 -4.11084
14306 1 62.5884 42.5612 5.82568 3 3.63613e-05 -4.11105
14307 1 61.7363 42.561 3.49297 3 3.75856e-05 -4.111
14308 1 63.4404 42.5613 1.16432 3 3.56627e-05 -4.11108
14309 1 32.5786 40.3255 46.6267 3 0.00174833 -4.0961
14310 1 35.1747 40.3475 46.6228 3 0.00125765 -4.09618
14311 1 34.309 40.337 44.2927 3 0.00140882 -4.09595
14312 1 36.9071 40.3753 44.2884 3 0.00120617 -4.09682
14313 1 36.0407 40.3604 41.9586 3 0.00123587 -4.0965
14314 1 38.6418 40.4095 41.9528 3 0.000834341 -4.09754
14315 1 37.7744 40.392 39.6236 3 0.00102093 -4.097
14316 1 40.375 40.4438 39.6174 3 0.000740759 -4.09934
14317 1 39.5088 40.427 37.288 3 0.000755249 -4.09835
14318 1 42.1035 40.4736 37.2829 3 0.000739321 -4.1016
14319 1 41.24 40.4595 34.953 3 0.0007533 -4.10038
14320 1 43.8259 40.4963 34.95 3 0.000568832 -4.10409
14321 1 42.9655 40.4858 32.6192 3 0.000674869 -4.10288
14322 1 45.5433 40.5133 32.6181 3 0.000391777 -4.10601
14323 1 44.6851 40.5054 30.2869 3 0.000470604 -4.10512
14324 1 47.2567 40.5259 30.2871 3 0.000281858 -4.10748
14325 1 46.4004 40.5201 27.9555 3 0.000330859 -4.10679
14326 1 48.967 40.5352 27.9568 3 0.000209224 -4.10863
14327 1 48.1122 40.5309 25.6249 3 0.000241917 -4.10809
14328 1 50.6748 40.542 25.6269 3 0.00015952 -4.10956
14329 1 49.8212 40.5389 23.2948 3 0.000182154 -4.10912
14330 1 52.3807 40.5468 23.2973 3 0.000124584 -4.11031
14331 1 51.528 40.5446 20.965 3 0.000140532 -4.10995
14332 1 54.085 40.5503 20.968 3 9.9578e-05 -4.11092
14333 1 53.233 40.5487 18.6356 3 0.00011106 -4.11063
14334 1 55.788 40.5526 18.6388 3 8.15436e-05 -4.11141
14335 1 54.9366 40.5515 16.3063 3 8.98292e-05 -4.11118
14336 1 57.49 40.5542 16.3098 3 6.85581e-05 -4.11179
14337 1 56.6391 40.5535 13.9772 3 7.44571e-05 -4.11161
14338 1 59.1912 40.5552 13.9808 3 5.94724e-05 -4.11209
14339 1 58.3407 40.5548 11.6482 3 6.36053e-05 -4.11195
14340 1 60.8919 40.5559 11.6519 3 5.34147e-05 -4.11229
14341 1 60.0416 40.5556 9.31927 3 5.61058e-05 -4.1122
14342 1 62.5922 40.5562 9.32296 3 4.9966e-05 -4.11241
14343 1 61.7421 40.5561 6.99036 3 5.13916e-05 -4.11236
14344 1 63.4423 40.5563 4.66148 3 4.91519e-05 -4.11244
14345 1 34.3321 38.3177 47.7889 3 0.00244152 -4.08852
14346 1 36.9511 38.3657 47.7844 3 0.0017486 -4.09123
14347 1 36.0777 38.3464 45.4552 3 0.0022478 -4.09076
14348 1 38.6958 38.4067 45.449 3 0.00134237 -4.0943
14349 1 37.824 38.3862 43.1196 3 0.00138854 -4.09254
14350 1 40.434 38.4448 43.1139 3 0.00142618 -4.09789
14351 1 39.5659 38.4263 40.7844 3 0.00134931 -4.09617
14352 1 42.1618 38.4747 40.7803 3 0.00123353 -4.10194
14353 1 41.2992 38.461 38.4498 3 0.00140074 -4.09991
14354 1 43.8807 38.496 38.4483 3 0.000745357 -4.10521
14355 1 43.022 38.4862 36.1171 3 0.000956126 -4.10379
14356 1 45.5938 38.5116 36.1171 3 0.000497936 -4.10738
14357 1 44.7379 38.5044 33.7855 3 0.000601529 -4.10638
14358 1 47.3027 38.523 33.7865 3 0.000355448 -4.10893
14359 1 46.4487 38.5177 31.4547 3 0.000418448 -4.10821
14360 1 49.0084 38.5312 31.4564 3 0.000262943 -4.11013
14361 1 48.1559 38.5274 29.1244 3 0.000304374 -4.10957
14362 1 50.7115 38.5371 29.1266 3 0.000200182 -4.11108
14363 1 49.8603 38.5344 26.7944 3 0.00022877 -4.11063
14364 1 52.4127 38.5412 26.797 3 0.000156521 -4.11184
14365 1 51.5623 38.5393 24.4647 3 0.000176425 -4.11148
14366 1 54.1123 38.5441 24.4674 3 0.000125644 -4.11245
14367 1 53.2627 38.5428 22.1351 3 0.000139759 -4.11216
14368 1 55.8106 38.546 22.138 3 0.000103655 -4.11293
14369 1 54.9616 38.5451 19.8057 3 0.000113716 -4.11271
14370 1 57.508 38.5472 19.8086 3 8.81217e-05 -4.11331
14371 1 56.6594 38.5467 17.4762 3 9.52062e-05 -4.11313
14372 1 59.2047 38.548 17.4792 3 7.738e-05 -4.11359
14373 1 58.3565 38.5477 15.1468 3 8.22134e-05 -4.11346
14374 1 60.9009 38.5485 15.1498 3 7.03797e-05 -4.11379
14375 1 60.0529 38.5483 12.8175 3 7.3456e-05 -4.1137
14376 1 62.5967 38.5487 12.8205 3 6.63748e-05 -4.11391
14377 1 61.7488 38.5486 10.4881 3 6.80542e-05 -4.11386
14378 1 63.4446 38.5488 8.15876 3 6.54262e-05 -4.11394
14379 1 37.8966 36.3874 46.6191 3 0.00318988 -4.08774
14380 1 40.5129 36.4493 46.6147 3 0.00306559 -4.09744
14381 1 39.645 36.4312 44.2844 3 0.00321826 -4.09408
14382 1 42.2355 36.4759 44.2823 3 0.00172688 -4.10345
14383 1 41.3761 36.4641 41.9512 3 0.00251009 -4.10069
14384 1 43.9485 36.4947 41.9506 3 0.000962799 -4.10695
14385 1 43.0929 36.4861 39.6193 3 0.00124811 -4.10542
14386 1 45.6554 36.5081 39.6197 3 0.000641136 -4.10919
14387 1 44.8026 36.502 37.2881 3 0.00077966 -4.10821
14388 1 47.3581 36.5178 37.2892 3 0.000448906 -4.11076
14389 1 46.5073 36.5134 34.9574 3 0.000533808 -4.11003
14390 1 49.0577 36.5247 34.9589 3 0.00032674 -4.11193
14391 1 48.2082 36.5215 32.627 3 0.000381385 -4.11138
14392 1 50.7548 36.5295 32.6288 3 0.000245275 -4.11284
14393 1 49.9065 36.5273 30.2968 3 0.00028186 -4.11242
14394 1 52.4501 36.5328 30.2987 3 0.000190284 -4.11357
14395 1 51.6027 36.5313 27.9667 3 0.000215238 -4.11322
14396 1 54.144 36.535 27.9686 3 0.000152629 -4.11414
14397 1 53.2972 36.5341 25.6366 3 0.000169651 -4.11387
14398 1 55.8369 36.5365 25.6385 3 0.000126611 -4.11459
14399 1 54.9906 36.5358 23.3065 3 0.000138424 -4.11437
14400 1 57.5289 36.5373 23.3085 3 0.000108721 -4.11494
14401 1 56.6829 36.537 20.9765 3 0.000116846 -4.11477
14402 1 59.2202 36.5378 20.9784 3 9.66157e-05 -4.1152
14403 1 58.3746 36.5376 18.6464 3 0.000102039 -4.11508
14404 1 60.9112 36.5381 18.6483 3 8.88578e-05 -4.11538
14405 1 60.0658 36.538 16.3163 3 9.22731e-05 -4.1153
14406 1 62.6019 36.5382 16.3183 3 8.45085e-05 -4.11548
14407 1 61.7565 36.5382 13.9863 3 8.62987e-05 -4.11544
14408 1 63.4471 36.5383 11.6562 3 8.34506e-05 -4.11551
14409 1 39.7529 34.4403 47.7935 3 0.00816224 -4.09364
14410 1 42.3282 34.4759 47.7909 3 0.00235013 -4.10581
14411 1 41.4732 34.4661 45.4604 3 0.00352723 -4.10307
14412 1 44.0316 34.4908 45.4588 3 0.00131102 -4.10947
14413 1 43.1809 34.484 43.1277 3 0.00171058 -4.10786
14414 1 45.7296 34.5017 43.1272 3 0.00082256 -4.11151
14415 1 44.8812 34.4967 40.7959 3 0.0010314 -4.11059
14416 1 47.4237 34.5094 40.796 3 0.000544517 -4.11294
14417 1 46.577 34.5058 38.4645 3 0.000662642 -4.11231
14418 1 49.1152 34.5148 38.4648 3 0.000379088 -4.114
14419 1 48.2698 34.5123 36.1333 3 0.000452612 -4.1135
14420 1 50.8048 34.5185 36.1337 3 0.000278421 -4.11479
14421 1 49.9602 34.5168 33.8022 3 0.000322982 -4.11441
14422 1 52.4929 34.521 33.8027 3 0.000213748 -4.11541
14423 1 51.649 34.5199 31.4712 3 0.000242188 -4.11512
14424 1 54.1801 34.5225 31.4716 3 0.000171836 -4.1159
14425 1 53.3366 34.5218 29.1401 3 0.000190723 -4.11567
14426 1 55.8664 34.5235 29.1406 3 0.000144167 -4.11628
14427 1 55.0233 34.5231 26.809 3 0.000156629 -4.1161
14428 1 57.5522 34.524 26.8095 3 0.000125593 -4.11657
14429 1 56.7094 34.5238 24.478 3 0.000133924 -4.11644
14430 1 59.2376 34.5243 24.4784 3 0.000113274 -4.11679
14431 1 58.395 34.5242 22.1469 3 0.000118807 -4.11669
14432 1 60.9227 34.5244 22.1474 3 0.000105486 -4.11695
14433 1 60.0802 34.5243 19.8158 3 0.00010893 -4.11688
14434 1 62.6076 34.5244 19.8163 3 0.000101178 -4.11704
14435 1 61.7651 34.5244 17.4848 3 0.000102928 -4.117
14436 1 63.45 34.5244 15.1537 3 0.000100115 -4.11706
14437 1 43.2892 32.477 46.6445 3 0.00232825 -4.11213
14438 1 45.8171 32.4902 46.6405 3 0.000870441 -4.11448
14439 1 44.9754 32.4865 44.3102 3 0.00118508 -4.11381
14440 1 47.4995 32.4961 44.3071 3 0.000543753 -4.11541
14441 1 46.6585 32.4934 41.9767 3 0.000686325 -4.11496
14442 1 49.1805 32.5002 41.9742 3 0.00037052 -4.11615
14443 1 48.3401 32.4983 39.6436 3 0.000439292 -4.11582
14444 1 50.8606 32.503 39.6414 3 0.000271177 -4.11673
14445 1 50.0206 32.5017 37.3107 3 0.000314636 -4.11645
14446 1 52.5403 32.5048 37.3087 3 0.000213233 -4.11719
14447 1 51.7005 32.504 34.978 3 0.00023953 -4.11697
14448 1 54.2196 32.5059 34.9762 3 0.000175519 -4.11756
14449 1 53.38 32.5054 32.6454 3 0.000192013 -4.11739
14450 1 55.8986 32.5065 32.6438 3 0.000150226 -4.11785
14451 1 55.0591 32.5063 30.3129 3 0.000161637 -4.11771
14452 1 57.5775 32.5068 30.3114 3 0.000133417 -4.11808
14453 1 56.7381 32.5067 27.9805 3 0.000141077 -4.11797
14454 1 59.2563 32.5069 27.9791 3 0.000122039 -4.11825
14455 1 58.4169 32.5069 25.6482 3 0.00012712 -4.11817
14456 1 60.935 32.5069 25.6468 3 0.000114696 -4.11837
14457 1 60.0957 32.5069 23.3159 3 0.000117929 -4.11831
14458 1 62.6137 32.5069 23.3145 3 0.000110635 -4.11844
14459 1 61.7744 32.5069 20.9836 3 0.000112312 -4.11841
14460 1 63.4531 32.5069 18.6513 3 0.000109647 -4.11845
14461 1 8.57232 62.5896 47.7929 5 12.3402 -3.52387
14462 1 11.144 62.5896 47.7929 5 12.3402 -3.52387
14463 1 10.2868 62.5896 45.4616 5 12.3402 -3.52387
14464 1 12.8585 62.5896 45.4616 5 12.3402 -3.52387
14465 1 12.0012 62.5896 43.1302 5 12.3402 -3.52387
14466 1 14.5729 62.5896 43.1302 5 12.3402 -3.52387
14467 1 13.7157 62.5896 40.7989 5 12.3402 -3.52387
14468 1 16.2874 62.5896 40.7989 5 12.3402 -3.52387
14469 1 15.4302 62.5896 38.4675 5 12.3402 -3.52387
14470 1 18.0019 62.5896 38.4675 5 12.3402 -3.52387
14471 1 17.1446 62.5896 36.1361 5 12.3402 -3.52387
14472 1 19.7163 62.5896 36.1361 5 12.3402 -3.52387
14473 1 18.8591 62.5896 33.8048 5 12.3402 -3.52387
14474 1 21.4308 62.5896 33.8048 5 12.3402 -3.52387
14475 1 20.5736 62.5896 31.4734 5 12.3402 -3.52387
14476 1 23.1453 62.5896 31.4734 5 12.3402 -3.52387
14477 1 22.288 62.5896 29.142 5 12.3402 -3.52387
14478 1 24.8597 62.5896 29.142 5 12.3402 -3.52387
14479 1 24.0025 62.5896 26.8107 5 12.3402 -3.52387
14480 1 26.5742 62.5896 26.8107 5 12.3402 -3.52387
14481 1 25.717 62.5896 24.4793 5 12.3402 -3.52387
14482 1 28.2886 62.5896 24.4793 5 12.3402 -3.52387
14483 1 27.4314 62.5896 22.1479 5 12.3402 -3.52387
14484 1 30.0031 62.5896 22.1479 5 12.3402 -3.52387
14485 1 29.1459 62.5896 19.8166 5 12.3402 -3.52387
14486 1 31.7176 62.5896 19.8166 5 12.3402 -3.52387
14487 1 30.8603 62.5896 17.4852 5 12.3402 -3.52387
14488 1 33.432 62.5896 17.4852 5 12.3402 -3.52387
14489 1 32.5748 62.5896 15.1539 5 12.3402 -3.52387
14490 1 35.1465 62.5896 15.1539 5 12.3402 -3.52387
14491 1 34.2893 62.5896 12.8225 5 12.3402 -3.52387
14492 1 36.861 62.5896 12.8225 5 12.3402 -3.52387
14493 1 36.0037 62.5896 10.4911 5 12.3402 -3.52387
14494 1 38.5754 62.5896 10.4911 5 12.3402 -3.52387
14495 1 37.7182 62.5896 8.15977 5 12.3402 -3.52387
14496 1 40.2899 62.5896 8.15977 5 12.3402 -3.52387
14497 1 39.4327 62.5896 5.82841 5 12.3402 -3.52387
14498 1 42.0044 62.5896 5.82841 5 12.3402 -3.52387
14499 1 41.1471 62.5896 3.49704 5 12.3402 -3.52387
14500 1 43.7188 62.5896 3.49704 5 12.3402 -3.52387
14501 1 42.8616 62.5896 1.16568 5 12.3402 -3.52387
14502 1 45.4333 62.5896 1.16568 5 12.3402 -3.52387
14503 1 12.0012 60.5706 46.6273 3 4.0169e-16 -4.09043
14504 1 14.5729 60.5706 46.6273 3 1.0169e-16 -4.09032
14505 1 13.7157 60.5706 44.2959 3 1e-16 -4.09036
14506 1 16.2874 60.5706 44.2959 3 4e-16 -4.09022
14507 1 15.4302 60.5706 41.9645 3 1e-16 -4.09027
14508 1 18.0019 60.5706 41.9645 3 1e-16 -4.09012
14509 1 17.1446 60.5706 39.6332 3 4e-16 -4.09017
14510 1 19.7163 60.5706 39.6332 3 1e-16 -4.09001
14511 1 18.8591 60.5706 37.3018 3 4.54384e-28 -4.09006
14512 1 21.4308 60.5706 37.3018 3 4e-16 -4.08989
14513 1 20.5736 60.5706 34.9704 3 3.99999e-16 -4.08995
14514 1 23.1453 60.5706 34.9704 3 6.05845e-28 -4.08978
14515 1 22.288 60.5706 32.6391 3 1e-16 -4.08984
14516 1 24.8597 60.5706 32.6391 3 4e-16 -4.08968
14517 1 24.0025 60.5706 30.3077 3 1e-16 -4.08973
14518 1 26.5742 60.5706 30.3077 3 9.99999e-17 -4.08959
14519 1 25.717 60.5706 27.9764 3 4e-16 -4.08964
14520 1 28.2886 60.5706 27.9764 3 1e-16 -4.08953
14521 1 27.4314 60.5706 25.645 3 1e-16 -4.08956
14522 1 30.0031 60.5706 25.645 3 4e-16 -4.08948
14523 1 29.1459 60.5706 23.3136 3 1e-16 -4.0895
14524 1 31.7176 60.5706 23.3136 3 1e-16 -4.08946
14525 1 30.8603 60.5706 20.9823 3 4e-16 -4.08947
14526 1 33.432 60.5706 20.9823 3 9.99999e-17 -4.08947
14527 1 32.5748 60.5706 18.6509 3 4.03897e-28 -4.08946
14528 1 35.1465 60.5706 18.6509 3 4.00001e-16 -4.0895
14529 1 34.2893 60.5706 16.3195 3 4e-16 -4.08948
14530 1 36.861 60.5706 16.3195 3 1e-16 -4.08956
14531 1 36.0037 60.5706 13.9882 3 9.99999e-17 -4.08953
14532 1 38.5754 60.5706 13.9882 3 1e-16 -4.08964
14533 1 37.7182 60.5706 11.6568 3 9.99999e-17 -4.08959
14534 1 40.2899 60.5706 11.6568 3 3.99999e-16 -4.08973
14535 1 39.4327 60.5706 9.32545 3 4e-16 -4.08968
14536 1 42.0044 60.5706 9.32545 3 4.03897e-28 -4.08984
14537 1 41.1471 60.5706 6.99409 3 9.99999e-17 -4.08978
14538 1 43.7188 60.5706 6.99409 3 4e-16 -4.08995
14539 1 42.8616 60.5706 4.66273 3 9.99999e-17 -4.08989
14540 1 45.4333 60.5706 4.66273 3 9.99999e-17 -4.09006
14541 1 44.5761 60.5706 2.33136 3 4.00001e-16 -4.09001
14542 1 47.1477 60.5706 2.33136 3 9.99999e-17 -4.09017
14543 1 46.2905 60.5706 0 3 1.0507e-16 -4.09012
14544 1 48.8622 60.5706 0 3 4.0507e-16 -4.09027
14545 1 13.7157 58.5516 47.7929 3 0.000691861 -4.10581
14546 1 16.2874 58.5516 47.7929 3 0.000591074 -4.10578
14547 1 15.4302 58.5516 45.4616 3 0.000624647 -4.10579
14548 1 18.0019 58.5516 45.4616 3 0.000524669 -4.10577
14549 1 17.1446 58.5516 43.1302 3 0.000557723 -4.10578
14550 1 19.7163 58.5516 43.1302 3 0.000458403 -4.10576
14551 1 18.8591 58.5516 40.7989 3 0.000491636 -4.10577
14552 1 21.4308 58.5516 40.7989 3 0.000389679 -4.10576
14553 1 20.5736 58.5516 38.4675 3 0.000424557 -4.10576
14554 1 23.1453 58.5516 38.4675 3 0.000315834 -4.10575
14555 1 22.288 58.5516 36.1361 3 0.000353488 -4.10575
14556 1 24.8597 58.5516 36.1361 3 0.000236862 -4.10575
14557 1 24.0025 58.5516 33.8048 3 0.000276842 -4.10575
14558 1 26.5742 58.5516 33.8048 3 0.000157252 -4.10574
14559 1 25.717 58.5516 31.4734 3 0.000196676 -4.10574
14560 1 28.2886 58.5516 31.4734 3 8.5703e-05 -4.10574
14561 1 27.4314 58.5516 29.142 3 0.000119794 -4.10574
14562 1 30.0031 58.5516 29.142 3 3.29962e-05 -4.10574
14563 1 29.1459 58.5516 26.8107 3 5.6351e-05 -4.10574
14564 1 31.7176 58.5516 26.8107 3 8.46362e-06 -4.10574
14565 1 30.8603 58.5516 24.4793 3 1.67882e-05 -4.10574
14566 1 33.432 58.5516 24.4793 3 1.67882e-05 -4.10574
14567 1 32.5748 58.5516 22.1479 3 8.46362e-06 -4.10574
14568 1 35.1465 58.5516 22.1479 3 5.63512e-05 -4.10574
14569 1 34.2893 58.5516 19.8166 3 3.29959e-05 -4.10574
14570 1 36.861 58.5516 19.8166 3 0.000119794 -4.10574
14571 1 36.0037 58.5516 17.4852 3 8.57031e-05 -4.10574
14572 1 38.5754 58.5516 17.4852 3 0.000196676 -4.10574
14573 1 37.7182 58.5516 15.1539 3 0.000157252 -4.10574
14574 1 40.2899 58.5516 15.1539 3 0.000276842 -4.10575
14575 1 39.4327 58.5516 12.8225 3 0.000236861 -4.10575
14576 1 42.0044 58.5516 12.8225 3 0.000353488 -4.10575
14577 1 41.1471 58.5516 10.4911 3 0.000315834 -4.10575
14578 1 43.7188 58.5516 10.4911 3 0.000424556 -4.10576
14579 1 42.8616 58.5516 8.15977 3 0.00038968 -4.10576
14580 1 45.4333 58.5516 8.15977 3 0.000491636 -4.10577
14581 1 44.5761 58.5516 5.82841 3 0.000458404 -4.10576
14582 1 47.1477 58.5516 5.82841 3 0.000557723 -4.10578
14583 1 46.2905 58.5516 3.49704 3 0.000524669 -4.10577
14584 1 48.8622 58.5516 3.49704 3 0.000624646 -4.10579
14585 1 48.005 58.5516 1.16568 3 0.000591073 -4.10578
14586 1 50.5767 58.5516 1.16568 3 0.000691861 -4.10581
14587 1 17.1546 56.5458 46.6294 3 6.85784e-05 -4.10548
14588 1 19.7277 56.5425 46.6286 3 7.32526e-05 -4.10558
14589 1 18.8701 56.5436 44.2975 3 7.31499e-05 -4.10554
14590 1 21.4425 56.5402 44.2966 3 6.91736e-05 -4.10569
14591 1 20.5851 56.5413 41.9656 3 7.18433e-05 -4.10563
14592 1 23.1566 56.5379 41.9647 3 6.07179e-05 -4.1058
14593 1 22.2996 56.539 39.6336 3 6.5392e-05 -4.10574
14594 1 24.8701 56.5359 39.633 3 4.99747e-05 -4.10592
14595 1 24.0134 56.5369 37.3018 3 5.54688e-05 -4.10586
14596 1 26.5829 56.5341 37.3014 3 3.9008e-05 -4.10603
14597 1 25.7266 56.5349 34.9701 3 4.43784e-05 -4.10598
14598 1 28.2951 56.5327 34.97 3 2.97496e-05 -4.10612
14599 1 27.4391 56.5333 32.6387 3 3.40923e-05 -4.10608
14600 1 30.0068 56.5317 32.6388 3 2.33292e-05 -4.10618
14601 1 29.151 56.5321 30.3073 3 2.61152e-05 -4.10615
14602 1 31.7183 56.5313 30.3077 3 2.04271e-05 -4.10621
14603 1 30.8626 56.5315 27.9762 3 2.13988e-05 -4.1062
14604 1 33.4298 56.5315 27.9765 3 2.13987e-05 -4.1062
14605 1 32.574 56.5313 25.6451 3 2.04271e-05 -4.10621
14606 1 35.1414 56.5321 25.6454 3 2.61152e-05 -4.10615
14607 1 34.2855 56.5317 23.3139 3 2.33292e-05 -4.10618
14608 1 36.8533 56.5333 23.3141 3 3.40923e-05 -4.10608
14609 1 35.9973 56.5327 20.9827 3 2.97497e-05 -4.10612
14610 1 38.5658 56.5349 20.9826 3 4.43784e-05 -4.10598
14611 1 37.7095 56.5341 18.6513 3 3.9008e-05 -4.10603
14612 1 40.2789 56.5369 18.6509 3 5.54688e-05 -4.10586
14613 1 39.4223 56.5359 16.3197 3 4.99747e-05 -4.10592
14614 1 41.9927 56.539 16.3191 3 6.53921e-05 -4.10574
14615 1 41.1358 56.5379 13.988 3 6.0718e-05 -4.1058
14616 1 43.7072 56.5413 13.9872 3 7.18434e-05 -4.10563
14617 1 42.8499 56.5402 11.6561 3 6.91735e-05 -4.10569
14618 1 45.4223 56.5436 11.6552 3 7.31499e-05 -4.10554
14619 1 44.5647 56.5425 9.32414 3 7.32525e-05 -4.10558
14620 1 47.1378 56.5458 9.32331 3 6.85784e-05 -4.10548
14621 1 46.28 56.5447 6.9922 3 7.15176e-05 -4.10551
14622 1 48.8536 56.5478 6.99154 3 5.91397e-05 -4.10545
14623 1 47.9957 56.5468 4.66036 3 6.4315e-05 -4.10546
14624 1 50.5695 56.5495 4.65993 3 4.74132e-05 -4.10546
14625 1 49.7116 56.5487 2.32867 3 5.34402e-05 -4.10545
14626 1 52.2854 56.5509 2.3285 3 3.5419e-05 -4.10549
14627 1 51.4275 56.5502 48.9558 3 4.12988e-05 -4.10547
14628 1 54.0011 56.5521 48.9559 3 2.48519e-05 -4.10554
14629 1 18.8757 54.5363 47.7963 3 7.17161e-05 -4.10579
14630 1 21.4491 54.529 47.7945 3 7.15719e-05 -4.10597
14631 1 20.5915 54.5315 45.4638 3 7.31397e-05 -4.10589
14632 1 23.1634 54.524 45.4621 3 6.42053e-05 -4.10616
14633 1 22.3064 54.5265 43.1313 3 6.85282e-05 -4.10606
14634 1 24.8765 54.5194 43.13 3 5.28765e-05 -4.10637
14635 1 24.0201 54.5217 40.799 3 5.89024e-05 -4.10627
14636 1 26.5884 54.5154 40.7982 3 4.01072e-05 -4.10657
14637 1 25.7325 54.5173 38.467 3 4.65067e-05 -4.10648
14638 1 28.2992 54.5122 38.4667 3 2.82602e-05 -4.10674
14639 1 27.4439 54.5137 36.1353 3 3.38936e-05 -4.10666
14640 1 30.0093 54.5101 36.1356 3 1.96384e-05 -4.10685
14641 1 29.1543 54.511 33.8041 3 2.34403e-05 -4.1068
14642 1 31.7188 54.5092 33.8046 3 1.5675e-05 -4.1069
14643 1 30.8641 54.5095 31.4731 3 1.70086e-05 -4.10688
14644 1 33.4283 54.5095 31.4738 3 1.70086e-05 -4.10688
14645 1 32.5736 54.5092 29.1422 3 1.5675e-05 -4.1069
14646 1 35.1381 54.511 29.1427 3 2.34402e-05 -4.1068
14647 1 34.2831 54.5101 26.8112 3 1.96384e-05 -4.10685
14648 1 36.8485 54.5137 26.8115 3 3.38936e-05 -4.10666
14649 1 35.9932 54.5122 24.4801 3 2.82602e-05 -4.10674
14650 1 38.5598 54.5173 24.4798 3 4.65067e-05 -4.10648
14651 1 37.704 54.5154 22.1486 3 4.01072e-05 -4.10657
14652 1 40.2723 54.5217 22.1478 3 5.89024e-05 -4.10627
14653 1 39.4159 54.5194 19.8168 3 5.28765e-05 -4.10637
14654 1 41.986 54.5265 19.8155 3 6.85282e-05 -4.10606
14655 1 41.129 54.524 17.4847 3 6.42053e-05 -4.10616
14656 1 43.7008 54.5315 17.483 3 7.31397e-05 -4.10589
14657 1 42.8433 54.529 15.1523 3 7.15719e-05 -4.10597
14658 1 45.4166 54.5363 15.1505 3 7.17161e-05 -4.10579
14659 1 44.5586 54.5339 12.8197 3 7.3189e-05 -4.10583
14660 1 47.1331 54.5408 12.8182 3 6.48974e-05 -4.10576
14661 1 46.2748 54.5386 10.4873 3 6.89167e-05 -4.10576
14662 1 48.8499 54.5448 10.4861 3 5.47837e-05 -4.10582
14663 1 47.9915 54.5429 8.15503 3 6.00846e-05 -4.10578
14664 1 50.5668 54.5481 8.15428 3 4.33513e-05 -4.10594
14665 1 49.7084 54.5465 5.82308 3 4.91134e-05 -4.10588
14666 1 52.2835 54.5508 5.82284 3 3.2574e-05 -4.10611
14667 1 51.4252 54.5496 3.49147 3 3.78003e-05 -4.10602
14668 1 53.9999 54.553 3.49171 3 2.3151e-05 -4.10628
14669 1 53.1417 54.552 1.16019 3 2.76414e-05 -4.1062
14670 1 55.716 54.5547 1.16086 3 1.56108e-05 -4.10645
14671 1 22.3087 52.5142 46.6294 3 8.22461e-05 -4.10584
14672 1 24.8793 52.5027 46.6274 3 6.84997e-05 -4.10633
14673 1 24.0229 52.5064 44.2966 3 7.43575e-05 -4.10616
14674 1 26.5911 52.496 44.2952 3 5.46001e-05 -4.10665
14675 1 25.7354 52.4992 41.9642 3 6.17394e-05 -4.10649
14676 1 28.3014 52.4906 41.9636 3 4.06068e-05 -4.10692
14677 1 27.4464 52.4931 39.6323 3 4.73203e-05 -4.10679
14678 1 30.0106 52.4871 39.6325 3 2.98991e-05 -4.1071
14679 1 29.1561 52.4886 37.301 3 3.46489e-05 -4.10702
14680 1 31.7191 52.4855 37.3017 3 2.48604e-05 -4.10718
14681 1 30.8649 52.486 34.97 3 2.65644e-05 -4.10715
14682 1 33.4275 52.486 34.9709 3 2.65644e-05 -4.10715
14683 1 32.5733 52.4855 32.6392 3 2.48604e-05 -4.10718
14684 1 35.1363 52.4886 32.6399 3 3.46489e-05 -4.10702
14685 1 34.2818 52.4871 30.3084 3 2.98991e-05 -4.1071
14686 1 36.846 52.4931 30.3086 3 4.73203e-05 -4.10679
14687 1 35.991 52.4906 27.9773 3 4.06068e-05 -4.10692
14688 1 38.557 52.4992 27.9767 3 6.17394e-05 -4.10649
14689 1 37.7013 52.496 25.6457 3 5.46001e-05 -4.10665
14690 1 40.2695 52.5064 25.6443 3 7.43575e-05 -4.10616
14691 1 39.4131 52.5027 23.3135 3 6.84997e-05 -4.10633
14692 1 41.9837 52.5142 23.3115 3 8.22461e-05 -4.10584
14693 1 41.1264 52.5103 20.9809 3 7.90727e-05 -4.106
14694 1 43.6993 52.5222 20.9785 3 8.34656e-05 -4.1056
14695 1 42.8413 52.5182 18.6479 3 8.37444e-05 -4.10571
14696 1 45.416 52.5298 18.6455 3 7.80759e-05 -4.10546
14697 1 44.5575 52.5261 16.3149 3 8.14801e-05 -4.10551
14698 1 47.1333 52.5367 16.3127 3 6.85232e-05 -4.10546
14699 1 46.2746 52.5334 13.982 3 7.36589e-05 -4.10544
14700 1 48.8509 52.5426 13.9804 3 5.69808e-05 -4.10558
14701 1 47.9921 52.5398 11.6495 3 6.287e-05 -4.1055
14702 1 50.5683 52.5474 11.6486 3 4.51907e-05 -4.10578
14703 1 49.7097 52.5451 9.31739 3 5.10436e-05 -4.10567
14704 1 52.2853 52.5512 9.31723 3 3.4272e-05 -4.10602
14705 1 51.4269 52.5494 6.98581 3 3.9559e-05 -4.10589
14706 1 54.0019 52.5542 6.9863 3 2.49661e-05 -4.10626
14707 1 53.1437 52.5528 4.65467 3 2.9395e-05 -4.10614
14708 1 55.7179 52.5565 4.65573 3 1.7502e-05 -4.10649
14709 1 54.86 52.5554 2.32393 3 2.10083e-05 -4.10638
14710 1 57.4334 52.5581 2.32544 3 1.17649e-05 -4.10669
14711 1 56.5757 52.5574 48.9521 3 1.44333e-05 -4.1066
14712 1 59.1486 52.5593 48.954 3 7.59679e-06 -4.10686
14713 1 24.0218 50.4914 47.7948 3 0.000101376 -4.10578
14714 1 26.5911 50.4761 47.7927 3 8.40064e-05 -4.1064
14715 1 25.7352 50.4809 45.4619 3 9.09351e-05 -4.10619
14716 1 28.3017 50.4682 45.4608 3 6.93604e-05 -4.10675
14717 1 27.4466 50.4719 43.1297 3 7.66996e-05 -4.10659
14718 1 30.0108 50.4629 43.1296 3 5.71964e-05 -4.107
14719 1 29.1564 50.4652 40.7981 3 6.27116e-05 -4.10689
14720 1 31.7192 50.4605 40.7987 3 5.12749e-05 -4.10711
14721 1 30.8651 50.4613 38.4671 3 5.33065e-05 -4.10707
14722 1 33.4273 50.4613 38.4679 3 5.33065e-05 -4.10707
14723 1 32.5732 50.4605 36.1363 3 5.12749e-05 -4.10711
14724 1 35.136 50.4652 36.1369 3 6.27116e-05 -4.10689
14725 1 34.2815 50.4629 33.8054 3 5.71964e-05 -4.107
14726 1 36.8458 50.4719 33.8053 3 7.66996e-05 -4.10659
14727 1 35.9907 50.4682 31.4742 3 6.93604e-05 -4.10675
14728 1 38.5572 50.4809 31.4731 3 9.09351e-05 -4.10619
14729 1 37.7013 50.4761 29.1422 3 8.40064e-05 -4.1064
14730 1 40.2706 50.4914 29.1402 3 0.000101376 -4.10578
14731 1 39.4136 50.486 26.8096 3 9.6766e-05 -4.10598
14732 1 41.9858 50.5027 26.8068 3 0.00010485 -4.10541
14733 1 41.1279 50.497 24.4765 3 0.000104207 -4.10558
14734 1 43.7026 50.5139 24.4732 3 0.000100003 -4.10517
14735 1 42.844 50.5084 22.1429 3 0.000103351 -4.10527
14736 1 45.4204 50.5244 22.1398 3 9.02979e-05 -4.10511
14737 1 44.5614 50.5193 19.8094 3 9.56053e-05 -4.10512
14738 1 47.1386 50.5335 19.8069 3 7.81961e-05 -4.10524
14739 1 46.2795 50.5291 17.4763 3 8.43955e-05 -4.10515
14740 1 48.8567 50.5411 17.4746 3 6.48546e-05 -4.10549
14741 1 47.9977 50.5375 15.1436 3 7.16393e-05 -4.10535
14742 1 50.5742 50.5472 15.1428 3 5.15444e-05 -4.10581
14743 1 49.7155 50.5443 12.8116 3 5.80676e-05 -4.10565
14744 1 52.291 50.5519 12.8117 3 3.95353e-05 -4.10615
14745 1 51.4327 50.5497 10.4802 3 4.53321e-05 -4.10598
14746 1 54.0071 50.5555 10.481 3 2.95545e-05 -4.10647
14747 1 53.1491 50.5538 8.14926 3 3.42973e-05 -4.10631
14748 1 55.7225 50.5581 8.15078 3 2.15863e-05 -4.10677
14749 1 54.8649 50.5569 5.81882 3 2.53059e-05 -4.10662
14750 1 57.4372 50.5601 5.82085 3 1.55084e-05 -4.10701
14751 1 56.5799 50.5592 3.48874 3 1.83377e-05 -4.1069
14752 1 59.1515 50.5615 3.49117 3 1.10349e-05 -4.10721
14753 1 58.2944 50.5609 1.15894 3 1.30822e-05 -4.10712
14754 1 60.8653 50.5624 1.16167 3 8.00006e-06 -4.10736
14755 1 27.4444 48.4504 46.6275 3 0.00012986 -4.10599
14756 1 30.0101 48.4378 46.6268 3 0.000110689 -4.10652
14757 1 29.1552 48.4411 44.2955 3 0.000116495 -4.10638
14758 1 31.719 48.4345 44.2958 3 0.000103859 -4.10666
14759 1 30.8646 48.4356 41.9642 3 0.000106248 -4.10661
14760 1 33.4278 48.4356 41.9648 3 0.000106248 -4.10661
14761 1 32.5734 48.4345 39.6333 3 0.000103859 -4.10666
14762 1 35.1372 48.4411 39.6336 3 0.000116495 -4.10638
14763 1 34.2823 48.4378 37.3022 3 0.000110689 -4.10652
14764 1 36.848 48.4504 37.3016 3 0.00012986 -4.10599
14765 1 35.9924 48.4453 34.9706 3 0.000123208 -4.1062
14766 1 38.5608 48.4629 34.9688 3 0.000140372 -4.10553
14767 1 37.7041 48.4563 32.6383 3 0.000135718 -4.10576
14768 1 40.2759 48.4772 32.6353 3 0.000145168 -4.10508
14769 1 39.4181 48.4699 30.3051 3 0.000143716 -4.10529
14770 1 41.9929 48.4924 30.3013 3 0.000139127 -4.10475
14771 1 41.1342 48.4848 27.9713 3 0.000143575 -4.10489
14772 1 43.7115 48.507 27.9673 3 0.000126257 -4.10464
14773 1 42.8521 48.4998 25.6372 3 0.000132987 -4.10466
14774 1 45.4305 48.5201 25.6337 3 0.000112472 -4.10479
14775 1 44.571 48.5138 23.3034 3 0.000119477 -4.10468
14776 1 47.1494 48.5312 23.3008 3 9.70858e-05 -4.10514
14777 1 46.29 48.526 20.9701 3 0.000105127 -4.10495
14778 1 48.8674 48.5401 20.9686 3 7.96234e-05 -4.10559
14779 1 48.0085 48.5359 18.6376 3 8.8415e-05 -4.10536
14780 1 50.5845 48.5471 18.6372 3 6.28605e-05 -4.10606
14781 1 49.7261 48.5439 16.3058 3 7.1026e-05 -4.10583
14782 1 52.3005 48.5524 16.3063 3 4.84785e-05 -4.10651
14783 1 51.4426 48.55 13.9746 3 5.5309e-05 -4.10629
14784 1 54.0156 48.5564 13.976 3 3.69292e-05 -4.10691
14785 1 53.1581 48.5546 11.6441 3 4.23927e-05 -4.10672
14786 1 55.7297 48.5594 11.6461 3 2.79348e-05 -4.10726
14787 1 54.8728 48.558 9.31396 3 3.21178e-05 -4.10709
14788 1 57.4432 48.5615 9.31651 3 2.11128e-05 -4.10755
14789 1 56.5865 48.5605 6.98422 3 2.42822e-05 -4.10742
14790 1 59.156 48.563 6.98717 3 1.61641e-05 -4.10778
14791 1 58.2997 48.5623 4.65477 3 1.84348e-05 -4.10768
14792 1 60.8684 48.5639 4.65802 3 1.27857e-05 -4.10795
14793 1 60.0123 48.5635 2.32553 3 1.42836e-05 -4.10787
14794 1 62.5805 48.5645 2.32898 3 1.0833e-05 -4.10804
14795 1 61.7245 48.5642 48.9551 3 1.16332e-05 -4.108
14796 1 29.1521 46.4165 47.7933 3 0.000215832 -4.10536
14797 1 31.7186 46.4075 47.7929 3 0.000202598 -4.10571
14798 1 30.8634 46.409 45.4615 3 0.000205374 -4.10565
14799 1 33.429 46.409 45.4616 3 0.000205374 -4.10565
14800 1 32.5738 46.4075 43.1302 3 0.000202598 -4.10571
14801 1 35.1403 46.4165 43.1299 3 0.000215832 -4.10536
14802 1 34.2845 46.4121 40.7988 3 0.000210066 -4.10553
14803 1 36.8533 46.4292 40.7973 3 0.000222862 -4.1049
14804 1 35.9965 46.4223 38.4667 3 0.000220441 -4.10515
14805 1 38.5687 46.4458 38.4639 3 0.000223842 -4.10441
14806 1 37.7107 46.4371 36.1337 3 0.000223329 -4.10465
14807 1 40.2866 46.4645 36.1296 3 0.000215458 -4.10402
14808 1 39.4274 46.455 33.7998 3 0.000222515 -4.1042
14809 1 42.0063 46.4838 33.7951 3 0.000191148 -4.10387
14810 1 41.1463 46.4742 31.4653 3 0.000203648 -4.10391
14811 1 43.7269 46.5017 31.4609 3 0.000171451 -4.10408
14812 1 42.8666 46.493 29.1309 3 0.00018036 -4.10394
14813 1 45.447 46.5172 29.1273 3 0.000153068 -4.1046
14814 1 44.5871 46.5098 26.7969 3 0.000162836 -4.10431
14815 1 47.166 46.5297 26.7947 3 0.000128135 -4.10526
14816 1 46.3067 46.5238 24.4639 3 0.000141292 -4.10492
14817 1 48.8834 46.5395 24.4629 3 0.000101775 -4.10592
14818 1 48.0249 46.5349 22.1317 3 0.000114647 -4.10559
14819 1 50.5994 46.547 22.1318 3 7.90868e-05 -4.10655
14820 1 49.7416 46.5435 19.8002 3 8.98417e-05 -4.10624
14821 1 52.314 46.5526 19.8013 3 6.10093e-05 -4.1071
14822 1 51.4569 46.55 17.4695 3 6.94899e-05 -4.10683
14823 1 54.0274 46.5568 17.4714 3 4.71272e-05 -4.10758
14824 1 53.1709 46.5548 15.1392 3 5.35734e-05 -4.10735
14825 1 55.7398 46.5598 15.1418 3 3.66203e-05 -4.10798
14826 1 54.8837 46.5584 12.8095 3 4.14914e-05 -4.10779
14827 1 57.4513 46.5619 12.8125 3 2.8816e-05 -4.10831
14828 1 56.5957 46.561 10.4801 3 3.24265e-05 -4.10815
14829 1 59.1622 46.5634 10.4834 3 2.31807e-05 -4.10856
14830 1 58.3068 46.5628 8.1509 3 2.57534e-05 -4.10844
14831 1 60.8725 46.5644 8.15456 3 1.93806e-05 -4.10874
14832 1 60.0174 46.564 5.82194 3 2.10665e-05 -4.10866
14833 1 62.5825 46.5649 5.82577 3 1.71883e-05 -4.10885
14834 1 61.7276 46.5647 3.49311 3 1.809e-05 -4.1088
14835 1 63.4375 46.565 1.16436 3 1.66562e-05 -4.10888
14836 1 32.5746 44.3799 46.6272 3 0.000394144 -4.10404
14837 1 35.1462 44.3921 46.6259 3 0.000400339 -4.1036
14838 1 34.2886 44.3861 44.2951 3 0.000400711 -4.10381
14839 1 36.8631 44.4089 44.2925 3 0.00038288 -4.10312
14840 1 36.0043 44.3997 41.9623 3 0.000392975 -4.10335
14841 1 38.5826 44.4303 41.9583 3 0.00037268 -4.10277
14842 1 37.7226 44.4192 39.6285 3 0.000378308 -4.10293
14843 1 40.3046 44.4542 39.6234 3 0.000321394 -4.1026
14844 1 39.4434 44.4421 37.2939 3 0.000351638 -4.10263
14845 1 42.0277 44.4776 37.2885 3 0.00027754 -4.10291
14846 1 41.1661 44.4661 34.9589 3 0.000295317 -4.10269
14847 1 43.7502 44.4984 34.9543 3 0.000254382 -4.10366
14848 1 42.8891 44.4885 32.6243 3 0.000265741 -4.10323
14849 1 45.4707 44.5154 32.6212 3 0.000217854 -4.10467
14850 1 44.6107 44.5074 30.2906 3 0.000239108 -4.10415
14851 1 47.189 44.5286 30.289 3 0.000170679 -4.10565
14852 1 46.3301 44.5224 27.9579 3 0.000194065 -4.10517
14853 1 48.9051 44.5387 27.9577 3 0.000130694 -4.10653
14854 1 48.0473 44.534 25.6262 3 0.000149442 -4.10611
14855 1 50.6192 44.5464 25.627 3 0.000100116 -4.10729
14856 1 49.7623 44.5428 23.2952 3 0.000114335 -4.10692
14857 1 52.3317 44.552 23.297 3 7.73617e-05 -4.10793
14858 1 51.4756 44.5494 20.9649 3 8.78852e-05 -4.10762
14859 1 54.0428 44.5561 20.9673 3 6.04978e-05 -4.10847
14860 1 53.1874 44.5542 18.635 3 6.82774e-05 -4.10821
14861 1 55.7527 44.5591 18.638 3 4.81043e-05 -4.10891
14862 1 54.8979 44.5577 16.3056 3 5.38302e-05 -4.1087
14863 1 57.4618 44.5611 16.3089 3 3.89599e-05 -4.10927
14864 1 56.6074 44.5602 13.9764 3 4.31812e-05 -4.1091
14865 1 59.17 44.5625 13.9801 3 3.24567e-05 -4.10954
14866 1 58.316 44.5619 11.6474 3 3.54152e-05 -4.10942
14867 1 60.8778 44.5634 11.6513 3 2.80714e-05 -4.10974
14868 1 60.024 44.563 9.31865 3 2.99929e-05 -4.10965
14869 1 62.5852 44.5639 9.32269 3 2.55411e-05 -4.10985
14870 1 61.7315 44.5637 6.98996 3 2.66081e-05 -4.1098
14871 1 63.4388 44.5641 4.66134 3 2.49202e-05 -4.10988
14872 1 34.2959 42.3605 47.7911 3 0.000772711 -4.10088
14873 1 36.8798 42.3905 47.7874 3 0.000677918 -4.10047
14874 1 36.0179 42.3787 45.4574 3 0.000686635 -4.10053
14875 1 38.6055 42.4177 45.4524 3 0.000607066 -4.10044
14876 1 37.7423 42.4036 43.123 3 0.000666688 -4.10046
14877 1 40.3329 42.4471 43.117 3 0.000477406 -4.10095
14878 1 39.4691 42.4324 40.7877 3 0.000529361 -4.10061
14879 1 42.0594 42.4743 40.7822 3 0.000438746 -4.10206
14880 1 41.1964 42.4611 38.4525 3 0.000450511 -4.10145
14881 1 43.7828 42.4968 38.4484 3 0.000393942 -4.10359
14882 1 42.9215 42.4862 36.1181 3 0.00042324 -4.10279
14883 1 45.5025 42.5143 36.1159 3 0.000300849 -4.10512
14884 1 44.6431 42.5061 33.785 3 0.000348477 -4.10439
14885 1 47.219 42.5276 33.7843 3 0.000222109 -4.10638
14886 1 46.3611 42.5214 31.4529 3 0.000258139 -4.10578
14887 1 48.9327 42.5375 31.4535 3 0.000166097 -4.10743
14888 1 48.0762 42.5329 29.1218 3 0.000191662 -4.10693
14889 1 50.6442 42.5449 29.1233 3 0.000126503 -4.10829
14890 1 49.7887 42.5415 26.7913 3 0.000144591 -4.10788
14891 1 52.3538 42.5502 26.7935 3 9.82295e-05 -4.109
14892 1 51.4992 42.5478 24.4613 3 0.000111213 -4.10866
14893 1 54.0619 42.5541 24.4641 3 7.77779e-05 -4.10959
14894 1 53.208 42.5523 22.1317 3 8.71759e-05 -4.10931
14895 1 55.7687 42.5568 22.135 3 6.28703e-05 -4.11006
14896 1 54.9155 42.5556 19.8025 3 6.97246e-05 -4.10984
14897 1 57.4746 42.5587 19.806 3 5.20948e-05 -4.11044
14898 1 56.6218 42.5579 17.4734 3 5.70569e-05 -4.11026
14899 1 59.1797 42.5599 17.4772 3 4.44245e-05 -4.11072
14900 1 58.3272 42.5594 15.1445 3 4.79016e-05 -4.11059
14901 1 60.8842 42.5607 15.1484 3 3.93075e-05 -4.11093
14902 1 60.032 42.5604 12.8158 3 4.15799e-05 -4.11084
14903 1 62.5884 42.5612 12.8198 3 3.63613e-05 -4.11105
14904 1 61.7363 42.561 10.4871 3 3.75856e-05 -4.111
14905 1 63.4404 42.5613 8.15841 3 3.56627e-05 -4.11108
14906 1 37.7744 40.392 46.6177 3 0.00102093 -4.097
14907 1 40.375 40.4438 46.6115 3 0.000740759 -4.09934
14908 1 39.5088 40.427 44.2821 3 0.000755249 -4.09835
14909 1 42.1035 40.4736 44.277 3 0.000739321 -4.1016
14910 1 41.24 40.4595 41.947 3 0.0007533 -4.10038
14911 1 43.8259 40.4963 41.944 3 0.000568832 -4.10409
14912 1 42.9655 40.4858 39.6133 3 0.000674869 -4.10288
14913 1 45.5433 40.5133 39.6122 3 0.000391777 -4.10601
14914 1 44.6851 40.5054 37.281 3 0.000470604 -4.10512
14915 1 47.2567 40.5259 37.2812 3 0.000281858 -4.10748
14916 1 46.4004 40.5201 34.9496 3 0.000330859 -4.10679
14917 1 48.967 40.5352 34.9509 3 0.000209224 -4.10863
14918 1 48.1122 40.5309 32.6189 3 0.000241917 -4.10809
14919 1 50.6748 40.542 32.621 3 0.00015952 -4.10956
14920 1 49.8212 40.5389 30.2888 3 0.000182154 -4.10912
14921 1 52.3807 40.5468 30.2914 3 0.000124584 -4.11031
14922 1 51.528 40.5446 27.9591 3 0.000140532 -4.10995
14923 1 54.085 40.5503 27.9621 3 9.9578e-05 -4.11092
14924 1 53.233 40.5487 25.6297 3 0.00011106 -4.11063
14925 1 55.788 40.5526 25.6329 3 8.15436e-05 -4.11141
14926 1 54.9366 40.5515 23.3004 3 8.98292e-05 -4.11118
14927 1 57.49 40.5542 23.3038 3 6.85581e-05 -4.11179
14928 1 56.6391 40.5535 20.9713 3 7.44571e-05 -4.11161
14929 1 59.1912 40.5552 20.9749 3 5.94724e-05 -4.11209
14930 1 58.3407 40.5548 18.6423 3 6.36053e-05 -4.11195
14931 1 60.8919 40.5559 18.6459 3 5.34147e-05 -4.11229
14932 1 60.0416 40.5556 16.3134 3 5.61058e-05 -4.1122
14933 1 62.5922 40.5562 16.3171 3 4.9966e-05 -4.11241
14934 1 61.7421 40.5561 13.9845 3 5.13916e-05 -4.11236
14935 1 63.4423 40.5563 11.6556 3 4.91519e-05 -4.11244
14936 1 39.5659 38.4263 47.7785 3 0.00134931 -4.09617
14937 1 42.1618 38.4747 47.7744 3 0.00123353 -4.10194
14938 1 41.2992 38.461 45.4439 3 0.00140074 -4.09991
14939 1 43.8807 38.496 45.4423 3 0.000745357 -4.10521
14940 1 43.022 38.4862 43.1112 3 0.000956126 -4.10379
14941 1 45.5938 38.5116 43.1112 3 0.000497936 -4.10738
14942 1 44.7379 38.5044 40.7796 3 0.000601529 -4.10638
14943 1 47.3027 38.523 40.7806 3 0.000355448 -4.10893
14944 1 46.4487 38.5177 38.4488 3 0.000418448 -4.10821
14945 1 49.0084 38.5312 38.4505 3 0.000262943 -4.11013
14946 1 48.1559 38.5274 36.1185 3 0.000304374 -4.10957
14947 1 50.7115 38.5371 36.1207 3 0.000200182 -4.11108
14948 1 49.8603 38.5344 33.7885 3 0.00022877 -4.11063
14949 1 52.4127 38.5412 33.791 3 0.000156521 -4.11184
14950 1 51.5623 38.5393 31.4588 3 0.000176425 -4.11148
14951 1 54.1123 38.5441 31.4615 3 0.000125644 -4.11245
14952 1 53.2627 38.5428 29.1292 3 0.000139759 -4.11216
14953 1 55.8106 38.546 29.1321 3 0.000103655 -4.11293
14954 1 54.9616 38.5451 26.7997 3 0.000113716 -4.11271
14955 1 57.508 38.5472 26.8027 3 8.81217e-05 -4.11331
14956 1 56.6594 38.5467 24.4703 3 9.52062e-05 -4.11313
14957 1 59.2047 38.548 24.4733 3 7.738e-05 -4.11359
14958 1 58.3565 38.5477 22.1409 3 8.22134e-05 -4.11346
14959 1 60.9009 38.5485 22.1439 3 7.03797e-05 -4.11379
14960 1 60.0529 38.5483 19.8116 3 7.3456e-05 -4.1137
14961 1 62.5967 38.5487 19.8146 3 6.63748e-05 -4.11391
14962 1 61.7488 38.5486 17.4822 3 6.80542e-05 -4.11386
14963 1 63.4446 38.5488 15.1529 3 6.54262e-05 -4.11394
14964 1 43.0929 36.4861 46.6134 3 0.00124811 -4.10542
14965 1 45.6554 36.5081 46.6138 3 0.000641136 -4.10919
14966 1 44.8026 36.502 44.2822 3 0.00077966 -4.10821
14967 1 47.3581 36.5178 44.2833 3 0.000448906 -4.11076
14968 1 46.5073 36.5134 41.9514 3 0.000533808 -4.11003
14969 1 49.0577 36.5247 41.953 3 0.00032674 -4.11193
14970 1 48.2082 36.5215 39.6211 3 0.000381385 -4.11138
14971 1 50.7548 36.5295 39.6228 3 0.000245275 -4.11284
14972 1 49.9065 36.5273 37.2909 3 0.00028186 -4.11242
14973 1 52.4501 36.5328 37.2928 3 0.000190284 -4.11357
14974 1 51.6027 36.5313 34.9608 3 0.000215238 -4.11322
14975 1 54.144 36.535 34.9627 3 0.000152629 -4.11414
14976 1 53.2972 36.5341 32.6307 3 0.000169651 -4.11387
14977 1 55.8369 36.5365 32.6326 3 0.000126611 -4.11459
14978 1 54.9906 36.5358 30.3006 3 0.000138424 -4.11437
14979 1 57.5289 36.5373 30.3026 3 0.000108721 -4.11494
14980 1 56.6829 36.537 27.9706 3 0.000116846 -4.11477
14981 1 59.2202 36.5378 27.9725 3 9.66157e-05 -4.1152
14982 1 58.3746 36.5376 25.6405 3 0.000102039 -4.11508
14983 1 60.9112 36.5381 25.6424 3 8.88578e-05 -4.11538
14984 1 60.0658 36.538 23.3104 3 9.22731e-05 -4.1153
14985 1 62.6019 36.5382 23.3123 3 8.45085e-05 -4.11548
14986 1 61.7565 36.5382 20.9803 3 8.62987e-05 -4.11544
14987 1 63.4471 36.5383 18.6503 3 8.34506e-05 -4.11551
14988 1 44.8812 34.4967 47.79 3 0.0010314 -4.11059
14989 1 47.4237 34.5094 47.79 3 0.000544517 -4.11294
14990 1 46.577 34.5058 45.4586 3 0.000662642 -4.11231
14991 1 49.1152 34.5148 45.4589 3 0.000379088 -4.114
14992 1 48.2698 34.5123 43.1274 3 0.000452612 -4.1135
14993 1 50.8048 34.5185 43.1278 3 0.000278421 -4.11479
14994 1 49.9602 34.5168 40.7963 3 0.000322982 -4.11441
14995 1 52.4929 34.521 40.7968 3 0.000213748 -4.11541
14996 1 51.649 34.5199 38.4653 3 0.000242188 -4.11512
14997 1 54.1801 34.5225 38.4657 3 0.000171836 -4.1159
14998 1 53.3366 34.5218 36.1342 3 0.000190723 -4.11567
14999 1 55.8664 34.5235 36.1346 3 0.000144167 -4.11628
15000 1 55.0233 34.5231 33.8031 3 0.000156629 -4.1161
15001 1 57.5522 34.524 33.8036 3 0.000125593 -4.11657
15002 1 56.7094 34.5238 31.4721 3 0.000133924 -4.11644
15003 1 59.2376 34.5243 31.4725 3 0.000113274 -4.11679
15004 1 58.395 34.5242 29.141 3 0.000118807 -4.11669
15005 1 60.9227 34.5244 29.1414 3 0.000105486 -4.11695
15006 1 60.0802 34.5243 26.8099 3 0.00010893 -4.11688
15007 1 62.6076 34.5244 26.8104 3 0.000101178 -4.11704
15008 1 61.7651 34.5244 24.4789 3 0.000102928 -4.117
15009 1 63.45 34.5244 22.1478 3 0.000100115 -4.11706
15010 1 48.3401 32.4983 46.6377 3 0.000439292 -4.11582
15011 1 50.8606 32.503 46.6355 3 0.000271177 -4.11673
15012 1 50.0206 32.5017 44.3048 3 0.000314636 -4.11645
15013 1 52.5403 32.5048 44.3028 3 0.000213233 -4.11719
15014 1 51.7005 32.504 41.9721 3 0.00023953 -4.11697
15015 1 54.2196 32.5059 41.9703 3 0.000175519 -4.11756
15016 1 53.38 32.5054 39.6395 3 0.000192013 -4.11739
15017 1 55.8986 32.5065 39.6378 3 0.000150226 -4.11785
15018 1 55.0591 32.5063 37.307 3 0.000161637 -4.11771
15019 1 57.5775 32.5068 37.3055 3 0.000133417 -4.11808
15020 1 56.7381 32.5067 34.9746 3 0.000141077 -4.11797
15021 1 59.2563 32.5069 34.9732 3 0.000122039 -4.11825
15022 1 58.4169 32.5069 32.6423 3 0.00012712 -4.11817
15023 1 60.935 32.5069 32.6409 3 0.000114696 -4.11837
15024 1 60.0957 32.5069 30.31 3 0.000117929 -4.11831
15025 1 62.6137 32.5069 30.3086 3 0.000110635 -4.11844
15026 1 61.7744 32.5069 27.9777 3 0.000112312 -4.11841
15027 1 63.4531 32.5069 25.6454 3 0.000109647 -4.11845
15028 1 13.7157 62.5896 47.7929 5 12.3402 -3.52387
15029 1 16.2874 62.5896 47.7929 5 12.3402 -3.52387
15030 1 15.4302 62.5896 45.4616 5 12.3402 -3.52387
15031 1 18.0019 62.5896 45.4616 5 12.3402 -3.52387
15032 1 17.1446 62.5896 43.1302 5 12.3402 -3.52387
15033 1 19.7163 62.5896 43.1302 5 12.3402 -3.52387
15034 1 18.8591 62.5896 40.7989 5 12.3402 -3.52387
15035 1 21.4308 62.5896 40.7989 5 12.3402 -3.52387
15036 1 20.5736 62.5896 38.4675 5 12.3402 -3.52387
15037 1 23.1453 62.5896 38.4675 5 12.3402 -3.52387
15038 1 22.288 62.5896 36.1361 5 12.3402 -3.52387
15039 1 24.8597 62.5896 36.1361 5 12.3402 -3.52387
15040 1 24.0025 62.5896 33.8048 5 12.3402 -3.52387
15041 1 26.5742 62.5896 33.8048 5 12.3402 -3.52387
15042 1 25.717 62.5896 31.4734 5 12.3402 -3.52387
15043 1 28.2886 62.5896 31.4734 5 12.3402 -3.52387
15044 1 27.4314 62.5896 29.142 5 12.3402 -3.52387
15045 1 30.0031 62.5896 29.142 5 12.3402 -3.52387
15046 1 29.1459 62.5896 26.8107 5 12.3402 -3.52387
15047 1 31.7176 62.5896 26.8107 5 12.3402 -3.52387
15048 1 30.8603 62.5896 24.4793 5 12.3402 -3.52387
15049 1 33.432 62.5896 24.4793 5 12.3402 -3.52387
15050 1 32.5748 62.5896 22.1479 5 12.3402 -3.52387
15051 1 35.1465 62.5896 22.1479 5 12.3402 -3.52387
15052 1 34.2893 62.5896 19.8166 5 12.3402 -3.52387
15053 1 36.861 62.5896 19.8166 5 12.3402 -3.52387
15054 1 36.0037 62.5896 17.4852 5 12.3402 -3.52387
15055 1 38.5754 62.5896 17.4852 5 12.3402 -3.52387
15056 1 37.7182 62.5896 15.1539 5 12.3402 -3.52387
15057 1 40.2899 62.5896 15.1539 5 12.3402 -3.52387
15058 1 39.4327 62.5896 12.8225 5 12.3402 -3.52387
15059 1 42.0044 62.5896 12.8225 5 12.3402 -3.52387
15060 1 41.1471 62.5896 10.4911 5 12.3402 -3.52387
15061 1 43.7188 62.5896 10.4911 5 12.3402 -3.52387
15062 1 42.8616 62.5896 8.15977 5 12.3402 -3.52387
15063 1 45.4333 62.5896 8.15977 5 12.3402 -3.52387
15064 1 44.5761 62.5896 5.82841 5 12.3402 -3.52387
15065 1 47.1477 62.5896 5.82841 5 12.3402 -3.52387
15066 1 46.2905 62.5896 3.49704 5 12.3402 -3.52387
15067 1 48.8622 62.5896 3.49704 5 12.3402 -3.52387
15068 1 48.005 62.5896 1.16568 5 12.3402 -3.52387
15069 1 50.5767 62.5896 1.16568 5 12.3402 -3.52387
15070 1 17.1446 60.5706 46.6273 3 4.0169e-16 -4.09017
15071 1 19.7163 60.5706 46.6273 3 1.0169e-16 -4.09001
15072 1 18.8591 60.5706 44.2959 3 4.54384e-28 -4.09006
15073 1 21.4308 60.5706 44.2959 3 4e-16 -4.08989
15074 1 20.5736 60.5706 41.9645 3 3.99999e-16 -4.08995
15075 1 23.1453 60.5706 41.9645 3 4.03897e-28 -4.08978
15076 1 22.288 60.5706 39.6332 3 1e-16 -4.08984
15077 1 24.8597 60.5706 39.6332 3 4e-16 -4.08968
15078 1 24.0025 60.5706 37.3018 3 1e-16 -4.08973
15079 1 26.5742 60.5706 37.3018 3 9.99999e-17 -4.08959
15080 1 25.717 60.5706 34.9704 3 4e-16 -4.08964
15081 1 28.2886 60.5706 34.9704 3 1e-16 -4.08953
15082 1 27.4314 60.5706 32.6391 3 1e-16 -4.08956
15083 1 30.0031 60.5706 32.6391 3 4e-16 -4.08948
15084 1 29.1459 60.5706 30.3077 3 1e-16 -4.0895
15085 1 31.7176 60.5706 30.3077 3 1e-16 -4.08946
15086 1 30.8603 60.5706 27.9764 3 4e-16 -4.08947
15087 1 33.432 60.5706 27.9764 3 9.99999e-17 -4.08947
15088 1 32.5748 60.5706 25.645 3 5.55358e-28 -4.08946
15089 1 35.1465 60.5706 25.645 3 4.00001e-16 -4.0895
15090 1 34.2893 60.5706 23.3136 3 4e-16 -4.08948
15091 1 36.861 60.5706 23.3136 3 1e-16 -4.08956
15092 1 36.0037 60.5706 20.9823 3 9.99999e-17 -4.08953
15093 1 38.5754 60.5706 20.9823 3 1e-16 -4.08964
15094 1 37.7182 60.5706 18.6509 3 9.99999e-17 -4.08959
15095 1 40.2899 60.5706 18.6509 3 3.99999e-16 -4.08973
15096 1 39.4327 60.5706 16.3195 3 4e-16 -4.08968
15097 1 42.0044 60.5706 16.3195 3 5.04871e-28 -4.08984
15098 1 41.1471 60.5706 13.9882 3 9.99999e-17 -4.08978
15099 1 43.7188 60.5706 13.9882 3 4e-16 -4.08995
15100 1 42.8616 60.5706 11.6568 3 9.99999e-17 -4.08989
15101 1 45.4333 60.5706 11.6568 3 9.99999e-17 -4.09006
15102 1 44.5761 60.5706 9.32545 3 4.00001e-16 -4.09001
15103 1 47.1477 60.5706 9.32545 3 9.99999e-17 -4.09017
15104 1 46.2905 60.5706 6.99409 3 1e-16 -4.09012
15105 1 48.8622 60.5706 6.99409 3 3.99999e-16 -4.09027
15106 1 48.005 60.5706 4.66273 3 1e-16 -4.09022
15107 1 50.5767 60.5706 4.66273 3 9.99999e-17 -4.09036
15108 1 49.7194 60.5706 2.33136 3 3.99999e-16 -4.09032
15109 1 52.2911 60.5706 2.33136 3 1e-16 -4.09043
15110 1 51.4339 60.5706 0 3 5.07001e-18 -4.0904
15111 1 54.0056 60.5706 0 3 4.05071e-16 -4.09049
15112 1 18.8591 58.5516 47.7929 3 0.000491636 -4.10577
15113 1 21.4308 58.5516 47.7929 3 0.000389679 -4.10576
15114 1 20.5736 58.5516 45.4616 3 0.000424557 -4.10576
15115 1 23.1453 58.5516 45.4616 3 0.000315834 -4.10575
15116 1 22.288 58.5516 43.1302 3 0.000353488 -4.10575
15117 1 24.8597 58.5516 43.1302 3 0.000236862 -4.10575
15118 1 24.0025 58.5516 40.7989 3 0.000276842 -4.10575
15119 1 26.5742 58.5516 40.7989 3 0.000157252 -4.10574
15120 1 25.717 58.5516 38.4675 3 0.000196676 -4.10574
15121 1 28.2886 58.5516 38.4675 3 8.5703e-05 -4.10574
15122 1 27.4314 58.5516 36.1361 3 0.000119794 -4.10574
15123 1 30.0031 58.5516 36.1361 3 3.29962e-05 -4.10574
15124 1 29.1459 58.5516 33.8048 3 5.6351e-05 -4.10574
15125 1 31.7176 58.5516 33.8048 3 8.46362e-06 -4.10574
15126 1 30.8603 58.5516 31.4734 3 1.67882e-05 -4.10574
15127 1 33.432 58.5516 31.4734 3 1.67882e-05 -4.10574
15128 1 32.5748 58.5516 29.142 3 8.46362e-06 -4.10574
15129 1 35.1465 58.5516 29.142 3 5.63512e-05 -4.10574
15130 1 34.2893 58.5516 26.8107 3 3.29959e-05 -4.10574
15131 1 36.861 58.5516 26.8107 3 0.000119794 -4.10574
15132 1 36.0037 58.5516 24.4793 3 8.57031e-05 -4.10574
15133 1 38.5754 58.5516 24.4793 3 0.000196676 -4.10574
15134 1 37.7182 58.5516 22.1479 3 0.000157252 -4.10574
15135 1 40.2899 58.5516 22.1479 3 0.000276842 -4.10575
15136 1 39.4327 58.5516 19.8166 3 0.000236861 -4.10575
15137 1 42.0044 58.5516 19.8166 3 0.000353488 -4.10575
15138 1 41.1471 58.5516 17.4852 3 0.000315834 -4.10575
15139 1 43.7188 58.5516 17.4852 3 0.000424556 -4.10576
15140 1 42.8616 58.5516 15.1539 3 0.00038968 -4.10576
15141 1 45.4333 58.5516 15.1539 3 0.000491636 -4.10577
15142 1 44.5761 58.5516 12.8225 3 0.000458404 -4.10576
15143 1 47.1477 58.5516 12.8225 3 0.000557723 -4.10578
15144 1 46.2905 58.5516 10.4911 3 0.000524669 -4.10577
15145 1 48.8622 58.5516 10.4911 3 0.000624646 -4.10579
15146 1 48.005 58.5516 8.15977 3 0.000591073 -4.10578
15147 1 50.5767 58.5516 8.15977 3 0.000691861 -4.10581
15148 1 49.7194 58.5516 5.82841 3 0.000658332 -4.1058
15149 1 52.2911 58.5516 5.82841 3 0.000757017 -4.10584
15150 1 51.4339 58.5516 3.49704 3 0.000724881 -4.10583
15151 1 54.0056 58.5516 3.49704 3 0.000817217 -4.10587
15152 1 53.1484 58.5516 1.16568 3 0.000787922 -4.10586
15153 1 55.7201 58.5516 1.16568 3 0.000870029 -4.1059
15154 1 22.2996 56.539 46.6277 3 6.5392e-05 -4.10574
15155 1 24.8701 56.5359 46.6271 3 4.99747e-05 -4.10592
15156 1 24.0134 56.5369 44.2959 3 5.54688e-05 -4.10586
15157 1 26.5829 56.5341 44.2955 3 3.9008e-05 -4.10603
15158 1 25.7266 56.5349 41.9642 3 4.43784e-05 -4.10598
15159 1 28.2951 56.5327 41.9641 3 2.97496e-05 -4.10612
15160 1 27.4391 56.5333 39.6327 3 3.40923e-05 -4.10608
15161 1 30.0068 56.5317 39.6329 3 2.33292e-05 -4.10618
15162 1 29.151 56.5321 37.3014 3 2.61152e-05 -4.10615
15163 1 31.7183 56.5313 37.3017 3 2.04271e-05 -4.10621
15164 1 30.8626 56.5315 34.9703 3 2.13988e-05 -4.1062
15165 1 33.4298 56.5315 34.9706 3 2.13987e-05 -4.1062
15166 1 32.574 56.5313 32.6391 3 2.04271e-05 -4.10621
15167 1 35.1414 56.5321 32.6395 3 2.61152e-05 -4.10615
15168 1 34.2855 56.5317 30.308 3 2.33292e-05 -4.10618
15169 1 36.8533 56.5333 30.3082 3 3.40923e-05 -4.10608
15170 1 35.9973 56.5327 27.9768 3 2.97497e-05 -4.10612
15171 1 38.5658 56.5349 27.9767 3 4.43784e-05 -4.10598
15172 1 37.7095 56.5341 25.6454 3 3.9008e-05 -4.10603
15173 1 40.2789 56.5369 25.645 3 5.54688e-05 -4.10586
15174 1 39.4223 56.5359 23.3138 3 4.99747e-05 -4.10592
15175 1 41.9927 56.539 23.3132 3 6.53921e-05 -4.10574
15176 1 41.1358 56.5379 20.9821 3 6.0718e-05 -4.1058
15177 1 43.7072 56.5413 20.9812 3 7.18434e-05 -4.10563
15178 1 42.8499 56.5402 18.6502 3 6.91735e-05 -4.10569
15179 1 45.4223 56.5436 18.6493 3 7.31499e-05 -4.10554
15180 1 44.5647 56.5425 16.3182 3 7.32525e-05 -4.10558
15181 1 47.1378 56.5458 16.3174 3 6.85784e-05 -4.10548
15182 1 46.28 56.5447 13.9863 3 7.15176e-05 -4.10551
15183 1 48.8536 56.5478 13.9856 3 5.91397e-05 -4.10545
15184 1 47.9957 56.5468 11.6544 3 6.4315e-05 -4.10546
15185 1 50.5695 56.5495 11.654 3 4.74132e-05 -4.10546
15186 1 49.7116 56.5487 9.32276 3 5.34402e-05 -4.10545
15187 1 52.2854 56.5509 9.32259 3 3.5419e-05 -4.10549
15188 1 51.4275 56.5502 6.99124 3 4.12988e-05 -4.10547
15189 1 54.0011 56.5521 6.99134 3 2.48519e-05 -4.10554
15190 1 53.1433 56.5515 4.6599 3 2.99181e-05 -4.10552
15191 1 55.7167 56.553 4.66022 3 1.64285e-05 -4.10559
15192 1 54.8589 56.5526 2.32872 3 2.03596e-05 -4.10557
15193 1 57.4321 56.5537 2.32923 3 1.01318e-05 -4.10564
15194 1 56.5744 56.5534 48.9563 3 1.30196e-05 -4.10562
15195 1 59.1473 56.5542 48.957 3 5.77087e-06 -4.10568
15196 1 24.0201 54.5217 47.7931 3 5.89024e-05 -4.10627
15197 1 26.5884 54.5154 47.7922 3 4.01072e-05 -4.10657
15198 1 25.7325 54.5173 45.4611 3 4.65067e-05 -4.10648
15199 1 28.2992 54.5122 45.4608 3 2.82602e-05 -4.10674
15200 1 27.4439 54.5137 43.1294 3 3.38936e-05 -4.10666
15201 1 30.0093 54.5101 43.1297 3 1.96384e-05 -4.10685
15202 1 29.1543 54.511 40.7982 3 2.34403e-05 -4.1068
15203 1 31.7188 54.5092 40.7987 3 1.5675e-05 -4.1069
15204 1 30.8641 54.5095 38.4671 3 1.70086e-05 -4.10688
15205 1 33.4283 54.5095 38.4678 3 1.70086e-05 -4.10688
15206 1 32.5736 54.5092 36.1362 3 1.5675e-05 -4.1069
15207 1 35.1381 54.511 36.1368 3 2.34402e-05 -4.1068
15208 1 34.2831 54.5101 33.8053 3 1.96384e-05 -4.10685
15209 1 36.8485 54.5137 33.8055 3 3.38936e-05 -4.10666
15210 1 35.9932 54.5122 31.4742 3 2.82602e-05 -4.10674
15211 1 38.5598 54.5173 31.4739 3 4.65067e-05 -4.10648
15212 1 37.704 54.5154 29.1427 3 4.01072e-05 -4.10657
15213 1 40.2723 54.5217 29.1419 3 5.89024e-05 -4.10627
15214 1 39.4159 54.5194 26.8109 3 5.28765e-05 -4.10637
15215 1 41.986 54.5265 26.8096 3 6.85282e-05 -4.10606
15216 1 41.129 54.524 24.4788 3 6.42053e-05 -4.10616
15217 1 43.7008 54.5315 24.4771 3 7.31397e-05 -4.10589
15218 1 42.8433 54.529 22.1463 3 7.15719e-05 -4.10597
15219 1 45.4166 54.5363 22.1446 3 7.17161e-05 -4.10579
15220 1 44.5586 54.5339 19.8138 3 7.3189e-05 -4.10583
15221 1 47.1331 54.5408 19.8123 3 6.48974e-05 -4.10576
15222 1 46.2748 54.5386 17.4814 3 6.89167e-05 -4.10576
15223 1 48.8499 54.5448 17.4801 3 5.47837e-05 -4.10582
15224 1 47.9915 54.5429 15.1491 3 6.00846e-05 -4.10578
15225 1 50.5668 54.5481 15.1484 3 4.33513e-05 -4.10594
15226 1 49.7084 54.5465 12.8172 3 4.91134e-05 -4.10588
15227 1 52.2835 54.5508 12.8169 3 3.2574e-05 -4.10611
15228 1 51.4252 54.5496 10.4856 3 3.78003e-05 -4.10602
15229 1 53.9999 54.553 10.4858 3 2.3151e-05 -4.10628
15230 1 53.1417 54.552 8.15428 3 2.76414e-05 -4.1062
15231 1 55.716 54.5547 8.15494 3 1.56108e-05 -4.10645
15232 1 54.858 54.5539 5.8233 3 1.91666e-05 -4.10637
15233 1 57.4317 54.5559 5.8243 3 9.89855e-06 -4.1066
15234 1 56.5739 54.5553 3.49256 3 1.25246e-05 -4.10653
15235 1 59.1472 54.5568 3.49383 3 5.79416e-06 -4.10673
15236 1 58.2895 54.5564 1.162 3 7.66454e-06 -4.10667
15237 1 60.8624 54.5574 1.16348 3 3.08042e-06 -4.10682
15238 1 27.4464 52.4931 46.6264 3 4.73203e-05 -4.10679
15239 1 30.0106 52.4871 46.6266 3 2.98991e-05 -4.1071
15240 1 29.1561 52.4886 44.295 3 3.46489e-05 -4.10702
15241 1 31.7191 52.4855 44.2957 3 2.48604e-05 -4.10718
15242 1 30.8649 52.486 41.9641 3 2.65644e-05 -4.10715
15243 1 33.4275 52.486 41.965 3 2.65644e-05 -4.10715
15244 1 32.5733 52.4855 39.6333 3 2.48604e-05 -4.10718
15245 1 35.1363 52.4886 39.634 3 3.46489e-05 -4.10702
15246 1 34.2818 52.4871 37.3025 3 2.98991e-05 -4.1071
15247 1 36.846 52.4931 37.3027 3 4.73203e-05 -4.10679
15248 1 35.991 52.4906 34.9714 3 4.06068e-05 -4.10692
15249 1 38.557 52.4992 34.9708 3 6.17394e-05 -4.10649
15250 1 37.7013 52.496 32.6398 3 5.46001e-05 -4.10665
15251 1 40.2695 52.5064 32.6384 3 7.43575e-05 -4.10616
15252 1 39.4131 52.5027 30.3076 3 6.84997e-05 -4.10633
15253 1 41.9837 52.5142 30.3056 3 8.22461e-05 -4.10584
15254 1 41.1264 52.5103 27.975 3 7.90727e-05 -4.106
15255 1 43.6993 52.5222 27.9725 3 8.34656e-05 -4.1056
15256 1 42.8413 52.5182 25.642 3 8.37444e-05 -4.10571
15257 1 45.416 52.5298 25.6395 3 7.80759e-05 -4.10546
15258 1 44.5575 52.5261 23.309 3 8.14801e-05 -4.10551
15259 1 47.1333 52.5367 23.3068 3 6.85232e-05 -4.10546
15260 1 46.2746 52.5334 20.9761 3 7.36589e-05 -4.10544
15261 1 48.8509 52.5426 20.9745 3 5.69808e-05 -4.10558
15262 1 47.9921 52.5398 18.6436 3 6.287e-05 -4.1055
15263 1 50.5683 52.5474 18.6427 3 4.51907e-05 -4.10578
15264 1 49.7097 52.5451 16.3115 3 5.10436e-05 -4.10567
15265 1 52.2853 52.5512 16.3113 3 3.4272e-05 -4.10602
15266 1 51.4269 52.5494 13.9799 3 3.9559e-05 -4.10589
15267 1 54.0019 52.5542 13.9804 3 2.49661e-05 -4.10626
15268 1 53.1437 52.5528 11.6488 3 2.9395e-05 -4.10614
15269 1 55.7179 52.5565 11.6498 3 1.7502e-05 -4.10649
15270 1 54.86 52.5554 9.31802 3 2.10083e-05 -4.10638
15271 1 57.4334 52.5581 9.31953 3 1.17649e-05 -4.10669
15272 1 56.5757 52.5574 6.9876 3 1.44333e-05 -4.1066
15273 1 59.1486 52.5593 6.98947 3 7.59679e-06 -4.10686
15274 1 58.291 52.5588 4.65743 3 9.49839e-06 -4.10678
15275 1 60.8634 52.5601 4.65956 3 4.7783e-06 -4.10698
15276 1 60.006 52.5598 2.32745 3 6.02882e-06 -4.10692
15277 1 62.5779 52.5606 2.32976 3 3.14933e-06 -4.10705
15278 1 61.7207 52.5604 48.9562 3 3.82552e-06 -4.10702
15279 1 29.1564 50.4652 47.7922 3 6.27116e-05 -4.10689
15280 1 31.7192 50.4605 47.7928 3 5.12749e-05 -4.10711
15281 1 30.8651 50.4613 45.4611 3 5.33065e-05 -4.10707
15282 1 33.4273 50.4613 45.462 3 5.33065e-05 -4.10707
15283 1 32.5732 50.4605 43.1304 3 5.12749e-05 -4.10711
15284 1 35.136 50.4652 43.131 3 6.27116e-05 -4.10689
15285 1 34.2815 50.4629 40.7995 3 5.71964e-05 -4.107
15286 1 36.8458 50.4719 40.7994 3 7.66996e-05 -4.10659
15287 1 35.9907 50.4682 38.4682 3 6.93604e-05 -4.10675
15288 1 38.5572 50.4809 38.4672 3 9.09351e-05 -4.10619
15289 1 37.7013 50.4761 36.1363 3 8.40064e-05 -4.1064
15290 1 40.2706 50.4914 36.1342 3 0.000101376 -4.10578
15291 1 39.4136 50.486 33.8037 3 9.6766e-05 -4.10598
15292 1 41.9858 50.5027 33.8009 3 0.00010485 -4.10541
15293 1 41.1279 50.497 31.4706 3 0.000104207 -4.10558
15294 1 43.7026 50.5139 31.4673 3 0.000100003 -4.10517
15295 1 42.844 50.5084 29.137 3 0.000103351 -4.10527
15296 1 45.4204 50.5244 29.1339 3 9.02979e-05 -4.10511
15297 1 44.5614 50.5193 26.8035 3 9.56053e-05 -4.10512
15298 1 47.1386 50.5335 26.801 3 7.81961e-05 -4.10524
15299 1 46.2795 50.5291 24.4703 3 8.43955e-05 -4.10515
15300 1 48.8567 50.5411 24.4687 3 6.48546e-05 -4.10549
15301 1 47.9977 50.5375 22.1377 3 7.16393e-05 -4.10535
15302 1 50.5742 50.5472 22.1369 3 5.15444e-05 -4.10581
15303 1 49.7155 50.5443 19.8057 3 5.80676e-05 -4.10565
15304 1 52.291 50.5519 19.8058 3 3.95353e-05 -4.10615
15305 1 51.4327 50.5497 17.4743 3 4.53321e-05 -4.10598
15306 1 54.0071 50.5555 17.4751 3 2.95545e-05 -4.10647
15307 1 53.1491 50.5538 15.1434 3 3.42973e-05 -4.10631
15308 1 55.7225 50.5581 15.1449 3 2.15863e-05 -4.10677
15309 1 54.8649 50.5569 12.8129 3 2.53059e-05 -4.10662
15310 1 57.4372 50.5601 12.8149 3 1.55084e-05 -4.10701
15311 1 56.5799 50.5592 10.4828 3 1.83377e-05 -4.1069
15312 1 59.1515 50.5615 10.4853 3 1.10349e-05 -4.10721
15313 1 58.2944 50.5609 8.15303 3 1.30822e-05 -4.10712
15314 1 60.8653 50.5624 8.15576 3 8.00006e-06 -4.10736
15315 1 60.0085 50.562 5.82345 3 9.34805e-06 -4.10729
15316 1 62.5789 50.5629 5.82638 3 6.22142e-06 -4.10744
15317 1 61.7222 50.5627 3.49401 3 6.95854e-06 -4.10741
15318 1 63.4357 50.563 1.16466 3 5.78117e-06 -4.10746
15319 1 32.5734 48.4345 46.6274 3 0.000103859 -4.10666
15320 1 35.1372 48.4411 46.6277 3 0.000116495 -4.10638
15321 1 34.2823 48.4378 44.2963 3 0.000110689 -4.10652
15322 1 36.848 48.4504 44.2957 3 0.00012986 -4.10599
15323 1 35.9924 48.4453 41.9647 3 0.000123208 -4.1062
15324 1 38.5608 48.4629 41.9629 3 0.000140372 -4.10553
15325 1 37.7041 48.4563 39.6324 3 0.000135718 -4.10576
15326 1 40.2759 48.4772 39.6294 3 0.000145168 -4.10508
15327 1 39.4181 48.4699 37.2992 3 0.000143716 -4.10529
15328 1 41.9929 48.4924 37.2954 3 0.000139127 -4.10475
15329 1 41.1342 48.4848 34.9654 3 0.000143575 -4.10489
15330 1 43.7115 48.507 34.9614 3 0.000126257 -4.10464
15331 1 42.8521 48.4998 32.6313 3 0.000132987 -4.10466
15332 1 45.4305 48.5201 32.6278 3 0.000112472 -4.10479
15333 1 44.571 48.5138 30.2975 3 0.000119477 -4.10468
15334 1 47.1494 48.5312 30.2949 3 9.70858e-05 -4.10514
15335 1 46.29 48.526 27.9642 3 0.000105127 -4.10495
15336 1 48.8674 48.5401 27.9627 3 7.96234e-05 -4.10559
15337 1 48.0085 48.5359 25.6317 3 8.8415e-05 -4.10536
15338 1 50.5845 48.5471 25.6313 3 6.28605e-05 -4.10606
15339 1 49.7261 48.5439 23.2999 3 7.1026e-05 -4.10583
15340 1 52.3005 48.5524 23.3004 3 4.84785e-05 -4.10651
15341 1 51.4426 48.55 20.9687 3 5.5309e-05 -4.10629
15342 1 54.0156 48.5564 20.9701 3 3.69292e-05 -4.10691
15343 1 53.1581 48.5546 18.6382 3 4.23927e-05 -4.10672
15344 1 55.7297 48.5594 18.6402 3 2.79348e-05 -4.10726
15345 1 54.8728 48.558 16.308 3 3.21178e-05 -4.10709
15346 1 57.4432 48.5615 16.3106 3 2.11128e-05 -4.10755
15347 1 56.5865 48.5605 13.9783 3 2.42822e-05 -4.10742
15348 1 59.156 48.563 13.9813 3 1.61641e-05 -4.10778
15349 1 58.2997 48.5623 11.6489 3 1.84348e-05 -4.10768
15350 1 60.8684 48.5639 11.6521 3 1.27857e-05 -4.10795
15351 1 60.0123 48.5635 9.31962 3 1.42836e-05 -4.10787
15352 1 62.5805 48.5645 9.32307 3 1.0833e-05 -4.10804
15353 1 61.7245 48.5642 6.99053 3 1.16332e-05 -4.108
15354 1 63.4364 48.5646 4.66153 3 1.03618e-05 -4.10807
15355 1 34.2845 46.4121 47.7929 3 0.000210066 -4.10553
15356 1 36.8533 46.4292 47.7914 3 0.000222862 -4.1049
15357 1 35.9965 46.4223 45.4608 3 0.000220441 -4.10515
15358 1 38.5687 46.4458 45.458 3 0.000223842 -4.10441
15359 1 37.7107 46.4371 43.1278 3 0.000223329 -4.10465
15360 1 40.2866 46.4645 43.1237 3 0.000215458 -4.10402
15361 1 39.4274 46.455 40.7939 3 0.000222515 -4.1042
15362 1 42.0063 46.4838 40.7892 3 0.000191148 -4.10387
15363 1 41.1463 46.4742 38.4594 3 0.000203648 -4.10391
15364 1 43.7269 46.5017 38.4549 3 0.000171451 -4.10408
15365 1 42.8666 46.493 36.125 3 0.00018036 -4.10394
15366 1 45.447 46.5172 36.1214 3 0.000153068 -4.1046
15367 1 44.5871 46.5098 33.791 3 0.000162836 -4.10431
15368 1 47.166 46.5297 33.7888 3 0.000128135 -4.10526
15369 1 46.3067 46.5238 31.458 3 0.000141292 -4.10492
15370 1 48.8834 46.5395 31.457 3 0.000101775 -4.10592
15371 1 48.0249 46.5349 29.1257 3 0.000114647 -4.10559
15372 1 50.5994 46.547 29.1259 3 7.90868e-05 -4.10655
15373 1 49.7416 46.5435 26.7943 3 8.98417e-05 -4.10624
15374 1 52.314 46.5526 26.7954 3 6.10093e-05 -4.1071
15375 1 51.4569 46.55 24.4635 3 6.94899e-05 -4.10683
15376 1 54.0274 46.5568 24.4654 3 4.71272e-05 -4.10758
15377 1 53.1709 46.5548 22.1333 3 5.35734e-05 -4.10735
15378 1 55.7398 46.5598 22.1359 3 3.66203e-05 -4.10798
15379 1 54.8837 46.5584 19.8036 3 4.14914e-05 -4.10779
15380 1 57.4513 46.5619 19.8066 3 2.8816e-05 -4.10831
15381 1 56.5957 46.561 17.4741 3 3.24265e-05 -4.10815
15382 1 59.1622 46.5634 17.4775 3 2.31807e-05 -4.10856
15383 1 58.3068 46.5628 15.145 3 2.57534e-05 -4.10844
15384 1 60.8725 46.5644 15.1486 3 1.93806e-05 -4.10874
15385 1 60.0174 46.564 12.816 3 2.10665e-05 -4.10866
15386 1 62.5825 46.5649 12.8199 3 1.71883e-05 -4.10885
15387 1 61.7276 46.5647 10.4872 3 1.809e-05 -4.1088
15388 1 63.4375 46.565 8.15845 3 1.66562e-05 -4.10888
15389 1 37.7226 44.4192 46.6226 3 0.000378308 -4.10293
15390 1 40.3046 44.4542 46.6175 3 0.000321394 -4.1026
15391 1 39.4434 44.4421 44.2879 3 0.000351638 -4.10263
15392 1 42.0277 44.4776 44.2826 3 0.00027754 -4.10291
15393 1 41.1661 44.4661 41.953 3 0.000295317 -4.10269
15394 1 43.7502 44.4984 41.9484 3 0.000254382 -4.10366
15395 1 42.8891 44.4885 39.6184 3 0.000265741 -4.10323
15396 1 45.4707 44.5154 39.6153 3 0.000217854 -4.10467
15397 1 44.6107 44.5074 37.2847 3 0.000239108 -4.10415
15398 1 47.189 44.5286 37.2831 3 0.000170679 -4.10565
15399 1 46.3301 44.5224 34.952 3 0.000194065 -4.10517
15400 1 48.9051 44.5387 34.9518 3 0.000130694 -4.10653
15401 1 48.0473 44.534 32.6203 3 0.000149442 -4.10611
15402 1 50.6192 44.5464 32.6211 3 0.000100116 -4.10729
15403 1 49.7623 44.5428 30.2893 3 0.000114335 -4.10692
15404 1 52.3317 44.552 30.291 3 7.73617e-05 -4.10793
15405 1 51.4756 44.5494 27.959 3 8.78852e-05 -4.10762
15406 1 54.0428 44.5561 27.9614 3 6.04978e-05 -4.10847
15407 1 53.1874 44.5542 25.6291 3 6.82774e-05 -4.10821
15408 1 55.7527 44.5591 25.6321 3 4.81043e-05 -4.10891
15409 1 54.8979 44.5577 23.2997 3 5.38302e-05 -4.1087
15410 1 57.4618 44.5611 23.303 3 3.89599e-05 -4.10927
15411 1 56.6074 44.5602 20.9705 3 4.31812e-05 -4.1091
15412 1 59.17 44.5625 20.9742 3 3.24567e-05 -4.10954
15413 1 58.316 44.5619 18.6415 3 3.54152e-05 -4.10942
15414 1 60.8778 44.5634 18.6454 3 2.80714e-05 -4.10974
15415 1 60.024 44.563 16.3127 3 2.99929e-05 -4.10965
15416 1 62.5852 44.5639 16.3168 3 2.55411e-05 -4.10985
15417 1 61.7315 44.5637 13.9841 3 2.66081e-05 -4.1098
15418 1 63.4388 44.5641 11.6554 3 2.49202e-05 -4.10988
15419 1 39.4691 42.4324 47.7817 3 0.000529361 -4.10061
15420 1 42.0594 42.4743 47.7763 3 0.000438746 -4.10206
15421 1 41.1964 42.4611 45.4465 3 0.000450511 -4.10145
15422 1 43.7828 42.4968 45.4425 3 0.000393942 -4.10359
15423 1 42.9215 42.4862 43.1122 3 0.00042324 -4.10279
15424 1 45.5025 42.5143 43.11 3 0.000300849 -4.10512
15425 1 44.6431 42.5061 40.779 3 0.000348477 -4.10439
15426 1 47.219 42.5276 40.7784 3 0.000222109 -4.10638
15427 1 46.3611 42.5214 38.447 3 0.000258139 -4.10578
15428 1 48.9327 42.5375 38.4476 3 0.000166097 -4.10743
15429 1 48.0762 42.5329 36.1159 3 0.000191662 -4.10693
15430 1 50.6442 42.5449 36.1174 3 0.000126503 -4.10829
15431 1 49.7887 42.5415 33.7854 3 0.000144591 -4.10788
15432 1 52.3538 42.5502 33.7876 3 9.82295e-05 -4.109
15433 1 51.4992 42.5478 31.4554 3 0.000111213 -4.10866
15434 1 54.0619 42.5541 31.4582 3 7.77779e-05 -4.10959
15435 1 53.208 42.5523 29.1258 3 8.71759e-05 -4.10931
15436 1 55.7687 42.5568 29.129 3 6.28703e-05 -4.11006
15437 1 54.9155 42.5556 26.7966 3 6.97246e-05 -4.10984
15438 1 57.4746 42.5587 26.8001 3 5.20948e-05 -4.11044
15439 1 56.6218 42.5579 24.4675 3 5.70569e-05 -4.11026
15440 1 59.1797 42.5599 24.4713 3 4.44245e-05 -4.11072
15441 1 58.3272 42.5594 22.1386 3 4.79016e-05 -4.11059
15442 1 60.8842 42.5607 22.1425 3 3.93075e-05 -4.11093
15443 1 60.032 42.5604 19.8098 3 4.15799e-05 -4.11084
15444 1 62.5884 42.5612 19.8139 3 3.63613e-05 -4.11105
15445 1 61.7363 42.561 17.4811 3 3.75856e-05 -4.111
15446 1 63.4404 42.5613 15.1525 3 3.56627e-05 -4.11108
15447 1 42.9655 40.4858 46.6074 3 0.000674869 -4.10288
15448 1 45.5433 40.5133 46.6063 3 0.000391777 -4.10601
15449 1 44.6851 40.5054 44.275 3 0.000470604 -4.10512
15450 1 47.2567 40.5259 44.2753 3 0.000281858 -4.10748
15451 1 46.4004 40.5201 41.9437 3 0.000330859 -4.10679
15452 1 48.967 40.5352 41.945 3 0.000209224 -4.10863
15453 1 48.1122 40.5309 39.613 3 0.000241917 -4.10809
15454 1 50.6748 40.542 39.6151 3 0.00015952 -4.10956
15455 1 49.8212 40.5389 37.2829 3 0.000182154 -4.10912
15456 1 52.3807 40.5468 37.2855 3 0.000124584 -4.11031
15457 1 51.528 40.5446 34.9532 3 0.000140532 -4.10995
15458 1 54.085 40.5503 34.9562 3 9.9578e-05 -4.11092
15459 1 53.233 40.5487 32.6238 3 0.00011106 -4.11063
15460 1 55.788 40.5526 32.627 3 8.15436e-05 -4.11141
15461 1 54.9366 40.5515 30.2945 3 8.98292e-05 -4.11118
15462 1 57.49 40.5542 30.2979 3 6.85581e-05 -4.11179
15463 1 56.6391 40.5535 27.9654 3 7.44571e-05 -4.11161
15464 1 59.1912 40.5552 27.969 3 5.94724e-05 -4.11209
15465 1 58.3407 40.5548 25.6364 3 6.36053e-05 -4.11195
15466 1 60.8919 40.5559 25.64 3 5.34147e-05 -4.11229
15467 1 60.0416 40.5556 23.3074 3 5.61058e-05 -4.1122
15468 1 62.5922 40.5562 23.3111 3 4.9966e-05 -4.11241
15469 1 61.7421 40.5561 20.9785 3 5.13916e-05 -4.11236
15470 1 63.4423 40.5563 18.6497 3 4.91519e-05 -4.11244
15471 1 44.7379 38.5044 47.7737 3 0.000601529 -4.10638
15472 1 47.3027 38.523 47.7747 3 0.000355448 -4.10893
15473 1 46.4487 38.5177 45.4429 3 0.000418448 -4.10821
15474 1 49.0084 38.5312 45.4446 3 0.000262943 -4.11013
15475 1 48.1559 38.5274 43.1126 3 0.000304374 -4.10957
15476 1 50.7115 38.5371 43.1148 3 0.000200182 -4.11108
15477 1 49.8603 38.5344 40.7826 3 0.00022877 -4.11063
15478 1 52.4127 38.5412 40.7851 3 0.000156521 -4.11184
15479 1 51.5623 38.5393 38.4529 3 0.000176425 -4.11148
15480 1 54.1123 38.5441 38.4556 3 0.000125644 -4.11245
15481 1 53.2627 38.5428 36.1233 3 0.000139759 -4.11216
15482 1 55.8106 38.546 36.1262 3 0.000103655 -4.11293
15483 1 54.9616 38.5451 33.7938 3 0.000113716 -4.11271
15484 1 57.508 38.5472 33.7968 3 8.81217e-05 -4.11331
15485 1 56.6594 38.5467 31.4644 3 9.52062e-05 -4.11313
15486 1 59.2047 38.548 31.4674 3 7.738e-05 -4.11359
15487 1 58.3565 38.5477 29.135 3 8.22134e-05 -4.11346
15488 1 60.9009 38.5485 29.138 3 7.03797e-05 -4.11379
15489 1 60.0529 38.5483 26.8056 3 7.3456e-05 -4.1137
15490 1 62.5967 38.5487 26.8087 3 6.63748e-05 -4.11391
15491 1 61.7488 38.5486 24.4763 3 6.80542e-05 -4.11386
15492 1 63.4446 38.5488 22.1469 3 6.54262e-05 -4.11394
15493 1 48.2082 36.5215 46.6152 3 0.000381385 -4.11138
15494 1 50.7548 36.5295 46.6169 3 0.000245275 -4.11284
15495 1 49.9065 36.5273 44.285 3 0.00028186 -4.11242
15496 1 52.4501 36.5328 44.2868 3 0.000190284 -4.11357
15497 1 51.6027 36.5313 41.9548 3 0.000215238 -4.11322
15498 1 54.144 36.535 41.9568 3 0.000152629 -4.11414
15499 1 53.2972 36.5341 39.6248 3 0.000169651 -4.11387
15500 1 55.8369 36.5365 39.6267 3 0.000126611 -4.11459
15501 1 54.9906 36.5358 37.2947 3 0.000138424 -4.11437
15502 1 57.5289 36.5373 37.2967 3 0.000108721 -4.11494
15503 1 56.6829 36.537 34.9646 3 0.000116846 -4.11477
15504 1 59.2202 36.5378 34.9666 3 9.66157e-05 -4.1152
15505 1 58.3746 36.5376 32.6346 3 0.000102039 -4.11508
15506 1 60.9112 36.5381 32.6365 3 8.88578e-05 -4.11538
15507 1 60.0658 36.538 30.3045 3 9.22731e-05 -4.1153
15508 1 62.6019 36.5382 30.3064 3 8.45085e-05 -4.11548
15509 1 61.7565 36.5382 27.9744 3 8.62987e-05 -4.11544
15510 1 63.4471 36.5383 25.6444 3 8.34506e-05 -4.11551
15511 1 49.9602 34.5168 47.7904 3 0.000322982 -4.11441
15512 1 52.4929 34.521 47.7909 3 0.000213748 -4.11541
15513 1 51.649 34.5199 45.4593 3 0.000242188 -4.11512
15514 1 54.1801 34.5225 45.4598 3 0.000171836 -4.1159
15515 1 53.3366 34.5218 43.1283 3 0.000190723 -4.11567
15516 1 55.8664 34.5235 43.1287 3 0.000144167 -4.11628
15517 1 55.0233 34.5231 40.7972 3 0.000156629 -4.1161
15518 1 57.5522 34.524 40.7977 3 0.000125593 -4.11657
15519 1 56.7094 34.5238 38.4662 3 0.000133924 -4.11644
15520 1 59.2376 34.5243 38.4666 3 0.000113274 -4.11679
15521 1 58.395 34.5242 36.1351 3 0.000118807 -4.11669
15522 1 60.9227 34.5244 36.1355 3 0.000105486 -4.11695
15523 1 60.0802 34.5243 33.804 3 0.00010893 -4.11688
15524 1 62.6076 34.5244 33.8045 3 0.000101178 -4.11704
15525 1 61.7651 34.5244 31.473 3 0.000102928 -4.117
15526 1 63.45 34.5244 29.1419 3 0.000100115 -4.11706
15527 1 53.38 32.5054 46.6336 3 0.000192013 -4.11739
15528 1 55.8986 32.5065 46.6319 3 0.000150226 -4.11785
15529 1 55.0591 32.5063 44.3011 3 0.000161637 -4.11771
15530 1 57.5775 32.5068 44.2996 3 0.000133417 -4.11808
15531 1 56.7381 32.5067 41.9687 3 0.000141077 -4.11797
15532 1 59.2563 32.5069 41.9672 3 0.000122039 -4.11825
15533 1 58.4169 32.5069 39.6364 3 0.00012712 -4.11817
15534 1 60.935 32.5069 39.635 3 0.000114696 -4.11837
15535 1 60.0957 32.5069 37.3041 3 0.000117929 -4.11831
15536 1 62.6137 32.5069 37.3027 3 0.000110635 -4.11844
15537 1 61.7744 32.5069 34.9718 3 0.000112312 -4.11841
15538 1 63.4531 32.5069 32.6395 3 0.000109647 -4.11845
15539 1 18.8591 62.5896 47.7929 5 12.3402 -3.52387
15540 1 21.4308 62.5896 47.7929 5 12.3402 -3.52387
15541 1 20.5736 62.5896 45.4616 5 12.3402 -3.52387
15542 1 23.1453 62.5896 45.4616 5 12.3402 -3.52387
15543 1 22.288 62.5896 43.1302 5 12.3402 -3.52387
15544 1 24.8597 62.5896 43.1302 5 12.3402 -3.52387
15545 1 24.0025 62.5896 40.7989 5 12.3402 -3.52387
15546 1 26.5742 62.5896 40.7989 5 12.3402 -3.52387
15547 1 25.717 62.5896 38.4675 5 12.3402 -3.52387
15548 1 28.2886 62.5896 38.4675 5 12.3402 -3.52387
15549 1 27.4314 62.5896 36.1361 5 12.3402 -3.52387
15550 1 30.0031 62.5896 36.1361 5 12.3402 -3.52387
15551 1 29.1459 62.5896 33.8048 5 12.3402 -3.52387
15552 1 31.7176 62.5896 33.8048 5 12.3402 -3.52387
15553 1 30.8603 62.5896 31.4734 5 12.3402 -3.52387
15554 1 33.432 62.5896 31.4734 5 12.3402 -3.52387
15555 1 32.5748 62.5896 29.142 5 12.3402 -3.52387
15556 1 35.1465 62.5896 29.142 5 12.3402 -3.52387
15557 1 34.2893 62.5896 26.8107 5 12.3402 -3.52387
15558 1 36.861 62.5896 26.8107 5 12.3402 -3.52387
15559 1 36.0037 62.5896 24.4793 5 12.3402 -3.52387
15560 1 38.5754 62.5896 24.4793 5 12.3402 -3.52387
15561 1 37.7182 62.5896 22.1479 5 12.3402 -3.52387
15562 1 40.2899 62.5896 22.1479 5 12.3402 -3.52387
15563 1 39.4327 62.5896 19.8166 5 12.3402 -3.52387
15564 1 42.0044 62.5896 19.8166 5 12.3402 -3.52387
15565 1 41.1471 62.5896 17.4852 5 12.3402 -3.52387
15566 1 43.7188 62.5896 17.4852 5 12.3402 -3.52387
15567 1 42.8616 62.5896 15.1539 5 12.3402 -3.52387
15568 1 45.4333 62.5896 15.1539 5 12.3402 -3.52387
15569 1 44.5761 62.5896 12.8225 5 12.3402 -3.52387
15570 1 47.1477 62.5896 12.8225 5 12.3402 -3.52387
15571 1 46.2905 62.5896 10.4911 5 12.3402 -3.52387
15572 1 48.8622 62.5896 10.4911 5 12.3402 -3.52387
15573 1 48.005 62.5896 8.15977 5 12.3402 -3.52387
15574 1 50.5767 62.5896 8.15977 5 12.3402 -3.52387
15575 1 49.7194 62.5896 5.82841 5 12.3402 -3.52387
15576 1 52.2911 62.5896 5.82841 5 12.3402 -3.52387
15577 1 51.4339 62.5896 3.49704 5 12.3402 -3.52387
15578 1 54.0056 62.5896 3.49704 5 12.3402 -3.52387
15579 1 53.1484 62.5896 1.16568 5 12.3402 -3.52387
15580 1 55.7201 62.5896 1.16568 5 12.3402 -3.52387
15581 1 22.288 60.5706 46.6273 3 1.0169e-16 -4.08984
15582 1 24.8597 60.5706 46.6273 3 4.0169e-16 -4.08968
15583 1 24.0025 60.5706 44.2959 3 1e-16 -4.08973
15584 1 26.5742 60.5706 44.2959 3 9.99999e-17 -4.08959
15585 1 25.717 60.5706 41.9645 3 4e-16 -4.08964
15586 1 28.2886 60.5706 41.9645 3 1e-16 -4.08953
15587 1 27.4314 60.5706 39.6332 3 1e-16 -4.08956
15588 1 30.0031 60.5706 39.6332 3 4e-16 -4.08948
15589 1 29.1459 60.5706 37.3018 3 1e-16 -4.0895
15590 1 31.7176 60.5706 37.3018 3 1e-16 -4.08946
15591 1 30.8603 60.5706 34.9704 3 4e-16 -4.08947
15592 1 33.432 60.5706 34.9704 3 9.99999e-17 -4.08947
15593 1 32.5748 60.5706 32.6391 3 6.05845e-28 -4.08946
15594 1 35.1465 60.5706 32.6391 3 4.00001e-16 -4.0895
15595 1 34.2893 60.5706 30.3077 3 4e-16 -4.08948
15596 1 36.861 60.5706 30.3077 3 1e-16 -4.08956
15597 1 36.0037 60.5706 27.9764 3 9.99999e-17 -4.08953
15598 1 38.5754 60.5706 27.9764 3 1e-16 -4.08964
15599 1 37.7182 60.5706 25.645 3 9.99999e-17 -4.08959
15600 1 40.2899 60.5706 25.645 3 3.99999e-16 -4.08973
15601 1 39.4327 60.5706 23.3136 3 4e-16 -4.08968
15602 1 42.0044 60.5706 23.3136 3 4.03897e-28 -4.08984
15603 1 41.1471 60.5706 20.9823 3 9.99999e-17 -4.08978
15604 1 43.7188 60.5706 20.9823 3 4e-16 -4.08995
15605 1 42.8616 60.5706 18.6509 3 9.99999e-17 -4.08989
15606 1 45.4333 60.5706 18.6509 3 9.99999e-17 -4.09006
15607 1 44.5761 60.5706 16.3195 3 4.00001e-16 -4.09001
15608 1 47.1477 60.5706 16.3195 3 9.99999e-17 -4.09017
15609 1 46.2905 60.5706 13.9882 3 1e-16 -4.09012
15610 1 48.8622 60.5706 13.9882 3 3.99999e-16 -4.09027
15611 1 48.005 60.5706 11.6568 3 1e-16 -4.09022
15612 1 50.5767 60.5706 11.6568 3 9.99999e-17 -4.09036
15613 1 49.7194 60.5706 9.32545 3 3.99999e-16 -4.09032
15614 1 52.2911 60.5706 9.32545 3 1e-16 -4.09043
15615 1 51.4339 60.5706 6.99409 3 6.05845e-28 -4.0904
15616 1 54.0056 60.5706 6.99409 3 4.00001e-16 -4.09049
15617 1 53.1484 60.5706 4.66273 3 3.99999e-16 -4.09046
15618 1 55.7201 60.5706 4.66273 3 1e-16 -4.09054
15619 1 54.8628 60.5706 2.33136 3 1e-16 -4.09052
15620 1 57.4345 60.5706 2.33136 3 1e-16 -4.09058
15621 1 56.5773 60.5706 0 3 1.0507e-16 -4.09056
15622 1 59.149 60.5706 0 3 4.0507e-16 -4.09061
15623 1 24.0025 58.5516 47.7929 3 0.000276842 -4.10575
15624 1 26.5742 58.5516 47.7929 3 0.000157252 -4.10574
15625 1 25.717 58.5516 45.4616 3 0.000196676 -4.10574
15626 1 28.2886 58.5516 45.4616 3 8.5703e-05 -4.10574
15627 1 27.4314 58.5516 43.1302 3 0.000119794 -4.10574
15628 1 30.0031 58.5516 43.1302 3 3.29962e-05 -4.10574
15629 1 29.1459 58.5516 40.7989 3 5.6351e-05 -4.10574
15630 1 31.7176 58.5516 40.7989 3 8.46362e-06 -4.10574
15631 1 30.8603 58.5516 38.4675 3 1.67882e-05 -4.10574
15632 1 33.432 58.5516 38.4675 3 1.67882e-05 -4.10574
15633 1 32.5748 58.5516 36.1361 3 8.46362e-06 -4.10574
15634 1 35.1465 58.5516 36.1361 3 5.63512e-05 -4.10574
15635 1 34.2893 58.5516 33.8048 3 3.29959e-05 -4.10574
15636 1 36.861 58.5516 33.8048 3 0.000119794 -4.10574
15637 1 36.0037 58.5516 31.4734 3 8.57031e-05 -4.10574
15638 1 38.5754 58.5516 31.4734 3 0.000196676 -4.10574
15639 1 37.7182 58.5516 29.142 3 0.000157252 -4.10574
15640 1 40.2899 58.5516 29.142 3 0.000276842 -4.10575
15641 1 39.4327 58.5516 26.8107 3 0.000236861 -4.10575
15642 1 42.0044 58.5516 26.8107 3 0.000353488 -4.10575
15643 1 41.1471 58.5516 24.4793 3 0.000315834 -4.10575
15644 1 43.7188 58.5516 24.4793 3 0.000424556 -4.10576
15645 1 42.8616 58.5516 22.1479 3 0.00038968 -4.10576
15646 1 45.4333 58.5516 22.1479 3 0.000491636 -4.10577
15647 1 44.5761 58.5516 19.8166 3 0.000458404 -4.10576
15648 1 47.1477 58.5516 19.8166 3 0.000557723 -4.10578
15649 1 46.2905 58.5516 17.4852 3 0.000524669 -4.10577
15650 1 48.8622 58.5516 17.4852 3 0.000624646 -4.10579
15651 1 48.005 58.5516 15.1539 3 0.000591073 -4.10578
15652 1 50.5767 58.5516 15.1539 3 0.000691861 -4.10581
15653 1 49.7194 58.5516 12.8225 3 0.000658332 -4.1058
15654 1 52.2911 58.5516 12.8225 3 0.000757017 -4.10584
15655 1 51.4339 58.5516 10.4911 3 0.000724881 -4.10583
15656 1 54.0056 58.5516 10.4911 3 0.000817217 -4.10587
15657 1 53.1484 58.5516 8.15977 3 0.000787922 -4.10586
15658 1 55.7201 58.5516 8.15977 3 0.000870029 -4.1059
15659 1 54.8628 58.5516 5.82841 3 0.000844684 -4.10589
15660 1 57.4345 58.5516 5.82841 3 0.00091382 -4.10593
15661 1 56.5773 58.5516 3.49704 3 0.000893121 -4.10592
15662 1 59.149 58.5516 3.49704 3 0.000947848 -4.10596
15663 1 58.2918 58.5516 1.16568 3 0.00093209 -4.10595
15664 1 60.8635 58.5516 1.16568 3 0.00097187 -4.10598
15665 1 27.4391 56.5333 46.6268 3 3.40923e-05 -4.10608
15666 1 30.0068 56.5317 46.627 3 2.33292e-05 -4.10618
15667 1 29.151 56.5321 44.2955 3 2.61152e-05 -4.10615
15668 1 31.7183 56.5313 44.2958 3 2.04271e-05 -4.10621
15669 1 30.8626 56.5315 41.9644 3 2.13988e-05 -4.1062
15670 1 33.4298 56.5315 41.9647 3 2.13987e-05 -4.1062
15671 1 32.574 56.5313 39.6332 3 2.04271e-05 -4.10621
15672 1 35.1414 56.5321 39.6335 3 2.61152e-05 -4.10615
15673 1 34.2855 56.5317 37.3021 3 2.33292e-05 -4.10618
15674 1 36.8533 56.5333 37.3022 3 3.40923e-05 -4.10608
15675 1 35.9973 56.5327 34.9709 3 2.97497e-05 -4.10612
15676 1 38.5658 56.5349 34.9708 3 4.43784e-05 -4.10598
15677 1 37.7095 56.5341 32.6395 3 3.9008e-05 -4.10603
15678 1 40.2789 56.5369 32.6391 3 5.54688e-05 -4.10586
15679 1 39.4223 56.5359 30.3079 3 4.99747e-05 -4.10592
15680 1 41.9927 56.539 30.3073 3 6.53921e-05 -4.10574
15681 1 41.1358 56.5379 27.9762 3 6.0718e-05 -4.1058
15682 1 43.7072 56.5413 27.9753 3 7.18434e-05 -4.10563
15683 1 42.8499 56.5402 25.6443 3 6.91735e-05 -4.10569
15684 1 45.4223 56.5436 25.6434 3 7.31499e-05 -4.10554
15685 1 44.5647 56.5425 23.3123 3 7.32525e-05 -4.10558
15686 1 47.1378 56.5458 23.3115 3 6.85784e-05 -4.10548
15687 1 46.28 56.5447 20.9804 3 7.15176e-05 -4.10551
15688 1 48.8536 56.5478 20.9797 3 5.91397e-05 -4.10545
15689 1 47.9957 56.5468 18.6485 3 6.4315e-05 -4.10546
15690 1 50.5695 56.5495 18.6481 3 4.74132e-05 -4.10546
15691 1 49.7116 56.5487 16.3168 3 5.34402e-05 -4.10545
15692 1 52.2854 56.5509 16.3167 3 3.5419e-05 -4.10549
15693 1 51.4275 56.5502 13.9853 3 4.12988e-05 -4.10547
15694 1 54.0011 56.5521 13.9854 3 2.48519e-05 -4.10554
15695 1 53.1433 56.5515 11.654 3 2.99181e-05 -4.10552
15696 1 55.7167 56.553 11.6543 3 1.64285e-05 -4.10559
15697 1 54.8589 56.5526 9.32281 3 2.03596e-05 -4.10557
15698 1 57.4321 56.5537 9.32332 3 1.01318e-05 -4.10564
15699 1 56.5744 56.5534 6.99176 3 1.30196e-05 -4.10562
15700 1 59.1473 56.5542 6.99242 3 5.77087e-06 -4.10568
15701 1 58.2897 56.554 4.66081 3 7.72881e-06 -4.10566
15702 1 60.8624 56.5546 4.66158 3 2.97658e-06 -4.10572
15703 1 60.0049 56.5544 2.32994 3 4.2021e-06 -4.1057
15704 1 62.5774 56.5548 2.33078 3 1.43672e-06 -4.10574
15705 1 61.7199 56.5547 48.9578 3 2.06605e-06 -4.10573
15706 1 29.1543 54.511 47.7922 3 2.34403e-05 -4.1068
15707 1 31.7188 54.5092 47.7928 3 1.5675e-05 -4.1069
15708 1 30.8641 54.5095 45.4612 3 1.70086e-05 -4.10688
15709 1 33.4283 54.5095 45.4619 3 1.70086e-05 -4.10688
15710 1 32.5736 54.5092 43.1303 3 1.5675e-05 -4.1069
15711 1 35.1381 54.511 43.1309 3 2.34402e-05 -4.1068
15712 1 34.2831 54.5101 40.7994 3 1.96384e-05 -4.10685
15713 1 36.8485 54.5137 40.7996 3 3.38936e-05 -4.10666
15714 1 35.9932 54.5122 38.4683 3 2.82602e-05 -4.10674
15715 1 38.5598 54.5173 38.468 3 4.65067e-05 -4.10648
15716 1 37.704 54.5154 36.1368 3 4.01072e-05 -4.10657
15717 1 40.2723 54.5217 36.136 3 5.89024e-05 -4.10627
15718 1 39.4159 54.5194 33.805 3 5.28765e-05 -4.10637
15719 1 41.986 54.5265 33.8037 3 6.85282e-05 -4.10606
15720 1 41.129 54.524 31.4728 3 6.42053e-05 -4.10616
15721 1 43.7008 54.5315 31.4712 3 7.31397e-05 -4.10589
15722 1 42.8433 54.529 29.1404 3 7.15719e-05 -4.10597
15723 1 45.4166 54.5363 29.1387 3 7.17161e-05 -4.10579
15724 1 44.5586 54.5339 26.8079 3 7.3189e-05 -4.10583
15725 1 47.1331 54.5408 26.8063 3 6.48974e-05 -4.10576
15726 1 46.2748 54.5386 24.4755 3 6.89167e-05 -4.10576
15727 1 48.8499 54.5448 24.4742 3 5.47837e-05 -4.10582
15728 1 47.9915 54.5429 22.1432 3 6.00846e-05 -4.10578
15729 1 50.5668 54.5481 22.1425 3 4.33513e-05 -4.10594
15730 1 49.7084 54.5465 19.8113 3 4.91134e-05 -4.10588
15731 1 52.2835 54.5508 19.811 3 3.2574e-05 -4.10611
15732 1 51.4252 54.5496 17.4797 3 3.78003e-05 -4.10602
15733 1 53.9999 54.553 17.4799 3 2.3151e-05 -4.10628
15734 1 53.1417 54.552 15.1484 3 2.76414e-05 -4.1062
15735 1 55.716 54.5547 15.149 3 1.56108e-05 -4.10645
15736 1 54.858 54.5539 12.8174 3 1.91666e-05 -4.10637
15737 1 57.4317 54.5559 12.8184 3 9.89855e-06 -4.1066
15738 1 56.5739 54.5553 10.4866 3 1.25246e-05 -4.10653
15739 1 59.1472 54.5568 10.4879 3 5.79416e-06 -4.10673
15740 1 58.2895 54.5564 8.15609 3 7.66454e-06 -4.10667
15741 1 60.8624 54.5574 8.15756 3 3.08042e-06 -4.10682
15742 1 60.0048 54.5571 5.82569 3 4.27623e-06 -4.10678
15743 1 62.5774 54.5578 5.82729 3 1.54511e-06 -4.10688
15744 1 61.7199 54.5576 3.49537 3 2.17642e-06 -4.10685
15745 1 63.4349 54.5578 1.16512 3 1.17353e-06 -4.10689
15746 1 32.5733 52.4855 46.6274 3 2.48604e-05 -4.10718
15747 1 35.1363 52.4886 46.6281 3 3.46489e-05 -4.10702
15748 1 34.2818 52.4871 44.2966 3 2.98991e-05 -4.1071
15749 1 36.846 52.4931 44.2968 3 4.73203e-05 -4.10679
15750 1 35.991 52.4906 41.9655 3 4.06068e-05 -4.10692
15751 1 38.557 52.4992 41.9649 3 6.17394e-05 -4.10649
15752 1 37.7013 52.496 39.6339 3 5.46001e-05 -4.10665
15753 1 40.2695 52.5064 39.6325 3 7.43575e-05 -4.10616
15754 1 39.4131 52.5027 37.3017 3 6.84997e-05 -4.10633
15755 1 41.9837 52.5142 37.2997 3 8.22461e-05 -4.10584
15756 1 41.1264 52.5103 34.9691 3 7.90727e-05 -4.106
15757 1 43.6993 52.5222 34.9666 3 8.34656e-05 -4.1056
15758 1 42.8413 52.5182 32.6361 3 8.37444e-05 -4.10571
15759 1 45.416 52.5298 32.6336 3 7.80759e-05 -4.10546
15760 1 44.5575 52.5261 30.3031 3 8.14801e-05 -4.10551
15761 1 47.1333 52.5367 30.3009 3 6.85232e-05 -4.10546
15762 1 46.2746 52.5334 27.9702 3 7.36589e-05 -4.10544
15763 1 48.8509 52.5426 27.9686 3 5.69808e-05 -4.10558
15764 1 47.9921 52.5398 25.6376 3 6.287e-05 -4.1055
15765 1 50.5683 52.5474 25.6368 3 4.51907e-05 -4.10578
15766 1 49.7097 52.5451 23.3056 3 5.10436e-05 -4.10567
15767 1 52.2853 52.5512 23.3054 3 3.4272e-05 -4.10602
15768 1 51.4269 52.5494 20.974 3 3.9559e-05 -4.10589
15769 1 54.0019 52.5542 20.9745 3 2.49661e-05 -4.10626
15770 1 53.1437 52.5528 18.6428 3 2.9395e-05 -4.10614
15771 1 55.7179 52.5565 18.6439 3 1.7502e-05 -4.10649
15772 1 54.86 52.5554 16.3121 3 2.10083e-05 -4.10638
15773 1 57.4334 52.5581 16.3136 3 1.17649e-05 -4.10669
15774 1 56.5757 52.5574 13.9817 3 1.44333e-05 -4.1066
15775 1 59.1486 52.5593 13.9836 3 7.59679e-06 -4.10686
15776 1 58.291 52.5588 11.6515 3 9.49839e-06 -4.10678
15777 1 60.8634 52.5601 11.6536 3 4.7783e-06 -4.10698
15778 1 60.006 52.5598 9.32154 3 6.02882e-06 -4.10692
15779 1 62.5779 52.5606 9.32384 3 3.14933e-06 -4.10705
15780 1 61.7207 52.5604 6.99169 3 3.82552e-06 -4.10702
15781 1 63.4352 52.5607 4.66192 3 2.74717e-06 -4.10707
15782 1 34.2815 50.4629 47.7936 3 5.71964e-05 -4.107
15783 1 36.8458 50.4719 47.7935 3 7.66996e-05 -4.10659
15784 1 35.9907 50.4682 45.4623 3 6.93604e-05 -4.10675
15785 1 38.5572 50.4809 45.4613 3 9.09351e-05 -4.10619
15786 1 37.7013 50.4761 43.1304 3 8.40064e-05 -4.1064
15787 1 40.2706 50.4914 43.1283 3 0.000101376 -4.10578
15788 1 39.4136 50.486 40.7978 3 9.6766e-05 -4.10598
15789 1 41.9858 50.5027 40.795 3 0.00010485 -4.10541
15790 1 41.1279 50.497 38.4646 3 0.000104207 -4.10558
15791 1 43.7026 50.5139 38.4614 3 0.000100003 -4.10517
15792 1 42.844 50.5084 36.1311 3 0.000103351 -4.10527
15793 1 45.4204 50.5244 36.128 3 9.02979e-05 -4.10511
15794 1 44.5614 50.5193 33.7976 3 9.56053e-05 -4.10512
15795 1 47.1386 50.5335 33.7951 3 7.81961e-05 -4.10524
15796 1 46.2795 50.5291 31.4644 3 8.43955e-05 -4.10515
15797 1 48.8567 50.5411 31.4627 3 6.48546e-05 -4.10549
15798 1 47.9977 50.5375 29.1318 3 7.16393e-05 -4.10535
15799 1 50.5742 50.5472 29.131 3 5.15444e-05 -4.10581
15800 1 49.7155 50.5443 26.7998 3 5.80676e-05 -4.10565
15801 1 52.291 50.5519 26.7999 3 3.95353e-05 -4.10615
15802 1 51.4327 50.5497 24.4683 3 4.53321e-05 -4.10598
15803 1 54.0071 50.5555 24.4692 3 2.95545e-05 -4.10647
15804 1 53.1491 50.5538 22.1374 3 3.42973e-05 -4.10631
15805 1 55.7225 50.5581 22.139 3 2.15863e-05 -4.10677
15806 1 54.8649 50.5569 19.807 3 2.53059e-05 -4.10662
15807 1 57.4372 50.5601 19.809 3 1.55084e-05 -4.10701
15808 1 56.5799 50.5592 17.4769 3 1.83377e-05 -4.1069
15809 1 59.1515 50.5615 17.4794 3 1.10349e-05 -4.10721
15810 1 58.2944 50.5609 15.1471 3 1.30822e-05 -4.10712
15811 1 60.8653 50.5624 15.1499 3 8.00006e-06 -4.10736
15812 1 60.0085 50.562 12.8175 3 9.34805e-06 -4.10729
15813 1 62.5789 50.5629 12.8205 3 6.22142e-06 -4.10744
15814 1 61.7222 50.5627 10.4881 3 6.95854e-06 -4.10741
15815 1 63.4357 50.563 8.15875 3 5.78117e-06 -4.10746
15816 1 37.7041 48.4563 46.6264 3 0.000135718 -4.10576
15817 1 40.2759 48.4772 46.6235 3 0.000145168 -4.10508
15818 1 39.4181 48.4699 44.2933 3 0.000143716 -4.10529
15819 1 41.9929 48.4924 44.2895 3 0.000139127 -4.10475
15820 1 41.1342 48.4848 41.9594 3 0.000143575 -4.10489
15821 1 43.7115 48.507 41.9555 3 0.000126257 -4.10464
15822 1 42.8521 48.4998 39.6254 3 0.000132987 -4.10466
15823 1 45.4305 48.5201 39.6219 3 0.000112472 -4.10479
15824 1 44.571 48.5138 37.2916 3 0.000119477 -4.10468
15825 1 47.1494 48.5312 37.289 3 9.70858e-05 -4.10514
15826 1 46.29 48.526 34.9583 3 0.000105127 -4.10495
15827 1 48.8674 48.5401 34.9568 3 7.96234e-05 -4.10559
15828 1 48.0085 48.5359 32.6258 3 8.8415e-05 -4.10536
15829 1 50.5845 48.5471 32.6254 3 6.28605e-05 -4.10606
15830 1 49.7261 48.5439 30.294 3 7.1026e-05 -4.10583
15831 1 52.3005 48.5524 30.2945 3 4.84785e-05 -4.10651
15832 1 51.4426 48.55 27.9628 3 5.5309e-05 -4.10629
15833 1 54.0156 48.5564 27.9642 3 3.69292e-05 -4.10691
15834 1 53.1581 48.5546 25.6322 3 4.23927e-05 -4.10672
15835 1 55.7297 48.5594 25.6343 3 2.79348e-05 -4.10726
15836 1 54.8728 48.558 23.3021 3 3.21178e-05 -4.10709
15837 1 57.4432 48.5615 23.3047 3 2.11128e-05 -4.10755
15838 1 56.5865 48.5605 20.9724 3 2.42822e-05 -4.10742
15839 1 59.156 48.563 20.9754 3 1.61641e-05 -4.10778
15840 1 58.2997 48.5623 18.6429 3 1.84348e-05 -4.10768
15841 1 60.8684 48.5639 18.6462 3 1.27857e-05 -4.10795
15842 1 60.0123 48.5635 16.3137 3 1.42836e-05 -4.10787
15843 1 62.5805 48.5645 16.3172 3 1.0833e-05 -4.10804
15844 1 61.7245 48.5642 13.9846 3 1.16332e-05 -4.108
15845 1 63.4364 48.5646 11.6556 3 1.03618e-05 -4.10807
15846 1 39.4274 46.455 47.788 3 0.000222515 -4.1042
15847 1 42.0063 46.4838 47.7833 3 0.000191148 -4.10387
15848 1 41.1463 46.4742 45.4535 3 0.000203648 -4.10391
15849 1 43.7269 46.5017 45.449 3 0.000171451 -4.10408
15850 1 42.8666 46.493 43.1191 3 0.00018036 -4.10394
15851 1 45.447 46.5172 43.1155 3 0.000153068 -4.1046
15852 1 44.5871 46.5098 40.7851 3 0.000162836 -4.10431
15853 1 47.166 46.5297 40.7829 3 0.000128135 -4.10526
15854 1 46.3067 46.5238 38.452 3 0.000141292 -4.10492
15855 1 48.8834 46.5395 38.4511 3 0.000101775 -4.10592
15856 1 48.0249 46.5349 36.1198 3 0.000114647 -4.10559
15857 1 50.5994 46.547 36.12 3 7.90868e-05 -4.10655
15858 1 49.7416 46.5435 33.7884 3 8.98417e-05 -4.10624
15859 1 52.314 46.5526 33.7895 3 6.10093e-05 -4.1071
15860 1 51.4569 46.55 31.4576 3 6.94899e-05 -4.10683
15861 1 54.0274 46.5568 31.4595 3 4.71272e-05 -4.10758
15862 1 53.1709 46.5548 29.1274 3 5.35734e-05 -4.10735
15863 1 55.7398 46.5598 29.1299 3 3.66203e-05 -4.10798
15864 1 54.8837 46.5584 26.7977 3 4.14914e-05 -4.10779
15865 1 57.4513 46.5619 26.8007 3 2.8816e-05 -4.10831
15866 1 56.5957 46.561 24.4682 3 3.24265e-05 -4.10815
15867 1 59.1622 46.5634 24.4716 3 2.31807e-05 -4.10856
15868 1 58.3068 46.5628 22.1391 3 2.57534e-05 -4.10844
15869 1 60.8725 46.5644 22.1427 3 1.93806e-05 -4.10874
15870 1 60.0174 46.564 19.8101 3 2.10665e-05 -4.10866
15871 1 62.5825 46.5649 19.814 3 1.71883e-05 -4.10885
15872 1 61.7276 46.5647 17.4813 3 1.809e-05 -4.1088
15873 1 63.4375 46.565 15.1525 3 1.66562e-05 -4.10888
15874 1 42.8891 44.4885 46.6124 3 0.000265741 -4.10323
15875 1 45.4707 44.5154 46.6094 3 0.000217854 -4.10467
15876 1 44.6107 44.5074 44.2788 3 0.000239108 -4.10415
15877 1 47.189 44.5286 44.2772 3 0.000170679 -4.10565
15878 1 46.3301 44.5224 41.9461 3 0.000194065 -4.10517
15879 1 48.9051 44.5387 41.9459 3 0.000130694 -4.10653
15880 1 48.0473 44.534 39.6144 3 0.000149442 -4.10611
15881 1 50.6192 44.5464 39.6152 3 0.000100116 -4.10729
15882 1 49.7623 44.5428 37.2834 3 0.000114335 -4.10692
15883 1 52.3317 44.552 37.2851 3 7.73617e-05 -4.10793
15884 1 51.4756 44.5494 34.9531 3 8.78852e-05 -4.10762
15885 1 54.0428 44.5561 34.9555 3 6.04978e-05 -4.10847
15886 1 53.1874 44.5542 32.6232 3 6.82774e-05 -4.10821
15887 1 55.7527 44.5591 32.6262 3 4.81043e-05 -4.10891
15888 1 54.8979 44.5577 30.2937 3 5.38302e-05 -4.1087
15889 1 57.4618 44.5611 30.2971 3 3.89599e-05 -4.10927
15890 1 56.6074 44.5602 27.9646 3 4.31812e-05 -4.1091
15891 1 59.17 44.5625 27.9682 3 3.24567e-05 -4.10954
15892 1 58.316 44.5619 25.6356 3 3.54152e-05 -4.10942
15893 1 60.8778 44.5634 25.6395 3 2.80714e-05 -4.10974
15894 1 60.024 44.563 23.3068 3 2.99929e-05 -4.10965
15895 1 62.5852 44.5639 23.3109 3 2.55411e-05 -4.10985
15896 1 61.7315 44.5637 20.9781 3 2.66081e-05 -4.1098
15897 1 63.4388 44.5641 18.6495 3 2.49202e-05 -4.10988
15898 1 44.6431 42.5061 47.7731 3 0.000348477 -4.10439
15899 1 47.219 42.5276 47.7725 3 0.000222109 -4.10638
15900 1 46.3611 42.5214 45.4411 3 0.000258139 -4.10578
15901 1 48.9327 42.5375 45.4417 3 0.000166097 -4.10743
15902 1 48.0762 42.5329 43.1099 3 0.000191662 -4.10693
15903 1 50.6442 42.5449 43.1115 3 0.000126503 -4.10829
15904 1 49.7887 42.5415 40.7795 3 0.000144591 -4.10788
15905 1 52.3538 42.5502 40.7817 3 9.82295e-05 -4.109
15906 1 51.4992 42.5478 38.4495 3 0.000111213 -4.10866
15907 1 54.0619 42.5541 38.4523 3 7.77779e-05 -4.10959
15908 1 53.208 42.5523 36.1199 3 8.71759e-05 -4.10931
15909 1 55.7687 42.5568 36.1231 3 6.28703e-05 -4.11006
15910 1 54.9155 42.5556 33.7906 3 6.97246e-05 -4.10984
15911 1 57.4746 42.5587 33.7942 3 5.20948e-05 -4.11044
15912 1 56.6218 42.5579 31.4616 3 5.70569e-05 -4.11026
15913 1 59.1797 42.5599 31.4653 3 4.44245e-05 -4.11072
15914 1 58.3272 42.5594 29.1327 3 4.79016e-05 -4.11059
15915 1 60.8842 42.5607 29.1366 3 3.93075e-05 -4.11093
15916 1 60.032 42.5604 26.8039 3 4.15799e-05 -4.11084
15917 1 62.5884 42.5612 26.808 3 3.63613e-05 -4.11105
15918 1 61.7363 42.561 24.4752 3 3.75856e-05 -4.111
15919 1 63.4404 42.5613 22.1466 3 3.56627e-05 -4.11108
15920 1 48.1122 40.5309 46.6071 3 0.000241917 -4.10809
15921 1 50.6748 40.542 46.6092 3 0.00015952 -4.10956
15922 1 49.8212 40.5389 44.277 3 0.000182154 -4.10912
15923 1 52.3807 40.5468 44.2796 3 0.000124584 -4.11031
15924 1 51.528 40.5446 41.9473 3 0.000140532 -4.10995
15925 1 54.085 40.5503 41.9503 3 9.9578e-05 -4.11092
15926 1 53.233 40.5487 39.6179 3 0.00011106 -4.11063
15927 1 55.788 40.5526 39.6211 3 8.15436e-05 -4.11141
15928 1 54.9366 40.5515 37.2886 3 8.98292e-05 -4.11118
15929 1 57.49 40.5542 37.292 3 6.85581e-05 -4.11179
15930 1 56.6391 40.5535 34.9595 3 7.44571e-05 -4.11161
15931 1 59.1912 40.5552 34.963 3 5.94724e-05 -4.11209
15932 1 58.3407 40.5548 32.6305 3 6.36053e-05 -4.11195
15933 1 60.8919 40.5559 32.6341 3 5.34147e-05 -4.11229
15934 1 60.0416 40.5556 30.3015 3 5.61058e-05 -4.1122
15935 1 62.5922 40.5562 30.3052 3 4.9966e-05 -4.11241
15936 1 61.7421 40.5561 27.9726 3 5.13916e-05 -4.11236
15937 1 63.4423 40.5563 25.6437 3 4.91519e-05 -4.11244
15938 1 49.8603 38.5344 47.7767 3 0.00022877 -4.11063
15939 1 52.4127 38.5412 47.7792 3 0.000156521 -4.11184
15940 1 51.5623 38.5393 45.447 3 0.000176425 -4.11148
15941 1 54.1123 38.5441 45.4497 3 0.000125644 -4.11245
15942 1 53.2627 38.5428 43.1174 3 0.000139759 -4.11216
15943 1 55.8106 38.546 43.1202 3 0.000103655 -4.11293
15944 1 54.9616 38.5451 40.7879 3 0.000113716 -4.11271
15945 1 57.508 38.5472 40.7908 3 8.81217e-05 -4.11331
15946 1 56.6594 38.5467 38.4585 3 9.52062e-05 -4.11313
15947 1 59.2047 38.548 38.4615 3 7.738e-05 -4.11359
15948 1 58.3565 38.5477 36.1291 3 8.22134e-05 -4.11346
15949 1 60.9009 38.5485 36.1321 3 7.03797e-05 -4.11379
15950 1 60.0529 38.5483 33.7997 3 7.3456e-05 -4.1137
15951 1 62.5967 38.5487 33.8027 3 6.63748e-05 -4.11391
15952 1 61.7488 38.5486 31.4704 3 6.80542e-05 -4.11386
15953 1 63.4446 38.5488 29.141 3 6.54262e-05 -4.11394
15954 1 53.2972 36.5341 46.6189 3 0.000169651 -4.11387
15955 1 55.8369 36.5365 46.6208 3 0.000126611 -4.11459
15956 1 54.9906 36.5358 44.2888 3 0.000138424 -4.11437
15957 1 57.5289 36.5373 44.2907 3 0.000108721 -4.11494
15958 1 56.6829 36.537 41.9587 3 0.000116846 -4.11477
15959 1 59.2202 36.5378 41.9607 3 9.66157e-05 -4.1152
15960 1 58.3746 36.5376 39.6287 3 0.000102039 -4.11508
15961 1 60.9112 36.5381 39.6306 3 8.88578e-05 -4.11538
15962 1 60.0658 36.538 37.2986 3 9.22731e-05 -4.1153
15963 1 62.6019 36.5382 37.3005 3 8.45085e-05 -4.11548
15964 1 61.7565 36.5382 34.9685 3 8.62987e-05 -4.11544
15965 1 63.4471 36.5383 32.6384 3 8.34506e-05 -4.11551
15966 1 55.0233 34.5231 47.7913 3 0.000156629 -4.1161
15967 1 57.5522 34.524 47.7918 3 0.000125593 -4.11657
15968 1 56.7094 34.5238 45.4602 3 0.000133924 -4.11644
15969 1 59.2376 34.5243 45.4607 3 0.000113274 -4.11679
15970 1 58.395 34.5242 43.1292 3 0.000118807 -4.11669
15971 1 60.9227 34.5244 43.1296 3 0.000105486 -4.11695
15972 1 60.0802 34.5243 40.7981 3 0.00010893 -4.11688
15973 1 62.6076 34.5244 40.7986 3 0.000101178 -4.11704
15974 1 61.7651 34.5244 38.467 3 0.000102928 -4.117
15975 1 63.45 34.5244 36.136 3 0.000100115 -4.11706
15976 1 58.4169 32.5069 46.6304 3 0.00012712 -4.11817
15977 1 60.935 32.5069 46.629 3 0.000114696 -4.11837
15978 1 60.0957 32.5069 44.2981 3 0.000117929 -4.11831
15979 1 62.6137 32.5069 44.2968 3 0.000110635 -4.11844
15980 1 61.7744 32.5069 41.9659 3 0.000112312 -4.11841
15981 1 63.4531 32.5069 39.6336 3 0.000109647 -4.11845
15982 1 24.0025 62.5896 47.7929 5 12.3402 -3.52387
15983 1 26.5742 62.5896 47.7929 5 12.3402 -3.52387
15984 1 25.717 62.5896 45.4616 5 12.3402 -3.52387
15985 1 28.2886 62.5896 45.4616 5 12.3402 -3.52387
15986 1 27.4314 62.5896 43.1302 5 12.3402 -3.52387
15987 1 30.0031 62.5896 43.1302 5 12.3402 -3.52387
15988 1 29.1459 62.5896 40.7989 5 12.3402 -3.52387
15989 1 31.7176 62.5896 40.7989 5 12.3402 -3.52387
15990 1 30.8603 62.5896 38.4675 5 12.3402 -3.52387
15991 1 33.432 62.5896 38.4675 5 12.3402 -3.52387
15992 1 32.5748 62.5896 36.1361 5 12.3402 -3.52387
15993 1 35.1465 62.5896 36.1361 5 12.3402 -3.52387
15994 1 34.2893 62.5896 33.8048 5 12.3402 -3.52387
15995 1 36.861 62.5896 33.8048 5 12.3402 -3.52387
15996 1 36.0037 62.5896 31.4734 5 12.3402 -3.52387
15997 1 38.5754 62.5896 31.4734 5 12.3402 -3.52387
15998 1 37.7182 62.5896 29.142 5 12.3402 -3.52387
15999 1 40.2899 62.5896 29.142 5 12.3402 -3.52387
16000 1 39.4327 62.5896 26.8107 5 12.3402 -3.52387
16001 1 42.0044 62.5896 26.8107 5 12.3402 -3.52387
16002 1 41.1471 62.5896 24.4793 5 12.3402 -3.52387
16003 1 43.7188 62.5896 24.4793 5 12.3402 -3.52387
16004 1 42.8616 62.5896 22.1479 5 12.3402 -3.52387
16005 1 45.4333 62.5896 22.1479 5 12.3402 -3.52387
16006 1 44.5761 62.5896 19.8166 5 12.3402 -3.52387
16007 1 47.1477 62.5896 19.8166 5 12.3402 -3.52387
16008 1 46.2905 62.5896 17.4852 5 12.3402 -3.52387
16009 1 48.8622 62.5896 17.4852 5 12.3402 -3.52387
16010 1 48.005 62.5896 15.1539 5 12.3402 -3.52387
16011 1 50.5767 62.5896 15.1539 5 12.3402 -3.52387
16012 1 49.7194 62.5896 12.8225 5 12.3402 -3.52387
16013 1 52.2911 62.5896 12.8225 5 12.3402 -3.52387
16014 1 51.4339 62.5896 10.4911 5 12.3402 -3.52387
16015 1 54.0056 62.5896 10.4911 5 12.3402 -3.52387
16016 1 53.1484 62.5896 8.15977 5 12.3402 -3.52387
16017 1 55.7201 62.5896 8.15977 5 12.3402 -3.52387
16018 1 54.8628 62.5896 5.82841 5 12.3402 -3.52387
16019 1 57.4345 62.5896 5.82841 5 12.3402 -3.52387
16020 1 56.5773 62.5896 3.49704 5 12.3402 -3.52387
16021 1 59.149 62.5896 3.49704 5 12.3402 -3.52387
16022 1 58.2918 62.5896 1.16568 5 12.3402 -3.52387
16023 1 60.8635 62.5896 1.16568 5 12.3402 -3.52387
16024 1 27.4314 60.5706 46.6273 3 1.0169e-16 -4.08956
16025 1 30.0031 60.5706 46.6273 3 4.0169e-16 -4.08948
16026 1 29.1459 60.5706 44.2959 3 1e-16 -4.0895
16027 1 31.7176 60.5706 44.2959 3 1e-16 -4.08946
16028 1 30.8603 60.5706 41.9645 3 4e-16 -4.08947
16029 1 33.432 60.5706 41.9645 3 9.99999e-17 -4.08947
16030 1 32.5748 60.5706 39.6332 3 4.03897e-28 -4.08946
16031 1 35.1465 60.5706 39.6332 3 4.00001e-16 -4.0895
16032 1 34.2893 60.5706 37.3018 3 4e-16 -4.08948
16033 1 36.861 60.5706 37.3018 3 1e-16 -4.08956
16034 1 36.0037 60.5706 34.9704 3 9.99999e-17 -4.08953
16035 1 38.5754 60.5706 34.9704 3 1e-16 -4.08964
16036 1 37.7182 60.5706 32.6391 3 9.99999e-17 -4.08959
16037 1 40.2899 60.5706 32.6391 3 3.99999e-16 -4.08973
16038 1 39.4327 60.5706 30.3077 3 4e-16 -4.08968
16039 1 42.0044 60.5706 30.3077 3 4.03897e-28 -4.08984
16040 1 41.1471 60.5706 27.9764 3 9.99999e-17 -4.08978
16041 1 43.7188 60.5706 27.9764 3 4e-16 -4.08995
16042 1 42.8616 60.5706 25.645 3 9.99999e-17 -4.08989
16043 1 45.4333 60.5706 25.645 3 9.99999e-17 -4.09006
16044 1 44.5761 60.5706 23.3136 3 4.00001e-16 -4.09001
16045 1 47.1477 60.5706 23.3136 3 9.99999e-17 -4.09017
16046 1 46.2905 60.5706 20.9823 3 1e-16 -4.09012
16047 1 48.8622 60.5706 20.9823 3 3.99999e-16 -4.09027
16048 1 48.005 60.5706 18.6509 3 1e-16 -4.09022
16049 1 50.5767 60.5706 18.6509 3 9.99999e-17 -4.09036
16050 1 49.7194 60.5706 16.3195 3 3.99999e-16 -4.09032
16051 1 52.2911 60.5706 16.3195 3 1e-16 -4.09043
16052 1 51.4339 60.5706 13.9882 3 6.31089e-28 -4.0904
16053 1 54.0056 60.5706 13.9882 3 4.00001e-16 -4.09049
16054 1 53.1484 60.5706 11.6568 3 3.99999e-16 -4.09046
16055 1 55.7201 60.5706 11.6568 3 1e-16 -4.09054
16056 1 54.8628 60.5706 9.32545 3 1e-16 -4.09052
16057 1 57.4345 60.5706 9.32545 3 1e-16 -4.09058
16058 1 56.5773 60.5706 6.99409 3 9.99999e-17 -4.09056
16059 1 59.149 60.5706 6.99409 3 3.99999e-16 -4.09061
16060 1 58.2918 60.5706 4.66273 3 3.99999e-16 -4.09059
16061 1 60.8635 60.5706 4.66273 3 4.03897e-28 -4.09062
16062 1 60.0062 60.5706 2.33136 3 1e-16 -4.09062
16063 1 62.5779 60.5706 2.33136 3 3.5776e-16 -4.09064
16064 1 61.7207 60.5706 0 3 6.28299e-17 -4.09063
16065 1 29.1459 58.5516 47.7929 3 5.6351e-05 -4.10574
16066 1 31.7176 58.5516 47.7929 3 8.46362e-06 -4.10574
16067 1 30.8603 58.5516 45.4616 3 1.67882e-05 -4.10574
16068 1 33.432 58.5516 45.4616 3 1.67882e-05 -4.10574
16069 1 32.5748 58.5516 43.1302 3 8.46362e-06 -4.10574
16070 1 35.1465 58.5516 43.1302 3 5.63512e-05 -4.10574
16071 1 34.2893 58.5516 40.7989 3 3.29959e-05 -4.10574
16072 1 36.861 58.5516 40.7989 3 0.000119794 -4.10574
16073 1 36.0037 58.5516 38.4675 3 8.57031e-05 -4.10574
16074 1 38.5754 58.5516 38.4675 3 0.000196676 -4.10574
16075 1 37.7182 58.5516 36.1361 3 0.000157252 -4.10574
16076 1 40.2899 58.5516 36.1361 3 0.000276842 -4.10575
16077 1 39.4327 58.5516 33.8048 3 0.000236861 -4.10575
16078 1 42.0044 58.5516 33.8048 3 0.000353488 -4.10575
16079 1 41.1471 58.5516 31.4734 3 0.000315834 -4.10575
16080 1 43.7188 58.5516 31.4734 3 0.000424556 -4.10576
16081 1 42.8616 58.5516 29.142 3 0.00038968 -4.10576
16082 1 45.4333 58.5516 29.142 3 0.000491636 -4.10577
16083 1 44.5761 58.5516 26.8107 3 0.000458404 -4.10576
16084 1 47.1477 58.5516 26.8107 3 0.000557723 -4.10578
16085 1 46.2905 58.5516 24.4793 3 0.000524669 -4.10577
16086 1 48.8622 58.5516 24.4793 3 0.000624646 -4.10579
16087 1 48.005 58.5516 22.1479 3 0.000591073 -4.10578
16088 1 50.5767 58.5516 22.1479 3 0.000691861 -4.10581
16089 1 49.7194 58.5516 19.8166 3 0.000658332 -4.1058
16090 1 52.2911 58.5516 19.8166 3 0.000757017 -4.10584
16091 1 51.4339 58.5516 17.4852 3 0.000724881 -4.10583
16092 1 54.0056 58.5516 17.4852 3 0.000817217 -4.10587
16093 1 53.1484 58.5516 15.1539 3 0.000787922 -4.10586
16094 1 55.7201 58.5516 15.1539 3 0.000870029 -4.1059
16095 1 54.8628 58.5516 12.8225 3 0.000844684 -4.10589
16096 1 57.4345 58.5516 12.8225 3 0.00091382 -4.10593
16097 1 56.5773 58.5516 10.4911 3 0.000893121 -4.10592
16098 1 59.149 58.5516 10.4911 3 0.000947848 -4.10596
16099 1 58.2918 58.5516 8.15977 3 0.00093209 -4.10595
16100 1 60.8635 58.5516 8.15977 3 0.00097187 -4.10598
16101 1 60.0062 58.5516 5.82841 3 0.000961107 -4.10597
16102 1 62.5779 58.5516 5.82841 3 0.000986078 -4.10599
16103 1 61.7207 58.5516 3.49704 3 0.000980179 -4.10598
16104 1 63.4352 58.5516 1.16568 3 0.000989616 -4.10599
16105 1 32.574 56.5313 46.6273 3 2.04271e-05 -4.10621
16106 1 35.1414 56.5321 46.6276 3 2.61153e-05 -4.10615
16107 1 34.2855 56.5317 44.2962 3 2.33292e-05 -4.10618
16108 1 36.8533 56.5333 44.2963 3 3.40923e-05 -4.10608
16109 1 35.9973 56.5327 41.965 3 2.97497e-05 -4.10612
16110 1 38.5658 56.5349 41.9648 3 4.43784e-05 -4.10598
16111 1 37.7095 56.5341 39.6336 3 3.9008e-05 -4.10603
16112 1 40.2789 56.5369 39.6332 3 5.54688e-05 -4.10586
16113 1 39.4223 56.5359 37.302 3 4.99747e-05 -4.10592
16114 1 41.9927 56.539 37.3014 3 6.53921e-05 -4.10574
16115 1 41.1358 56.5379 34.9702 3 6.0718e-05 -4.1058
16116 1 43.7072 56.5413 34.9694 3 7.18434e-05 -4.10563
16117 1 42.8499 56.5402 32.6384 3 6.91735e-05 -4.10569
16118 1 45.4223 56.5436 32.6375 3 7.31499e-05 -4.10554
16119 1 44.5647 56.5425 30.3064 3 7.32525e-05 -4.10558
16120 1 47.1378 56.5458 30.3056 3 6.85784e-05 -4.10548
16121 1 46.28 56.5447 27.9745 3 7.15176e-05 -4.10551
16122 1 48.8536 56.5478 27.9738 3 5.91397e-05 -4.10545
16123 1 47.9957 56.5468 25.6426 3 6.4315e-05 -4.10546
16124 1 50.5695 56.5495 25.6422 3 4.74132e-05 -4.10546
16125 1 49.7116 56.5487 23.3109 3 5.34402e-05 -4.10545
16126 1 52.2854 56.5509 23.3108 3 3.5419e-05 -4.10549
16127 1 51.4275 56.5502 20.9794 3 4.12988e-05 -4.10547
16128 1 54.0011 56.5521 20.9795 3 2.48519e-05 -4.10554
16129 1 53.1433 56.5515 18.6481 3 2.99181e-05 -4.10552
16130 1 55.7167 56.553 18.6484 3 1.64285e-05 -4.10559
16131 1 54.8589 56.5526 16.3169 3 2.03596e-05 -4.10557
16132 1 57.4321 56.5537 16.3174 3 1.01318e-05 -4.10564
16133 1 56.5744 56.5534 13.9858 3 1.30196e-05 -4.10562
16134 1 59.1473 56.5542 13.9865 3 5.77087e-06 -4.10568
16135 1 58.2897 56.554 11.6549 3 7.72881e-06 -4.10566
16136 1 60.8624 56.5546 11.6557 3 2.97658e-06 -4.10572
16137 1 60.0049 56.5544 9.32403 3 4.2021e-06 -4.1057
16138 1 62.5774 56.5548 9.32487 3 1.43672e-06 -4.10574
16139 1 61.7199 56.5547 6.99322 3 2.06605e-06 -4.10573
16140 1 63.4349 56.5548 4.66243 3 1.06806e-06 -4.10574
16141 1 34.2831 54.5101 47.7935 3 1.96384e-05 -4.10685
16142 1 36.8485 54.5137 47.7937 3 3.38936e-05 -4.10666
16143 1 35.9932 54.5122 45.4624 3 2.82602e-05 -4.10674
16144 1 38.5598 54.5173 45.4621 3 4.65067e-05 -4.10648
16145 1 37.704 54.5154 43.1309 3 4.01072e-05 -4.10657
16146 1 40.2723 54.5217 43.1301 3 5.89024e-05 -4.10627
16147 1 39.4159 54.5194 40.7991 3 5.28765e-05 -4.10637
16148 1 41.986 54.5265 40.7978 3 6.85282e-05 -4.10606
16149 1 41.129 54.524 38.4669 3 6.42053e-05 -4.10616
16150 1 43.7008 54.5315 38.4653 3 7.31397e-05 -4.10589
16151 1 42.8433 54.529 36.1345 3 7.15719e-05 -4.10597
16152 1 45.4166 54.5363 36.1328 3 7.17161e-05 -4.10579
16153 1 44.5586 54.5339 33.802 3 7.3189e-05 -4.10583
16154 1 47.1331 54.5408 33.8004 3 6.48974e-05 -4.10576
16155 1 46.2748 54.5386 31.4696 3 6.89167e-05 -4.10576
16156 1 48.8499 54.5448 31.4683 3 5.47837e-05 -4.10582
16157 1 47.9915 54.5429 29.1373 3 6.00846e-05 -4.10578
16158 1 50.5668 54.5481 29.1365 3 4.33513e-05 -4.10594
16159 1 49.7084 54.5465 26.8053 3 4.91134e-05 -4.10588
16160 1 52.2835 54.5508 26.8051 3 3.2574e-05 -4.10611
16161 1 51.4252 54.5496 24.4737 3 3.78003e-05 -4.10602
16162 1 53.9999 54.553 24.474 3 2.3151e-05 -4.10628
16163 1 53.1417 54.552 22.1425 3 2.76414e-05 -4.1062
16164 1 55.716 54.5547 22.1431 3 1.56108e-05 -4.10645
16165 1 54.858 54.5539 19.8115 3 1.91666e-05 -4.10637
16166 1 57.4317 54.5559 19.8125 3 9.89855e-06 -4.1066
16167 1 56.5739 54.5553 17.4807 3 1.25246e-05 -4.10653
16168 1 59.1472 54.5568 17.482 3 5.79416e-06 -4.10673
16169 1 58.2895 54.5564 15.1502 3 7.66454e-06 -4.10667
16170 1 60.8624 54.5574 15.1517 3 3.08042e-06 -4.10682
16171 1 60.0048 54.5571 12.8198 3 4.27623e-06 -4.10678
16172 1 62.5774 54.5578 12.8214 3 1.54511e-06 -4.10688
16173 1 61.7199 54.5576 10.4895 3 2.17642e-06 -4.10685
16174 1 63.4349 54.5578 8.15921 3 1.17353e-06 -4.10689
16175 1 37.7013 52.496 46.6279 3 5.46001e-05 -4.10665
16176 1 40.2695 52.5064 46.6266 3 7.43575e-05 -4.10616
16177 1 39.4131 52.5027 44.2958 3 6.84997e-05 -4.10633
16178 1 41.9837 52.5142 44.2938 3 8.22461e-05 -4.10584
16179 1 41.1264 52.5103 41.9632 3 7.90727e-05 -4.106
16180 1 43.6993 52.5222 41.9607 3 8.34656e-05 -4.1056
16181 1 42.8413 52.5182 39.6302 3 8.37444e-05 -4.10571
16182 1 45.416 52.5298 39.6277 3 7.80759e-05 -4.10546
16183 1 44.5575 52.5261 37.2972 3 8.14801e-05 -4.10551
16184 1 47.1333 52.5367 37.295 3 6.85232e-05 -4.10546
16185 1 46.2746 52.5334 34.9643 3 7.36589e-05 -4.10544
16186 1 48.8509 52.5426 34.9627 3 5.69808e-05 -4.10558
16187 1 47.9921 52.5398 32.6317 3 6.287e-05 -4.1055
16188 1 50.5683 52.5474 32.6309 3 4.51907e-05 -4.10578
16189 1 49.7097 52.5451 30.2997 3 5.10436e-05 -4.10567
16190 1 52.2853 52.5512 30.2995 3 3.4272e-05 -4.10602
16191 1 51.4269 52.5494 27.9681 3 3.9559e-05 -4.10589
16192 1 54.0019 52.5542 27.9686 3 2.49661e-05 -4.10626
16193 1 53.1437 52.5528 25.6369 3 2.9395e-05 -4.10614
16194 1 55.7179 52.5565 25.638 3 1.7502e-05 -4.10649
16195 1 54.86 52.5554 23.3062 3 2.10083e-05 -4.10638
16196 1 57.4334 52.5581 23.3077 3 1.17649e-05 -4.10669
16197 1 56.5757 52.5574 20.9758 3 1.44333e-05 -4.1066
16198 1 59.1486 52.5593 20.9776 3 7.59679e-06 -4.10686
16199 1 58.291 52.5588 18.6456 3 9.49839e-06 -4.10678
16200 1 60.8634 52.5601 18.6477 3 4.7783e-06 -4.10698
16201 1 60.006 52.5598 16.3156 3 6.02882e-06 -4.10692
16202 1 62.5779 52.5606 16.3179 3 3.14933e-06 -4.10705
16203 1 61.7207 52.5604 13.9858 3 3.82552e-06 -4.10702
16204 1 63.4352 52.5607 11.656 3 2.74717e-06 -4.10707
16205 1 39.4136 50.486 47.7919 3 9.6766e-05 -4.10598
16206 1 41.9858 50.5027 47.789 3 0.00010485 -4.10541
16207 1 41.1279 50.497 45.4587 3 0.000104207 -4.10558
16208 1 43.7026 50.5139 45.4555 3 0.000100003 -4.10517
16209 1 42.844 50.5084 43.1252 3 0.000103351 -4.10527
16210 1 45.4204 50.5244 43.1221 3 9.02979e-05 -4.10511
16211 1 44.5614 50.5193 40.7917 3 9.56053e-05 -4.10512
16212 1 47.1386 50.5335 40.7892 3 7.81961e-05 -4.10524
16213 1 46.2795 50.5291 38.4585 3 8.43955e-05 -4.10515
16214 1 48.8567 50.5411 38.4568 3 6.48546e-05 -4.10549
16215 1 47.9977 50.5375 36.1259 3 7.16393e-05 -4.10535
16216 1 50.5742 50.5472 36.1251 3 5.15444e-05 -4.10581
16217 1 49.7155 50.5443 33.7939 3 5.80676e-05 -4.10565
16218 1 52.291 50.5519 33.794 3 3.95353e-05 -4.10615
16219 1 51.4327 50.5497 31.4624 3 4.53321e-05 -4.10598
16220 1 54.0071 50.5555 31.4633 3 2.95545e-05 -4.10647
16221 1 53.1491 50.5538 29.1315 3 3.42973e-05 -4.10631
16222 1 55.7225 50.5581 29.1331 3 2.15863e-05 -4.10677
16223 1 54.8649 50.5569 26.8011 3 2.53059e-05 -4.10662
16224 1 57.4372 50.5601 26.8031 3 1.55084e-05 -4.10701
16225 1 56.5799 50.5592 24.471 3 1.83377e-05 -4.1069
16226 1 59.1515 50.5615 24.4734 3 1.10349e-05 -4.10721
16227 1 58.2944 50.5609 22.1412 3 1.30822e-05 -4.10712
16228 1 60.8653 50.5624 22.1439 3 8.00006e-06 -4.10736
16229 1 60.0085 50.562 19.8116 3 9.34805e-06 -4.10729
16230 1 62.5789 50.5629 19.8146 3 6.22142e-06 -4.10744
16231 1 61.7222 50.5627 17.4822 3 6.95854e-06 -4.10741
16232 1 63.4357 50.563 15.1528 3 5.78117e-06 -4.10746
16233 1 42.8521 48.4998 46.6195 3 0.000132987 -4.10466
16234 1 45.4305 48.5201 46.616 3 0.000112472 -4.10479
16235 1 44.571 48.5138 44.2857 3 0.000119477 -4.10468
16236 1 47.1494 48.5312 44.2831 3 9.70857e-05 -4.10514
16237 1 46.29 48.526 41.9524 3 0.000105127 -4.10495
16238 1 48.8674 48.5401 41.9509 3 7.96234e-05 -4.10559
16239 1 48.0085 48.5359 39.6199 3 8.8415e-05 -4.10536
16240 1 50.5845 48.5471 39.6195 3 6.28605e-05 -4.10606
16241 1 49.7261 48.5439 37.2881 3 7.1026e-05 -4.10583
16242 1 52.3005 48.5524 37.2886 3 4.84785e-05 -4.10651
16243 1 51.4426 48.55 34.9569 3 5.5309e-05 -4.10629
16244 1 54.0156 48.5564 34.9583 3 3.69292e-05 -4.10691
16245 1 53.1581 48.5546 32.6263 3 4.23927e-05 -4.10672
16246 1 55.7297 48.5594 32.6284 3 2.79348e-05 -4.10726
16247 1 54.8728 48.558 30.2962 3 3.21178e-05 -4.10709
16248 1 57.4432 48.5615 30.2988 3 2.11128e-05 -4.10755
16249 1 56.5865 48.5605 27.9665 3 2.42822e-05 -4.10742
16250 1 59.156 48.563 27.9694 3 1.61641e-05 -4.10778
16251 1 58.2997 48.5623 25.637 3 1.84348e-05 -4.10768
16252 1 60.8684 48.5639 25.6403 3 1.27857e-05 -4.10795
16253 1 60.0123 48.5635 23.3078 3 1.42836e-05 -4.10787
16254 1 62.5805 48.5645 23.3112 3 1.0833e-05 -4.10804
16255 1 61.7245 48.5642 20.9787 3 1.16332e-05 -4.108
16256 1 63.4364 48.5646 18.6497 3 1.03618e-05 -4.10807
16257 1 44.5871 46.5098 47.7792 3 0.000162836 -4.10431
16258 1 47.166 46.5297 47.777 3 0.000128135 -4.10526
16259 1 46.3067 46.5238 45.4461 3 0.000141292 -4.10492
16260 1 48.8834 46.5395 45.4452 3 0.000101775 -4.10592
16261 1 48.0249 46.5349 43.1139 3 0.000114647 -4.10559
16262 1 50.5994 46.547 43.1141 3 7.90868e-05 -4.10655
16263 1 49.7416 46.5435 40.7825 3 8.98417e-05 -4.10624
16264 1 52.314 46.5526 40.7836 3 6.10093e-05 -4.1071
16265 1 51.4569 46.55 38.4517 3 6.94899e-05 -4.10683
16266 1 54.0274 46.5568 38.4536 3 4.71272e-05 -4.10758
16267 1 53.1709 46.5548 36.1215 3 5.35734e-05 -4.10735
16268 1 55.7398 46.5598 36.124 3 3.66203e-05 -4.10798
16269 1 54.8837 46.5584 33.7917 3 4.14914e-05 -4.10779
16270 1 57.4513 46.5619 33.7948 3 2.8816e-05 -4.10831
16271 1 56.5957 46.561 31.4623 3 3.24265e-05 -4.10815
16272 1 59.1622 46.5634 31.4657 3 2.31807e-05 -4.10856
16273 1 58.3068 46.5628 29.1332 3 2.57534e-05 -4.10844
16274 1 60.8725 46.5644 29.1368 3 1.93806e-05 -4.10874
16275 1 60.0174 46.564 26.8042 3 2.10665e-05 -4.10866
16276 1 62.5825 46.5649 26.808 3 1.71883e-05 -4.10885
16277 1 61.7276 46.5647 24.4754 3 1.809e-05 -4.1088
16278 1 63.4375 46.565 22.1466 3 1.66562e-05 -4.10888
16279 1 48.0473 44.534 46.6085 3 0.000149442 -4.10611
16280 1 50.6192 44.5464 46.6093 3 0.000100116 -4.10729
16281 1 49.7623 44.5428 44.2775 3 0.000114335 -4.10692
16282 1 52.3317 44.552 44.2792 3 7.73617e-05 -4.10793
16283 1 51.4756 44.5494 41.9472 3 8.78852e-05 -4.10762
16284 1 54.0428 44.5561 41.9496 3 6.04978e-05 -4.10847
16285 1 53.1874 44.5542 39.6173 3 6.82774e-05 -4.10821
16286 1 55.7527 44.5591 39.6203 3 4.81043e-05 -4.10891
16287 1 54.8979 44.5577 37.2878 3 5.38302e-05 -4.1087
16288 1 57.4618 44.5611 37.2912 3 3.89599e-05 -4.10927
16289 1 56.6074 44.5602 34.9587 3 4.31812e-05 -4.1091
16290 1 59.17 44.5625 34.9623 3 3.24567e-05 -4.10954
16291 1 58.316 44.5619 32.6297 3 3.54152e-05 -4.10942
16292 1 60.8778 44.5634 32.6336 3 2.80714e-05 -4.10974
16293 1 60.024 44.563 30.3009 3 2.99929e-05 -4.10965
16294 1 62.5852 44.5639 30.305 3 2.55411e-05 -4.10985
16295 1 61.7315 44.5637 27.9722 3 2.66081e-05 -4.1098
16296 1 63.4388 44.5641 25.6436 3 2.49202e-05 -4.10988
16297 1 49.7887 42.5415 47.7735 3 0.000144591 -4.10788
16298 1 52.3538 42.5502 47.7758 3 9.82295e-05 -4.109
16299 1 51.4992 42.5478 45.4436 3 0.000111213 -4.10866
16300 1 54.0619 42.5541 45.4464 3 7.77779e-05 -4.10959
16301 1 53.208 42.5523 43.114 3 8.71759e-05 -4.10931
16302 1 55.7687 42.5568 43.1172 3 6.28703e-05 -4.11006
16303 1 54.9155 42.5556 40.7847 3 6.97246e-05 -4.10984
16304 1 57.4746 42.5587 40.7883 3 5.20948e-05 -4.11044
16305 1 56.6218 42.5579 38.4557 3 5.70569e-05 -4.11026
16306 1 59.1797 42.5599 38.4594 3 4.44245e-05 -4.11072
16307 1 58.3272 42.5594 36.1268 3 4.79016e-05 -4.11059
16308 1 60.8842 42.5607 36.1307 3 3.93075e-05 -4.11093
16309 1 60.032 42.5604 33.798 3 4.15799e-05 -4.11084
16310 1 62.5884 42.5612 33.802 3 3.63613e-05 -4.11105
16311 1 61.7363 42.561 31.4693 3 3.75856e-05 -4.111
16312 1 63.4404 42.5613 29.1407 3 3.56627e-05 -4.11108
16313 1 53.233 40.5487 46.612 3 0.00011106 -4.11063
16314 1 55.788 40.5526 46.6152 3 8.15436e-05 -4.11141
16315 1 54.9366 40.5515 44.2827 3 8.98292e-05 -4.11118
16316 1 57.49 40.5542 44.2861 3 6.85581e-05 -4.11179
16317 1 56.6391 40.5535 41.9536 3 7.44571e-05 -4.11161
16318 1 59.1912 40.5552 41.9571 3 5.94724e-05 -4.11209
16319 1 58.3407 40.5548 39.6246 3 6.36053e-05 -4.11195
16320 1 60.8919 40.5559 39.6282 3 5.34147e-05 -4.11229
16321 1 60.0416 40.5556 37.2956 3 5.61058e-05 -4.1122
16322 1 62.5922 40.5562 37.2993 3 4.9966e-05 -4.11241
16323 1 61.7421 40.5561 34.9667 3 5.13916e-05 -4.11236
16324 1 63.4423 40.5563 32.6378 3 4.91519e-05 -4.11244
16325 1 54.9616 38.5451 47.782 3 0.000113716 -4.11271
16326 1 57.508 38.5472 47.7849 3 8.81217e-05 -4.11331
16327 1 56.6594 38.5467 45.4526 3 9.52062e-05 -4.11313
16328 1 59.2047 38.548 45.4556 3 7.738e-05 -4.11359
16329 1 58.3565 38.5477 43.1232 3 8.22134e-05 -4.11346
16330 1 60.9009 38.5485 43.1262 3 7.03797e-05 -4.11379
16331 1 60.0529 38.5483 40.7938 3 7.3456e-05 -4.1137
16332 1 62.5967 38.5487 40.7968 3 6.63748e-05 -4.11391
16333 1 61.7488 38.5486 38.4645 3 6.80542e-05 -4.11386
16334 1 63.4446 38.5488 36.1351 3 6.54262e-05 -4.11394
16335 1 58.3746 36.5376 46.6228 3 0.000102039 -4.11508
16336 1 60.9112 36.5381 46.6247 3 8.88578e-05 -4.11538
16337 1 60.0658 36.538 44.2927 3 9.22731e-05 -4.1153
16338 1 62.6019 36.5382 44.2946 3 8.45085e-05 -4.11548
16339 1 61.7565 36.5382 41.9626 3 8.62987e-05 -4.11544
16340 1 63.4471 36.5383 39.6325 3 8.34506e-05 -4.11551
16341 1 60.0802 34.5243 47.7922 3 0.00010893 -4.11688
16342 1 62.6076 34.5244 47.7926 3 0.000101178 -4.11704
16343 1 61.7651 34.5244 45.4611 3 0.000102928 -4.117
16344 1 63.45 34.5244 43.1301 3 0.000100115 -4.11706
16345 1 63.4531 32.5069 46.6277 3 0.000109647 -4.11845
16346 1 29.1459 62.5896 47.7929 5 12.3402 -3.52387
16347 1 31.7176 62.5896 47.7929 5 12.3402 -3.52387
16348 1 30.8603 62.5896 45.4616 5 12.3402 -3.52387
16349 1 33.432 62.5896 45.4616 5 12.3402 -3.52387
16350 1 32.5748 62.5896 43.1302 5 12.3402 -3.52387
16351 1 35.1465 62.5896 43.1302 5 12.3402 -3.52387
16352 1 34.2893 62.5896 40.7989 5 12.3402 -3.52387
16353 1 36.861 62.5896 40.7989 5 12.3402 -3.52387
16354 1 36.0037 62.5896 38.4675 5 12.3402 -3.52387
16355 1 38.5754 62.5896 38.4675 5 12.3402 -3.52387
16356 1 37.7182 62.5896 36.1361 5 12.3402 -3.52387
16357 1 40.2899 62.5896 36.1361 5 12.3402 -3.52387
16358 1 39.4327 62.5896 33.8048 5 12.3402 -3.52387
16359 1 42.0044 62.5896 33.8048 5 12.3402 -3.52387
16360 1 41.1471 62.5896 31.4734 5 12.3402 -3.52387
16361 1 43.7188 62.5896 31.4734 5 12.3402 -3.52387
16362 1 42.8616 62.5896 29.142 5 12.3402 -3.52387
16363 1 45.4333 62.5896 29.142 5 12.3402 -3.52387
16364 1 44.5761 62.5896 26.8107 5 12.3402 -3.52387
16365 1 47.1477 62.5896 26.8107 5 12.3402 -3.52387
16366 1 46.2905 62.5896 24.4793 5 12.3402 -3.52387
16367 1 48.8622 62.5896 24.4793 5 12.3402 -3.52387
16368 1 48.005 62.5896 22.1479 5 12.3402 -3.52387
16369 1 50.5767 62.5896 22.1479 5 12.3402 -3.52387
16370 1 49.7194 62.5896 19.8166 5 12.3402 -3.52387
16371 1 52.2911 62.5896 19.8166 5 12.3402 -3.52387
16372 1 51.4339 62.5896 17.4852 5 12.3402 -3.52387
16373 1 54.0056 62.5896 17.4852 5 12.3402 -3.52387
16374 1 53.1484 62.5896 15.1539 5 12.3402 -3.52387
16375 1 55.7201 62.5896 15.1539 5 12.3402 -3.52387
16376 1 54.8628 62.5896 12.8225 5 12.3402 -3.52387
16377 1 57.4345 62.5896 12.8225 5 12.3402 -3.52387
16378 1 56.5773 62.5896 10.4911 5 12.3402 -3.52387
16379 1 59.149 62.5896 10.4911 5 12.3402 -3.52387
16380 1 58.2918 62.5896 8.15977 5 12.3402 -3.52387
16381 1 60.8635 62.5896 8.15977 5 12.3402 -3.52387
16382 1 60.0062 62.5896 5.82841 5 12.3402 -3.52387
16383 1 62.5779 62.5896 5.82841 5 12.3402 -3.52387
16384 1 61.7207 62.5896 3.49704 5 12.3402 -3.52387
16385 1 63.4352 62.5896 1.16568 5 12.3402 -3.52387
16386 1 32.5748 60.5706 46.6273 3 1.69002e-18 -4.08946
16387 1 35.1465 60.5706 46.6273 3 4.01691e-16 -4.0895
16388 1 34.2893 60.5706 44.2959 3 4e-16 -4.08948
16389 1 36.861 60.5706 44.2959 3 1e-16 -4.08956
16390 1 36.0037 60.5706 41.9645 3 9.99999e-17 -4.08953
16391 1 38.5754 60.5706 41.9645 3 1e-16 -4.08964
16392 1 37.7182 60.5706 39.6332 3 9.99999e-17 -4.08959
16393 1 40.2899 60.5706 39.6332 3 3.99999e-16 -4.08973
16394 1 39.4327 60.5706 37.3018 3 4e-16 -4.08968
16395 1 42.0044 60.5706 37.3018 3 4.03897e-28 -4.08984
16396 1 41.1471 60.5706 34.9704 3 9.99999e-17 -4.08978
16397 1 43.7188 60.5706 34.9704 3 4e-16 -4.08995
16398 1 42.8616 60.5706 32.6391 3 9.99999e-17 -4.08989
16399 1 45.4333 60.5706 32.6391 3 9.99999e-17 -4.09006
16400 1 44.5761 60.5706 30.3077 3 4.00001e-16 -4.09001
16401 1 47.1477 60.5706 30.3077 3 9.99999e-17 -4.09017
16402 1 46.2905 60.5706 27.9764 3 1e-16 -4.09012
16403 1 48.8622 60.5706 27.9764 3 3.99999e-16 -4.09027
16404 1 48.005 60.5706 25.645 3 1e-16 -4.09022
16405 1 50.5767 60.5706 25.645 3 9.99999e-17 -4.09036
16406 1 49.7194 60.5706 23.3136 3 3.99999e-16 -4.09032
16407 1 52.2911 60.5706 23.3136 3 1e-16 -4.09043
16408 1 51.4339 60.5706 20.9823 3 6.05845e-28 -4.0904
16409 1 54.0056 60.5706 20.9823 3 4.00001e-16 -4.09049
16410 1 53.1484 60.5706 18.6509 3 3.99999e-16 -4.09046
16411 1 55.7201 60.5706 18.6509 3 1e-16 -4.09054
16412 1 54.8628 60.5706 16.3195 3 1e-16 -4.09052
16413 1 57.4345 60.5706 16.3195 3 1e-16 -4.09058
16414 1 56.5773 60.5706 13.9882 3 9.99999e-17 -4.09056
16415 1 59.149 60.5706 13.9882 3 3.99999e-16 -4.09061
16416 1 58.2918 60.5706 11.6568 3 3.99999e-16 -4.09059
16417 1 60.8635 60.5706 11.6568 3 4.03897e-28 -4.09062
16418 1 60.0062 60.5706 9.32545 3 1e-16 -4.09062
16419 1 62.5779 60.5706 9.32545 3 3.5776e-16 -4.09064
16420 1 61.7207 60.5706 6.99409 3 5.77599e-17 -4.09063
16421 1 63.4352 60.5706 4.66273 3 6.15041e-16 -4.09064
16422 1 34.2893 58.5516 47.7929 3 3.29959e-05 -4.10574
16423 1 36.861 58.5516 47.7929 3 0.000119794 -4.10574
16424 1 36.0037 58.5516 45.4616 3 8.57031e-05 -4.10574
16425 1 38.5754 58.5516 45.4616 3 0.000196676 -4.10574
16426 1 37.7182 58.5516 43.1302 3 0.000157252 -4.10574
16427 1 40.2899 58.5516 43.1302 3 0.000276842 -4.10575
16428 1 39.4327 58.5516 40.7989 3 0.000236861 -4.10575
16429 1 42.0044 58.5516 40.7989 3 0.000353488 -4.10575
16430 1 41.1471 58.5516 38.4675 3 0.000315834 -4.10575
16431 1 43.7188 58.5516 38.4675 3 0.000424556 -4.10576
16432 1 42.8616 58.5516 36.1361 3 0.00038968 -4.10576
16433 1 45.4333 58.5516 36.1361 3 0.000491636 -4.10577
16434 1 44.5761 58.5516 33.8048 3 0.000458404 -4.10576
16435 1 47.1477 58.5516 33.8048 3 0.000557723 -4.10578
16436 1 46.2905 58.5516 31.4734 3 0.000524669 -4.10577
16437 1 48.8622 58.5516 31.4734 3 0.000624646 -4.10579
16438 1 48.005 58.5516 29.142 3 0.000591073 -4.10578
16439 1 50.5767 58.5516 29.142 3 0.000691861 -4.10581
16440 1 49.7194 58.5516 26.8107 3 0.000658332 -4.1058
16441 1 52.2911 58.5516 26.8107 3 0.000757017 -4.10584
16442 1 51.4339 58.5516 24.4793 3 0.000724881 -4.10583
16443 1 54.0056 58.5516 24.4793 3 0.000817217 -4.10587
16444 1 53.1484 58.5516 22.1479 3 0.000787922 -4.10586
16445 1 55.7201 58.5516 22.1479 3 0.000870029 -4.1059
16446 1 54.8628 58.5516 19.8166 3 0.000844684 -4.10589
16447 1 57.4345 58.5516 19.8166 3 0.00091382 -4.10593
16448 1 56.5773 58.5516 17.4852 3 0.000893121 -4.10592
16449 1 59.149 58.5516 17.4852 3 0.000947848 -4.10596
16450 1 58.2918 58.5516 15.1539 3 0.00093209 -4.10595
16451 1 60.8635 58.5516 15.1539 3 0.00097187 -4.10598
16452 1 60.0062 58.5516 12.8225 3 0.000961107 -4.10597
16453 1 62.5779 58.5516 12.8225 3 0.000986078 -4.10599
16454 1 61.7207 58.5516 10.4911 3 0.000980179 -4.10598
16455 1 63.4352 58.5516 8.15977 3 0.000989617 -4.10599
16456 1 37.7095 56.5341 46.6277 3 3.9008e-05 -4.10603
16457 1 40.2789 56.5369 46.6273 3 5.54688e-05 -4.10586
16458 1 39.4223 56.5359 44.2961 3 4.99747e-05 -4.10592
16459 1 41.9927 56.539 44.2954 3 6.53921e-05 -4.10574
16460 1 41.1358 56.5379 41.9643 3 6.0718e-05 -4.1058
16461 1 43.7072 56.5413 41.9635 3 7.18434e-05 -4.10563
16462 1 42.8499 56.5402 39.6324 3 6.91735e-05 -4.10569
16463 1 45.4223 56.5436 39.6316 3 7.31499e-05 -4.10554
16464 1 44.5647 56.5425 37.3005 3 7.32525e-05 -4.10558
16465 1 47.1378 56.5458 37.2997 3 6.85784e-05 -4.10548
16466 1 46.28 56.5447 34.9686 3 7.15176e-05 -4.10551
16467 1 48.8536 56.5478 34.9679 3 5.91397e-05 -4.10545
16468 1 47.9957 56.5468 32.6367 3 6.4315e-05 -4.10546
16469 1 50.5695 56.5495 32.6363 3 4.74132e-05 -4.10546
16470 1 49.7116 56.5487 30.305 3 5.34402e-05 -4.10545
16471 1 52.2854 56.5509 30.3049 3 3.5419e-05 -4.10549
16472 1 51.4275 56.5502 27.9735 3 4.12988e-05 -4.10547
16473 1 54.0011 56.5521 27.9736 3 2.48519e-05 -4.10554
16474 1 53.1433 56.5515 25.6422 3 2.99181e-05 -4.10552
16475 1 55.7167 56.553 25.6425 3 1.64285e-05 -4.10559
16476 1 54.8589 56.5526 23.311 3 2.03596e-05 -4.10557
16477 1 57.4321 56.5537 23.3115 3 1.01318e-05 -4.10564
16478 1 56.5744 56.5534 20.9799 3 1.30196e-05 -4.10562
16479 1 59.1473 56.5542 20.9806 3 5.77087e-06 -4.10568
16480 1 58.2897 56.554 18.649 3 7.72881e-06 -4.10566
16481 1 60.8624 56.5546 18.6498 3 2.97658e-06 -4.10572
16482 1 60.0049 56.5544 16.3181 3 4.2021e-06 -4.1057
16483 1 62.5774 56.5548 16.319 3 1.43672e-06 -4.10574
16484 1 61.7199 56.5547 13.9873 3 2.06605e-06 -4.10573
16485 1 63.4349 56.5548 11.6565 3 1.06806e-06 -4.10574
16486 1 39.4159 54.5194 47.7932 3 5.28765e-05 -4.10637
16487 1 41.986 54.5265 47.7919 3 6.85282e-05 -4.10606
16488 1 41.129 54.524 45.461 3 6.42053e-05 -4.10616
16489 1 43.7008 54.5315 45.4594 3 7.31397e-05 -4.10589
16490 1 42.8433 54.529 43.1286 3 7.15719e-05 -4.10597
16491 1 45.4166 54.5363 43.1269 3 7.17161e-05 -4.10579
16492 1 44.5586 54.5339 40.7961 3 7.3189e-05 -4.10583
16493 1 47.1331 54.5408 40.7945 3 6.48974e-05 -4.10576
16494 1 46.2748 54.5386 38.4636 3 6.89167e-05 -4.10576
16495 1 48.8499 54.5448 38.4624 3 5.47837e-05 -4.10582
16496 1 47.9915 54.5429 36.1314 3 6.00846e-05 -4.10578
16497 1 50.5668 54.5481 36.1306 3 4.33513e-05 -4.10594
16498 1 49.7084 54.5465 33.7994 3 4.91134e-05 -4.10588
16499 1 52.2835 54.5508 33.7992 3 3.2574e-05 -4.10611
16500 1 51.4252 54.5496 31.4678 3 3.78003e-05 -4.10602
16501 1 53.9999 54.553 31.4681 3 2.3151e-05 -4.10628
16502 1 53.1417 54.552 29.1366 3 2.76414e-05 -4.1062
16503 1 55.716 54.5547 29.1372 3 1.56108e-05 -4.10645
16504 1 54.858 54.5539 26.8056 3 1.91666e-05 -4.10637
16505 1 57.4317 54.5559 26.8066 3 9.89855e-06 -4.1066
16506 1 56.5739 54.5553 24.4748 3 1.25246e-05 -4.10653
16507 1 59.1472 54.5568 24.4761 3 5.79416e-06 -4.10673
16508 1 58.2895 54.5564 22.1443 3 7.66454e-06 -4.10667
16509 1 60.8624 54.5574 22.1457 3 3.08042e-06 -4.10682
16510 1 60.0048 54.5571 19.8139 3 4.27623e-06 -4.10678
16511 1 62.5774 54.5578 19.8155 3 1.54511e-06 -4.10688
16512 1 61.7199 54.5576 17.4836 3 2.17642e-06 -4.10685
16513 1 63.4349 54.5578 15.1533 3 1.17353e-06 -4.10689
16514 1 42.8413 52.5182 46.6243 3 8.37444e-05 -4.10571
16515 1 45.416 52.5298 46.6218 3 7.80759e-05 -4.10546
16516 1 44.5575 52.5261 44.2913 3 8.14801e-05 -4.10551
16517 1 47.1333 52.5367 44.2891 3 6.85232e-05 -4.10546
16518 1 46.2746 52.5334 41.9584 3 7.36589e-05 -4.10544
16519 1 48.8509 52.5426 41.9568 3 5.69808e-05 -4.10558
16520 1 47.9921 52.5398 39.6258 3 6.287e-05 -4.1055
16521 1 50.5683 52.5474 39.6249 3 4.51907e-05 -4.10578
16522 1 49.7097 52.5451 37.2937 3 5.10436e-05 -4.10567
16523 1 52.2853 52.5512 37.2936 3 3.4272e-05 -4.10602
16524 1 51.4269 52.5494 34.9622 3 3.9559e-05 -4.10589
16525 1 54.0019 52.5542 34.9627 3 2.49661e-05 -4.10626
16526 1 53.1437 52.5528 32.631 3 2.9395e-05 -4.10614
16527 1 55.7179 52.5565 32.6321 3 1.7502e-05 -4.10649
16528 1 54.86 52.5554 30.3003 3 2.10083e-05 -4.10638
16529 1 57.4334 52.5581 30.3018 3 1.17649e-05 -4.10669
16530 1 56.5757 52.5574 27.9699 3 1.44333e-05 -4.1066
16531 1 59.1486 52.5593 27.9717 3 7.59679e-06 -4.10686
16532 1 58.291 52.5588 25.6397 3 9.49839e-06 -4.10678
16533 1 60.8634 52.5601 25.6418 3 4.7783e-06 -4.10698
16534 1 60.006 52.5598 23.3097 3 6.02882e-06 -4.10692
16535 1 62.5779 52.5606 23.312 3 3.14933e-06 -4.10705
16536 1 61.7207 52.5604 20.9799 3 3.82552e-06 -4.10702
16537 1 63.4352 52.5607 18.6501 3 2.74717e-06 -4.10707
16538 1 44.5614 50.5193 47.7858 3 9.56053e-05 -4.10512
16539 1 47.1386 50.5335 47.7833 3 7.81961e-05 -4.10524
16540 1 46.2795 50.5291 45.4526 3 8.43955e-05 -4.10515
16541 1 48.8567 50.5411 45.4509 3 6.48546e-05 -4.10549
16542 1 47.9977 50.5375 43.12 3 7.16393e-05 -4.10535
16543 1 50.5742 50.5472 43.1192 3 5.15444e-05 -4.10581
16544 1 49.7155 50.5443 40.7879 3 5.80676e-05 -4.10565
16545 1 52.291 50.5519 40.7881 3 3.95353e-05 -4.10615
16546 1 51.4327 50.5497 38.4565 3 4.53321e-05 -4.10598
16547 1 54.0071 50.5555 38.4574 3 2.95545e-05 -4.10647
16548 1 53.1491 50.5538 36.1256 3 3.42973e-05 -4.10631
16549 1 55.7225 50.5581 36.1271 3 2.15863e-05 -4.10677
16550 1 54.8649 50.5569 33.7952 3 2.53059e-05 -4.10662
16551 1 57.4372 50.5601 33.7972 3 1.55084e-05 -4.10701
16552 1 56.5799 50.5592 31.4651 3 1.83377e-05 -4.1069
16553 1 59.1515 50.5615 31.4675 3 1.10349e-05 -4.10721
16554 1 58.2944 50.5609 29.1353 3 1.30822e-05 -4.10712
16555 1 60.8653 50.5624 29.138 3 8.00006e-06 -4.10736
16556 1 60.0085 50.562 26.8057 3 9.34805e-06 -4.10729
16557 1 62.5789 50.5629 26.8086 3 6.22142e-06 -4.10744
16558 1 61.7222 50.5627 24.4763 3 6.95854e-06 -4.10741
16559 1 63.4357 50.563 22.1469 3 5.78117e-06 -4.10746
16560 1 48.0085 48.5359 46.6139 3 8.8415e-05 -4.10536
16561 1 50.5845 48.5471 46.6135 3 6.28605e-05 -4.10606
16562 1 49.7261 48.5439 44.2821 3 7.1026e-05 -4.10583
16563 1 52.3005 48.5524 44.2827 3 4.84785e-05 -4.10651
16564 1 51.4426 48.55 41.951 3 5.5309e-05 -4.10629
16565 1 54.0156 48.5564 41.9524 3 3.69292e-05 -4.10691
16566 1 53.1581 48.5546 39.6204 3 4.23927e-05 -4.10672
16567 1 55.7297 48.5594 39.6224 3 2.79348e-05 -4.10726
16568 1 54.8728 48.558 37.2903 3 3.21178e-05 -4.10709
16569 1 57.4432 48.5615 37.2929 3 2.11128e-05 -4.10755
16570 1 56.5865 48.5605 34.9606 3 2.42822e-05 -4.10742
16571 1 59.156 48.563 34.9635 3 1.61641e-05 -4.10778
16572 1 58.2997 48.5623 32.6311 3 1.84348e-05 -4.10768
16573 1 60.8684 48.5639 32.6344 3 1.27857e-05 -4.10795
16574 1 60.0123 48.5635 30.3019 3 1.42836e-05 -4.10787
16575 1 62.5805 48.5645 30.3053 3 1.0833e-05 -4.10804
16576 1 61.7245 48.5642 27.9728 3 1.16332e-05 -4.108
16577 1 63.4364 48.5646 25.6438 3 1.03618e-05 -4.10807
16578 1 49.7416 46.5435 47.7766 3 8.98417e-05 -4.10624
16579 1 52.314 46.5526 47.7777 3 6.10093e-05 -4.1071
16580 1 51.4569 46.55 45.4458 3 6.94899e-05 -4.10683
16581 1 54.0274 46.5568 45.4477 3 4.71272e-05 -4.10758
16582 1 53.1709 46.5548 43.1156 3 5.35734e-05 -4.10735
16583 1 55.7398 46.5598 43.1181 3 3.66203e-05 -4.10798
16584 1 54.8837 46.5584 40.7858 3 4.14914e-05 -4.10779
16585 1 57.4513 46.5619 40.7888 3 2.8816e-05 -4.10831
16586 1 56.5957 46.561 38.4564 3 3.24265e-05 -4.10815
16587 1 59.1622 46.5634 38.4598 3 2.31807e-05 -4.10856
16588 1 58.3068 46.5628 36.1273 3 2.57534e-05 -4.10844
16589 1 60.8725 46.5644 36.1309 3 1.93806e-05 -4.10874
16590 1 60.0174 46.564 33.7983 3 2.10665e-05 -4.10866
16591 1 62.5825 46.5649 33.8021 3 1.71883e-05 -4.10885
16592 1 61.7276 46.5647 31.4695 3 1.809e-05 -4.1088
16593 1 63.4375 46.565 29.1407 3 1.66562e-05 -4.10888
16594 1 53.1874 44.5542 46.6114 3 6.82774e-05 -4.10821
16595 1 55.7527 44.5591 46.6143 3 4.81043e-05 -4.10891
16596 1 54.8979 44.5577 44.2819 3 5.38302e-05 -4.1087
16597 1 57.4618 44.5611 44.2853 3 3.89599e-05 -4.10927
16598 1 56.6074 44.5602 41.9527 3 4.31812e-05 -4.1091
16599 1 59.17 44.5625 41.9564 3 3.24567e-05 -4.10954
16600 1 58.316 44.5619 39.6238 3 3.54152e-05 -4.10942
16601 1 60.8778 44.5634 39.6277 3 2.80714e-05 -4.10974
16602 1 60.024 44.563 37.295 3 2.99929e-05 -4.10965
16603 1 62.5852 44.5639 37.2991 3 2.55411e-05 -4.10985
16604 1 61.7315 44.5637 34.9663 3 2.66081e-05 -4.1098
16605 1 63.4388 44.5641 32.6377 3 2.49202e-05 -4.10988
16606 1 54.9155 42.5556 47.7788 3 6.97246e-05 -4.10984
16607 1 57.4746 42.5587 47.7824 3 5.20948e-05 -4.11044
16608 1 56.6218 42.5579 45.4498 3 5.70569e-05 -4.11026
16609 1 59.1797 42.5599 45.4535 3 4.44245e-05 -4.11072
16610 1 58.3272 42.5594 43.1209 3 4.79016e-05 -4.11059
16611 1 60.8842 42.5607 43.1248 3 3.93075e-05 -4.11093
16612 1 60.032 42.5604 40.7921 3 4.15799e-05 -4.11084
16613 1 62.5884 42.5612 40.7961 3 3.63613e-05 -4.11105
16614 1 61.7363 42.561 38.4634 3 3.75856e-05 -4.111
16615 1 63.4404 42.5613 36.1348 3 3.56627e-05 -4.11108
16616 1 58.3407 40.5548 46.6187 3 6.36053e-05 -4.11195
16617 1 60.8919 40.5559 46.6223 3 5.34147e-05 -4.11229
16618 1 60.0416 40.5556 44.2897 3 5.61058e-05 -4.1122
16619 1 62.5922 40.5562 44.2934 3 4.9966e-05 -4.11241
16620 1 61.7421 40.5561 41.9608 3 5.13916e-05 -4.11236
16621 1 63.4423 40.5563 39.6319 3 4.91519e-05 -4.11244
16622 1 60.0529 38.5483 47.7879 3 7.3456e-05 -4.1137
16623 1 62.5967 38.5487 47.7909 3 6.63748e-05 -4.11391
16624 1 61.7488 38.5486 45.4586 3 6.80542e-05 -4.11386
16625 1 63.4446 38.5488 43.1292 3 6.54262e-05 -4.11394
16626 1 63.4471 36.5383 46.6266 3 8.34506e-05 -4.11551
16627 1 34.2893 62.5896 47.7929 5 12.3402 -3.52387
16628 1 36.861 62.5896 47.7929 5 12.3402 -3.52387
16629 1 36.0037 62.5896 45.4616 5 12.3402 -3.52387
16630 1 38.5754 62.5896 45.4616 5 12.3402 -3.52387
16631 1 37.7182 62.5896 43.1302 5 12.3402 -3.52387
16632 1 40.2899 62.5896 43.1302 5 12.3402 -3.52387
16633 1 39.4327 62.5896 40.7989 5 12.3402 -3.52387
16634 1 42.0044 62.5896 40.7989 5 12.3402 -3.52387
16635 1 41.1471 62.5896 38.4675 5 12.3402 -3.52387
16636 1 43.7188 62.5896 38.4675 5 12.3402 -3.52387
16637 1 42.8616 62.5896 36.1361 5 12.3402 -3.52387
16638 1 45.4333 62.5896 36.1361 5 12.3402 -3.52387
16639 1 44.5761 62.5896 33.8048 5 12.3402 -3.52387
16640 1 47.1477 62.5896 33.8048 5 12.3402 -3.52387
16641 1 46.2905 62.5896 31.4734 5 12.3402 -3.52387
16642 1 48.8622 62.5896 31.4734 5 12.3402 -3.52387
16643 1 48.005 62.5896 29.142 5 12.3402 -3.52387
16644 1 50.5767 62.5896 29.142 5 12.3402 -3.52387
16645 1 49.7194 62.5896 26.8107 5 12.3402 -3.52387
16646 1 52.2911 62.5896 26.8107 5 12.3402 -3.52387
16647 1 51.4339 62.5896 24.4793 5 12.3402 -3.52387
16648 1 54.0056 62.5896 24.4793 5 12.3402 -3.52387
16649 1 53.1484 62.5896 22.1479 5 12.3402 -3.52387
16650 1 55.7201 62.5896 22.1479 5 12.3402 -3.52387
16651 1 54.8628 62.5896 19.8166 5 12.3402 -3.52387
16652 1 57.4345 62.5896 19.8166 5 12.3402 -3.52387
16653 1 56.5773 62.5896 17.4852 5 12.3402 -3.52387
16654 1 59.149 62.5896 17.4852 5 12.3402 -3.52387
16655 1 58.2918 62.5896 15.1539 5 12.3402 -3.52387
16656 1 60.8635 62.5896 15.1539 5 12.3402 -3.52387
16657 1 60.0062 62.5896 12.8225 5 12.3402 -3.52387
16658 1 62.5779 62.5896 12.8225 5 12.3402 -3.52387
16659 1 61.7207 62.5896 10.4911 5 12.3402 -3.52387
16660 1 63.4352 62.5896 8.15977 5 12.3402 -3.52387
16661 1 37.7182 60.5706 46.6273 3 1.0169e-16 -4.08959
16662 1 40.2899 60.5706 46.6273 3 4.0169e-16 -4.08973
16663 1 39.4327 60.5706 44.2959 3 4e-16 -4.08968
16664 1 42.0044 60.5706 44.2959 3 4.03897e-28 -4.08984
16665 1 41.1471 60.5706 41.9645 3 9.99999e-17 -4.08978
16666 1 43.7188 60.5706 41.9645 3 4e-16 -4.08995
16667 1 42.8616 60.5706 39.6332 3 9.99999e-17 -4.08989
16668 1 45.4333 60.5706 39.6332 3 9.99999e-17 -4.09006
16669 1 44.5761 60.5706 37.3018 3 4.00001e-16 -4.09001
16670 1 47.1477 60.5706 37.3018 3 9.99999e-17 -4.09017
16671 1 46.2905 60.5706 34.9704 3 1e-16 -4.09012
16672 1 48.8622 60.5706 34.9704 3 3.99999e-16 -4.09027
16673 1 48.005 60.5706 32.6391 3 1e-16 -4.09022
16674 1 50.5767 60.5706 32.6391 3 9.99999e-17 -4.09036
16675 1 49.7194 60.5706 30.3077 3 3.99999e-16 -4.09032
16676 1 52.2911 60.5706 30.3077 3 1e-16 -4.09043
16677 1 51.4339 60.5706 27.9764 3 7.57306e-28 -4.0904
16678 1 54.0056 60.5706 27.9764 3 4.00001e-16 -4.09049
16679 1 53.1484 60.5706 25.645 3 3.99999e-16 -4.09046
16680 1 55.7201 60.5706 25.645 3 1e-16 -4.09054
16681 1 54.8628 60.5706 23.3136 3 1e-16 -4.09052
16682 1 57.4345 60.5706 23.3136 3 1e-16 -4.09058
16683 1 56.5773 60.5706 20.9823 3 9.99999e-17 -4.09056
16684 1 59.149 60.5706 20.9823 3 3.99999e-16 -4.09061
16685 1 58.2918 60.5706 18.6509 3 3.99999e-16 -4.09059
16686 1 60.8635 60.5706 18.6509 3 4.03897e-28 -4.09062
16687 1 60.0062 60.5706 16.3195 3 1e-16 -4.09062
16688 1 62.5779 60.5706 16.3195 3 3.5776e-16 -4.09064
16689 1 61.7207 60.5706 13.9882 3 5.77599e-17 -4.09063
16690 1 63.4352 60.5706 11.6568 3 6.15041e-16 -4.09064
16691 1 39.4327 58.5516 47.7929 3 0.000236861 -4.10575
16692 1 42.0044 58.5516 47.7929 3 0.000353488 -4.10575
16693 1 41.1471 58.5516 45.4616 3 0.000315834 -4.10575
16694 1 43.7188 58.5516 45.4616 3 0.000424556 -4.10576
16695 1 42.8616 58.5516 43.1302 3 0.00038968 -4.10576
16696 1 45.4333 58.5516 43.1302 3 0.000491636 -4.10577
16697 1 44.5761 58.5516 40.7989 3 0.000458404 -4.10576
16698 1 47.1477 58.5516 40.7989 3 0.000557723 -4.10578
16699 1 46.2905 58.5516 38.4675 3 0.000524669 -4.10577
16700 1 48.8622 58.5516 38.4675 3 0.000624646 -4.10579
16701 1 48.005 58.5516 36.1361 3 0.000591073 -4.10578
16702 1 50.5767 58.5516 36.1361 3 0.000691861 -4.10581
16703 1 49.7194 58.5516 33.8048 3 0.000658332 -4.1058
16704 1 52.2911 58.5516 33.8048 3 0.000757017 -4.10584
16705 1 51.4339 58.5516 31.4734 3 0.000724881 -4.10583
16706 1 54.0056 58.5516 31.4734 3 0.000817217 -4.10587
16707 1 53.1484 58.5516 29.142 3 0.000787922 -4.10586
16708 1 55.7201 58.5516 29.142 3 0.000870029 -4.1059
16709 1 54.8628 58.5516 26.8107 3 0.000844684 -4.10589
16710 1 57.4345 58.5516 26.8107 3 0.00091382 -4.10593
16711 1 56.5773 58.5516 24.4793 3 0.000893121 -4.10592
16712 1 59.149 58.5516 24.4793 3 0.000947848 -4.10596
16713 1 58.2918 58.5516 22.1479 3 0.00093209 -4.10595
16714 1 60.8635 58.5516 22.1479 3 0.00097187 -4.10598
16715 1 60.0062 58.5516 19.8166 3 0.000961107 -4.10597
16716 1 62.5779 58.5516 19.8166 3 0.000986078 -4.10599
16717 1 61.7207 58.5516 17.4852 3 0.000980179 -4.10598
16718 1 63.4352 58.5516 15.1539 3 0.000989617 -4.10599
16719 1 42.8499 56.5402 46.6265 3 6.91735e-05 -4.10569
16720 1 45.4223 56.5436 46.6257 3 7.31499e-05 -4.10554
16721 1 44.5647 56.5425 44.2946 3 7.32525e-05 -4.10558
16722 1 47.1378 56.5458 44.2938 3 6.85784e-05 -4.10548
16723 1 46.28 56.5447 41.9626 3 7.15176e-05 -4.10551
16724 1 48.8536 56.5478 41.962 3 5.91397e-05 -4.10545
16725 1 47.9957 56.5468 39.6308 3 6.4315e-05 -4.10546
16726 1 50.5695 56.5495 39.6304 3 4.74132e-05 -4.10546
16727 1 49.7116 56.5487 37.2991 3 5.34402e-05 -4.10545
16728 1 52.2854 56.5509 37.299 3 3.5419e-05 -4.10549
16729 1 51.4275 56.5502 34.9676 3 4.12988e-05 -4.10547
16730 1 54.0011 56.5521 34.9677 3 2.48519e-05 -4.10554
16731 1 53.1433 56.5515 32.6363 3 2.99181e-05 -4.10552
16732 1 55.7167 56.553 32.6366 3 1.64285e-05 -4.10559
16733 1 54.8589 56.5526 30.3051 3 2.03596e-05 -4.10557
16734 1 57.4321 56.5537 30.3056 3 1.01318e-05 -4.10564
16735 1 56.5744 56.5534 27.974 3 1.30196e-05 -4.10562
16736 1 59.1473 56.5542 27.9747 3 5.77087e-06 -4.10568
16737 1 58.2897 56.554 25.6431 3 7.72881e-06 -4.10566
16738 1 60.8624 56.5546 25.6438 3 2.97658e-06 -4.10572
16739 1 60.0049 56.5544 23.3122 3 4.2021e-06 -4.1057
16740 1 62.5774 56.5548 23.313 3 1.43672e-06 -4.10574
16741 1 61.7199 56.5547 20.9814 3 2.06605e-06 -4.10573
16742 1 63.4349 56.5548 18.6506 3 1.06806e-06 -4.10574
16743 1 44.5586 54.5339 47.7902 3 7.3189e-05 -4.10583
16744 1 47.1331 54.5408 47.7886 3 6.48974e-05 -4.10576
16745 1 46.2748 54.5386 45.4577 3 6.89167e-05 -4.10576
16746 1 48.8499 54.5448 45.4565 3 5.47837e-05 -4.10582
16747 1 47.9915 54.5429 43.1255 3 6.00846e-05 -4.10578
16748 1 50.5668 54.5481 43.1247 3 4.33513e-05 -4.10594
16749 1 49.7084 54.5465 40.7935 3 4.91134e-05 -4.10588
16750 1 52.2835 54.5508 40.7933 3 3.2574e-05 -4.10611
16751 1 51.4252 54.5496 38.4619 3 3.78003e-05 -4.10602
16752 1 53.9999 54.553 38.4622 3 2.3151e-05 -4.10628
16753 1 53.1417 54.552 36.1306 3 2.76414e-05 -4.1062
16754 1 55.716 54.5547 36.1313 3 1.56108e-05 -4.10645
16755 1 54.858 54.5539 33.7997 3 1.91666e-05 -4.10637
16756 1 57.4317 54.5559 33.8007 3 9.89855e-06 -4.1066
16757 1 56.5739 54.5553 31.4689 3 1.25246e-05 -4.10653
16758 1 59.1472 54.5568 31.4702 3 5.79416e-06 -4.10673
16759 1 58.2895 54.5564 29.1384 3 7.66454e-06 -4.10667
16760 1 60.8624 54.5574 29.1398 3 3.08042e-06 -4.10682
16761 1 60.0048 54.5571 26.808 3 4.27623e-06 -4.10678
16762 1 62.5774 54.5578 26.8096 3 1.54511e-06 -4.10688
16763 1 61.7199 54.5576 24.4776 3 2.17642e-06 -4.10685
16764 1 63.4349 54.5578 22.1474 3 1.17353e-06 -4.10689
16765 1 47.9921 52.5398 46.6199 3 6.287e-05 -4.1055
16766 1 50.5683 52.5474 46.619 3 4.51907e-05 -4.10578
16767 1 49.7097 52.5451 44.2878 3 5.10436e-05 -4.10567
16768 1 52.2853 52.5512 44.2877 3 3.4272e-05 -4.10602
16769 1 51.4269 52.5494 41.9563 3 3.9559e-05 -4.10589
16770 1 54.0019 52.5542 41.9567 3 2.49661e-05 -4.10626
16771 1 53.1437 52.5528 39.6251 3 2.9395e-05 -4.10614
16772 1 55.7179 52.5565 39.6262 3 1.7502e-05 -4.10649
16773 1 54.86 52.5554 37.2944 3 2.10083e-05 -4.10638
16774 1 57.4334 52.5581 37.2959 3 1.17649e-05 -4.10669
16775 1 56.5757 52.5574 34.964 3 1.44333e-05 -4.1066
16776 1 59.1486 52.5593 34.9658 3 7.59679e-06 -4.10686
16777 1 58.291 52.5588 32.6338 3 9.49839e-06 -4.10678
16778 1 60.8634 52.5601 32.6359 3 4.7783e-06 -4.10698
16779 1 60.006 52.5598 30.3038 3 6.02882e-06 -4.10692
16780 1 62.5779 52.5606 30.3061 3 3.14933e-06 -4.10705
16781 1 61.7207 52.5604 27.974 3 3.82552e-06 -4.10702
16782 1 63.4352 52.5607 25.6442 3 2.74717e-06 -4.10707
16783 1 49.7155 50.5443 47.782 3 5.80676e-05 -4.10565
16784 1 52.291 50.5519 47.7821 3 3.95353e-05 -4.10615
16785 1 51.4327 50.5497 45.4506 3 4.53321e-05 -4.10598
16786 1 54.0071 50.5555 45.4515 3 2.95545e-05 -4.10647
16787 1 53.1491 50.5538 43.1197 3 3.42973e-05 -4.10631
16788 1 55.7225 50.5581 43.1212 3 2.15863e-05 -4.10677
16789 1 54.8649 50.5569 40.7893 3 2.53059e-05 -4.10662
16790 1 57.4372 50.5601 40.7913 3 1.55084e-05 -4.10701
16791 1 56.5799 50.5592 38.4592 3 1.83377e-05 -4.1069
16792 1 59.1515 50.5615 38.4616 3 1.10349e-05 -4.10721
16793 1 58.2944 50.5609 36.1294 3 1.30822e-05 -4.10712
16794 1 60.8653 50.5624 36.1321 3 8.00006e-06 -4.10736
16795 1 60.0085 50.562 33.7998 3 9.34805e-06 -4.10729
16796 1 62.5789 50.5629 33.8027 3 6.22142e-06 -4.10744
16797 1 61.7222 50.5627 31.4704 3 6.95854e-06 -4.10741
16798 1 63.4357 50.563 29.141 3 5.78117e-06 -4.10746
16799 1 53.1581 48.5546 46.6145 3 4.23927e-05 -4.10672
16800 1 55.7297 48.5594 46.6165 3 2.79348e-05 -4.10726
16801 1 54.8728 48.558 44.2844 3 3.21178e-05 -4.10709
16802 1 57.4432 48.5615 44.287 3 2.11128e-05 -4.10755
16803 1 56.5865 48.5605 41.9547 3 2.42822e-05 -4.10742
16804 1 59.156 48.563 41.9576 3 1.61641e-05 -4.10778
16805 1 58.2997 48.5623 39.6252 3 1.84348e-05 -4.10768
16806 1 60.8684 48.5639 39.6285 3 1.27857e-05 -4.10795
16807 1 60.0123 48.5635 37.296 3 1.42836e-05 -4.10787
16808 1 62.5805 48.5645 37.2994 3 1.0833e-05 -4.10804
16809 1 61.7245 48.5642 34.9669 3 1.16332e-05 -4.108
16810 1 63.4364 48.5646 32.6379 3 1.03618e-05 -4.10807
16811 1 54.8837 46.5584 47.7799 3 4.14914e-05 -4.10779
16812 1 57.4513 46.5619 47.7829 3 2.8816e-05 -4.10831
16813 1 56.5957 46.561 45.4505 3 3.24265e-05 -4.10815
16814 1 59.1622 46.5634 45.4539 3 2.31807e-05 -4.10856
16815 1 58.3068 46.5628 43.1213 3 2.57534e-05 -4.10844
16816 1 60.8725 46.5644 43.125 3 1.93806e-05 -4.10874
16817 1 60.0174 46.564 40.7924 3 2.10665e-05 -4.10866
16818 1 62.5825 46.5649 40.7962 3 1.71883e-05 -4.10885
16819 1 61.7276 46.5647 38.4636 3 1.809e-05 -4.1088
16820 1 63.4375 46.565 36.1348 3 1.66562e-05 -4.10888
16821 1 58.316 44.5619 46.6179 3 3.54152e-05 -4.10942
16822 1 60.8778 44.5634 46.6218 3 2.80714e-05 -4.10974
16823 1 60.024 44.563 44.2891 3 2.99929e-05 -4.10965
16824 1 62.5852 44.5639 44.2931 3 2.55411e-05 -4.10985
16825 1 61.7315 44.5637 41.9604 3 2.66081e-05 -4.1098
16826 1 63.4388 44.5641 39.6318 3 2.49202e-05 -4.10988
16827 1 60.032 42.5604 47.7862 3 4.15799e-05 -4.11084
16828 1 62.5884 42.5612 47.7902 3 3.63613e-05 -4.11105
16829 1 61.7363 42.561 45.4575 3 3.75856e-05 -4.111
16830 1 63.4404 42.5613 43.1289 3 3.56627e-05 -4.11108
16831 1 63.4423 40.5563 46.626 3 4.91519e-05 -4.11244
16832 1 39.4327 62.5896 47.7929 5 12.3402 -3.52387
16833 1 42.0044 62.5896 47.7929 5 12.3402 -3.52387
16834 1 41.1471 62.5896 45.4616 5 12.3402 -3.52387
16835 1 43.7188 62.5896 45.4616 5 12.3402 -3.52387
16836 1 42.8616 62.5896 43.1302 5 12.3402 -3.52387
16837 1 45.4333 62.5896 43.1302 5 12.3402 -3.52387
16838 1 44.5761 62.5896 40.7989 5 12.3402 -3.52387
16839 1 47.1477 62.5896 40.7989 5 12.3402 -3.52387
16840 1 46.2905 62.5896 38.4675 5 12.3402 -3.52387
16841 1 48.8622 62.5896 38.4675 5 12.3402 -3.52387
16842 1 48.005 62.5896 36.1361 5 12.3402 -3.52387
16843 1 50.5767 62.5896 36.1361 5 12.3402 -3.52387
16844 1 49.7194 62.5896 33.8048 5 12.3402 -3.52387
16845 1 52.2911 62.5896 33.8048 5 12.3402 -3.52387
16846 1 51.4339 62.5896 31.4734 5 12.3402 -3.52387
16847 1 54.0056 62.5896 31.4734 5 12.3402 -3.52387
16848 1 53.1484 62.5896 29.142 5 12.3402 -3.52387
16849 1 55.7201 62.5896 29.142 5 12.3402 -3.52387
16850 1 54.8628 62.5896 26.8107 5 12.3402 -3.52387
16851 1 57.4345 62.5896 26.8107 5 12.3402 -3.52387
16852 1 56.5773 62.5896 24.4793 5 12.3402 -3.52387
16853 1 59.149 62.5896 24.4793 5 12.3402 -3.52387
16854 1 58.2918 62.5896 22.1479 5 12.3402 -3.52387
16855 1 60.8635 62.5896 22.1479 5 12.3402 -3.52387
16856 1 60.0062 62.5896 19.8166 5 12.3402 -3.52387
16857 1 62.5779 62.5896 19.8166 5 12.3402 -3.52387
16858 1 61.7207 62.5896 17.4852 5 12.3402 -3.52387
16859 1 63.4352 62.5896 15.1539 5 12.3402 -3.52387
16860 1 42.8616 60.5706 46.6273 3 1.0169e-16 -4.08989
16861 1 45.4333 60.5706 46.6273 3 1.0169e-16 -4.09006
16862 1 44.5761 60.5706 44.2959 3 4.00001e-16 -4.09001
16863 1 47.1477 60.5706 44.2959 3 9.99999e-17 -4.09017
16864 1 46.2905 60.5706 41.9645 3 1e-16 -4.09012
16865 1 48.8622 60.5706 41.9645 3 3.99999e-16 -4.09027
16866 1 48.005 60.5706 39.6332 3 1e-16 -4.09022
16867 1 50.5767 60.5706 39.6332 3 9.99999e-17 -4.09036
16868 1 49.7194 60.5706 37.3018 3 3.99999e-16 -4.09032
16869 1 52.2911 60.5706 37.3018 3 1e-16 -4.09043
16870 1 51.4339 60.5706 34.9704 3 8.07794e-28 -4.0904
16871 1 54.0056 60.5706 34.9704 3 4.00001e-16 -4.09049
16872 1 53.1484 60.5706 32.6391 3 3.99999e-16 -4.09046
16873 1 55.7201 60.5706 32.6391 3 1e-16 -4.09054
16874 1 54.8628 60.5706 30.3077 3 1e-16 -4.09052
16875 1 57.4345 60.5706 30.3077 3 1e-16 -4.09058
16876 1 56.5773 60.5706 27.9764 3 9.99999e-17 -4.09056
16877 1 59.149 60.5706 27.9764 3 3.99999e-16 -4.09061
16878 1 58.2918 60.5706 25.645 3 3.99999e-16 -4.09059
16879 1 60.8635 60.5706 25.645 3 5.55358e-28 -4.09062
16880 1 60.0062 60.5706 23.3136 3 1e-16 -4.09062
16881 1 62.5779 60.5706 23.3136 3 3.5776e-16 -4.09064
16882 1 61.7207 60.5706 20.9823 3 5.77599e-17 -4.09063
16883 1 63.4352 60.5706 18.6509 3 6.15041e-16 -4.09064
16884 1 44.5761 58.5516 47.7929 3 0.000458404 -4.10576
16885 1 47.1477 58.5516 47.7929 3 0.000557723 -4.10578
16886 1 46.2905 58.5516 45.4616 3 0.000524669 -4.10577
16887 1 48.8622 58.5516 45.4616 3 0.000624646 -4.10579
16888 1 48.005 58.5516 43.1302 3 0.000591073 -4.10578
16889 1 50.5767 58.5516 43.1302 3 0.000691861 -4.10581
16890 1 49.7194 58.5516 40.7989 3 0.000658332 -4.1058
16891 1 52.2911 58.5516 40.7989 3 0.000757017 -4.10584
16892 1 51.4339 58.5516 38.4675 3 0.000724881 -4.10583
16893 1 54.0056 58.5516 38.4675 3 0.000817217 -4.10587
16894 1 53.1484 58.5516 36.1361 3 0.000787922 -4.10586
16895 1 55.7201 58.5516 36.1361 3 0.000870029 -4.1059
16896 1 54.8628 58.5516 33.8048 3 0.000844684 -4.10589
16897 1 57.4345 58.5516 33.8048 3 0.00091382 -4.10593
16898 1 56.5773 58.5516 31.4734 3 0.000893121 -4.10592
16899 1 59.149 58.5516 31.4734 3 0.000947848 -4.10596
16900 1 58.2918 58.5516 29.142 3 0.00093209 -4.10595
16901 1 60.8635 58.5516 29.142 3 0.00097187 -4.10598
16902 1 60.0062 58.5516 26.8107 3 0.000961107 -4.10597
16903 1 62.5779 58.5516 26.8107 3 0.000986078 -4.10599
16904 1 61.7207 58.5516 24.4793 3 0.000980179 -4.10598
16905 1 63.4352 58.5516 22.1479 3 0.000989617 -4.10599
16906 1 47.9957 56.5468 46.6249 3 6.4315e-05 -4.10546
16907 1 50.5695 56.5495 46.6245 3 4.74132e-05 -4.10546
16908 1 49.7116 56.5487 44.2932 3 5.34402e-05 -4.10545
16909 1 52.2854 56.5509 44.293 3 3.5419e-05 -4.10549
16910 1 51.4275 56.5502 41.9617 3 4.12988e-05 -4.10547
16911 1 54.0011 56.5521 41.9618 3 2.48519e-05 -4.10554
16912 1 53.1433 56.5515 39.6303 3 2.99181e-05 -4.10552
16913 1 55.7167 56.553 39.6307 3 1.64285e-05 -4.10559
16914 1 54.8589 56.5526 37.2992 3 2.03596e-05 -4.10557
16915 1 57.4321 56.5537 37.2997 3 1.01318e-05 -4.10564
16916 1 56.5744 56.5534 34.9681 3 1.30196e-05 -4.10562
16917 1 59.1473 56.5542 34.9688 3 5.77087e-06 -4.10568
16918 1 58.2897 56.554 32.6372 3 7.72881e-06 -4.10566
16919 1 60.8624 56.5546 32.6379 3 2.97658e-06 -4.10572
16920 1 60.0049 56.5544 30.3063 3 4.2021e-06 -4.1057
16921 1 62.5774 56.5548 30.3071 3 1.43672e-06 -4.10574
16922 1 61.7199 56.5547 27.9755 3 2.06605e-06 -4.10573
16923 1 63.4349 56.5548 25.6447 3 1.06806e-06 -4.10574
16924 1 49.7084 54.5465 47.7876 3 4.91134e-05 -4.10588
16925 1 52.2835 54.5508 47.7874 3 3.2574e-05 -4.10611
16926 1 51.4252 54.5496 45.456 3 3.78003e-05 -4.10602
16927 1 53.9999 54.553 45.4562 3 2.3151e-05 -4.10628
16928 1 53.1417 54.552 43.1247 3 2.76414e-05 -4.1062
16929 1 55.716 54.5547 43.1254 3 1.56108e-05 -4.10645
16930 1 54.858 54.5539 40.7937 3 1.91666e-05 -4.10637
16931 1 57.4317 54.5559 40.7948 3 9.89855e-06 -4.1066
16932 1 56.5739 54.5553 38.463 3 1.25246e-05 -4.10653
16933 1 59.1472 54.5568 38.4643 3 5.79416e-06 -4.10673
16934 1 58.2895 54.5564 36.1325 3 7.66454e-06 -4.10667
16935 1 60.8624 54.5574 36.1339 3 3.08042e-06 -4.10682
16936 1 60.0048 54.5571 33.802 3 4.27623e-06 -4.10678
16937 1 62.5774 54.5578 33.8036 3 1.54511e-06 -4.10688
16938 1 61.7199 54.5576 31.4717 3 2.17642e-06 -4.10685
16939 1 63.4349 54.5578 29.1415 3 1.17353e-06 -4.10689
16940 1 53.1437 52.5528 46.6192 3 2.9395e-05 -4.10614
16941 1 55.7179 52.5565 46.6203 3 1.7502e-05 -4.10649
16942 1 54.86 52.5554 44.2885 3 2.10083e-05 -4.10638
16943 1 57.4334 52.5581 44.29 3 1.17649e-05 -4.10669
16944 1 56.5757 52.5574 41.958 3 1.44333e-05 -4.1066
16945 1 59.1486 52.5593 41.9599 3 7.59679e-06 -4.10686
16946 1 58.291 52.5588 39.6279 3 9.49839e-06 -4.10678
16947 1 60.8634 52.5601 39.63 3 4.7783e-06 -4.10698
16948 1 60.006 52.5598 37.2979 3 6.02882e-06 -4.10692
16949 1 62.5779 52.5606 37.3002 3 3.14933e-06 -4.10705
16950 1 61.7207 52.5604 34.9681 3 3.82552e-06 -4.10702
16951 1 63.4352 52.5607 32.6383 3 2.74717e-06 -4.10707
16952 1 54.8649 50.5569 47.7834 3 2.53059e-05 -4.10662
16953 1 57.4372 50.5601 47.7854 3 1.55084e-05 -4.10701
16954 1 56.5799 50.5592 45.4533 3 1.83377e-05 -4.1069
16955 1 59.1515 50.5615 45.4557 3 1.10349e-05 -4.10721
16956 1 58.2944 50.5609 43.1235 3 1.30822e-05 -4.10712
16957 1 60.8653 50.5624 43.1262 3 8.00006e-06 -4.10736
16958 1 60.0085 50.562 40.7939 3 9.34805e-06 -4.10729
16959 1 62.5789 50.5629 40.7968 3 6.22142e-06 -4.10744
16960 1 61.7222 50.5627 38.4645 3 6.95854e-06 -4.10741
16961 1 63.4357 50.563 36.1351 3 5.78117e-06 -4.10746
16962 1 58.2997 48.5623 46.6193 3 1.84348e-05 -4.10768
16963 1 60.8684 48.5639 46.6226 3 1.27857e-05 -4.10795
16964 1 60.0123 48.5635 44.2901 3 1.42836e-05 -4.10787
16965 1 62.5805 48.5645 44.2935 3 1.0833e-05 -4.10804
16966 1 61.7245 48.5642 41.961 3 1.16332e-05 -4.108
16967 1 63.4364 48.5646 39.632 3 1.03618e-05 -4.10807
16968 1 60.0174 46.564 47.7865 3 2.10665e-05 -4.10866
16969 1 62.5825 46.5649 47.7903 3 1.71883e-05 -4.10885
16970 1 61.7276 46.5647 45.4576 3 1.809e-05 -4.1088
16971 1 63.4375 46.565 43.1289 3 1.66562e-05 -4.10888
16972 1 63.4388 44.5641 46.6259 3 2.49202e-05 -4.10988
16973 1 44.5761 62.5896 47.7929 5 12.3402 -3.52387
16974 1 47.1477 62.5896 47.7929 5 12.3402 -3.52387
16975 1 46.2905 62.5896 45.4616 5 12.3402 -3.52387
16976 1 48.8622 62.5896 45.4616 5 12.3402 -3.52387
16977 1 48.005 62.5896 43.1302 5 12.3402 -3.52387
16978 1 50.5767 62.5896 43.1302 5 12.3402 -3.52387
16979 1 49.7194 62.5896 40.7989 5 12.3402 -3.52387
16980 1 52.2911 62.5896 40.7989 5 12.3402 -3.52387
16981 1 51.4339 62.5896 38.4675 5 12.3402 -3.52387
16982 1 54.0056 62.5896 38.4675 5 12.3402 -3.52387
16983 1 53.1484 62.5896 36.1361 5 12.3402 -3.52387
16984 1 55.7201 62.5896 36.1361 5 12.3402 -3.52387
16985 1 54.8628 62.5896 33.8048 5 12.3402 -3.52387
16986 1 57.4345 62.5896 33.8048 5 12.3402 -3.52387
16987 1 56.5773 62.5896 31.4734 5 12.3402 -3.52387
16988 1 59.149 62.5896 31.4734 5 12.3402 -3.52387
16989 1 58.2918 62.5896 29.142 5 12.3402 -3.52387
16990 1 60.8635 62.5896 29.142 5 12.3402 -3.52387
16991 1 60.0062 62.5896 26.8107 5 12.3402 -3.52387
16992 1 62.5779 62.5896 26.8107 5 12.3402 -3.52387
16993 1 61.7207 62.5896 24.4793 5 12.3402 -3.52387
16994 1 63.4352 62.5896 22.1479 5 12.3402 -3.52387
16995 1 48.005 60.5706 46.6273 3 1.0169e-16 -4.09022
16996 1 50.5767 60.5706 46.6273 3 1.0169e-16 -4.09036
16997 1 49.7194 60.5706 44.2959 3 3.99999e-16 -4.09032
16998 1 52.2911 60.5706 44.2959 3 1e-16 -4.09043
16999 1 51.4339 60.5706 41.9645 3 6.05845e-28 -4.0904
17000 1 54.0056 60.5706 41.9645 3 4.00001e-16 -4.09049
17001 1 53.1484 60.5706 39.6332 3 3.99999e-16 -4.09046
17002 1 55.7201 60.5706 39.6332 3 1e-16 -4.09054
17003 1 54.8628 60.5706 37.3018 3 1e-16 -4.09052
17004 1 57.4345 60.5706 37.3018 3 1e-16 -4.09058
17005 1 56.5773 60.5706 34.9704 3 9.99999e-17 -4.09056
17006 1 59.149 60.5706 34.9704 3 3.99999e-16 -4.09061
17007 1 58.2918 60.5706 32.6391 3 3.99999e-16 -4.09059
17008 1 60.8635 60.5706 32.6391 3 6.05845e-28 -4.09062
17009 1 60.0062 60.5706 30.3077 3 1e-16 -4.09062
17010 1 62.5779 60.5706 30.3077 3 3.5776e-16 -4.09064
17011 1 61.7207 60.5706 27.9764 3 5.77599e-17 -4.09063
17012 1 63.4352 60.5706 25.645 3 6.15041e-16 -4.09064
17013 1 49.7194 58.5516 47.7929 3 0.000658332 -4.1058
17014 1 52.2911 58.5516 47.7929 3 0.000757017 -4.10584
17015 1 51.4339 58.5516 45.4616 3 0.000724881 -4.10583
17016 1 54.0056 58.5516 45.4616 3 0.000817217 -4.10587
17017 1 53.1484 58.5516 43.1302 3 0.000787922 -4.10586
17018 1 55.7201 58.5516 43.1302 3 0.000870029 -4.1059
17019 1 54.8628 58.5516 40.7989 3 0.000844684 -4.10589
17020 1 57.4345 58.5516 40.7989 3 0.00091382 -4.10593
17021 1 56.5773 58.5516 38.4675 3 0.000893121 -4.10592
17022 1 59.149 58.5516 38.4675 3 0.000947848 -4.10596
17023 1 58.2918 58.5516 36.1361 3 0.00093209 -4.10595
17024 1 60.8635 58.5516 36.1361 3 0.00097187 -4.10598
17025 1 60.0062 58.5516 33.8048 3 0.000961107 -4.10597
17026 1 62.5779 58.5516 33.8048 3 0.000986078 -4.10599
17027 1 61.7207 58.5516 31.4734 3 0.000980179 -4.10598
17028 1 63.4352 58.5516 29.142 3 0.000989617 -4.10599
17029 1 53.1433 56.5515 46.6244 3 2.99181e-05 -4.10552
17030 1 55.7167 56.553 46.6248 3 1.64285e-05 -4.10559
17031 1 54.8589 56.5526 44.2933 3 2.03596e-05 -4.10557
17032 1 57.4321 56.5537 44.2938 3 1.01318e-05 -4.10564
17033 1 56.5744 56.5534 41.9622 3 1.30196e-05 -4.10562
17034 1 59.1473 56.5542 41.9629 3 5.77087e-06 -4.10568
17035 1 58.2897 56.554 39.6313 3 7.72881e-06 -4.10566
17036 1 60.8624 56.5546 39.632 3 2.97658e-06 -4.10572
17037 1 60.0049 56.5544 37.3004 3 4.2021e-06 -4.1057
17038 1 62.5774 56.5548 37.3012 3 1.43672e-06 -4.10574
17039 1 61.7199 56.5547 34.9696 3 2.06605e-06 -4.10573
17040 1 63.4349 56.5548 32.6388 3 1.06806e-06 -4.10574
17041 1 54.858 54.5539 47.7878 3 1.91666e-05 -4.10637
17042 1 57.4317 54.5559 47.7888 3 9.89855e-06 -4.1066
17043 1 56.5739 54.5553 45.4571 3 1.25246e-05 -4.10653
17044 1 59.1472 54.5568 45.4584 3 5.79416e-06 -4.10673
17045 1 58.2895 54.5564 43.1265 3 7.66454e-06 -4.10667
17046 1 60.8624 54.5574 43.128 3 3.08042e-06 -4.10682
17047 1 60.0048 54.5571 40.7961 3 4.27623e-06 -4.10678
17048 1 62.5774 54.5578 40.7977 3 1.54511e-06 -4.10688
17049 1 61.7199 54.5576 38.4658 3 2.17642e-06 -4.10685
17050 1 63.4349 54.5578 36.1356 3 1.17353e-06 -4.10689
17051 1 58.291 52.5588 46.622 3 9.49839e-06 -4.10678
17052 1 60.8634 52.5601 46.6241 3 4.7783e-06 -4.10698
17053 1 60.006 52.5598 44.292 3 6.02882e-06 -4.10692
17054 1 62.5779 52.5606 44.2943 3 3.14933e-06 -4.10705
17055 1 61.7207 52.5604 41.9621 3 3.82552e-06 -4.10702
17056 1 63.4352 52.5607 39.6324 3 2.74717e-06 -4.10707
17057 1 60.0085 50.562 47.788 3 9.34805e-06 -4.10729
17058 1 62.5789 50.5629 47.7909 3 6.22142e-06 -4.10744
17059 1 61.7222 50.5627 45.4585 3 6.95854e-06 -4.10741
17060 1 63.4357 50.563 43.1292 3 5.78117e-06 -4.10746
17061 1 63.4364 48.5646 46.6261 3 1.03618e-05 -4.10807
17062 1 49.7194 62.5896 47.7929 5 12.3402 -3.52387
17063 1 52.2911 62.5896 47.7929 5 12.3402 -3.52387
17064 1 51.4339 62.5896 45.4616 5 12.3402 -3.52387
17065 1 54.0056 62.5896 45.4616 5 12.3402 -3.52387
17066 1 53.1484 62.5896 43.1302 5 12.3402 -3.52387
17067 1 55.7201 62.5896 43.1302 5 12.3402 -3.52387
17068 1 54.8628 62.5896 40.7989 5 12.3402 -3.52387
17069 1 57.4345 62.5896 40.7989 5 12.3402 -3.52387
17070 1 56.5773 62.5896 38.4675 5 12.3402 -3.52387
17071 1 59.149 62.5896 38.4675 5 12.3402 -3.52387
17072 1 58.2918 62.5896 36.1361 5 12.3402 -3.52387
17073 1 60.8635 62.5896 36.1361 5 12.3402 -3.52387
17074 1 60.0062 62.5896 33.8048 5 12.3402 -3.52387
17075 1 62.5779 62.5896 33.8048 5 12.3402 -3.52387
17076 1 61.7207 62.5896 31.4734 5 12.3402 -3.52387
17077 1 63.4352 62.5896 29.142 5 12.3402 -3.52387
17078 1 53.1484 60.5706 46.6273 3 4.0169e-16 -4.09046
17079 1 55.7201 60.5706 46.6273 3 1.0169e-16 -4.09054
17080 1 54.8628 60.5706 44.2959 3 1e-16 -4.09052
17081 1 57.4345 60.5706 44.2959 3 1e-16 -4.09058
17082 1 56.5773 60.5706 41.9645 3 9.99999e-17 -4.09056
17083 1 59.149 60.5706 41.9645 3 3.99999e-16 -4.09061
17084 1 58.2918 60.5706 39.6332 3 3.99999e-16 -4.09059
17085 1 60.8635 60.5706 39.6332 3 4.03897e-28 -4.09062
17086 1 60.0062 60.5706 37.3018 3 1e-16 -4.09062
17087 1 62.5779 60.5706 37.3018 3 3.5776e-16 -4.09064
17088 1 61.7207 60.5706 34.9704 3 5.77599e-17 -4.09063
17089 1 63.4352 60.5706 32.6391 3 6.15041e-16 -4.09064
17090 1 54.8628 58.5516 47.7929 3 0.000844684 -4.10589
17091 1 57.4345 58.5516 47.7929 3 0.00091382 -4.10593
17092 1 56.5773 58.5516 45.4616 3 0.000893121 -4.10592
17093 1 59.149 58.5516 45.4616 3 0.000947848 -4.10596
17094 1 58.2918 58.5516 43.1302 3 0.00093209 -4.10595
17095 1 60.8635 58.5516 43.1302 3 0.00097187 -4.10598
17096 1 60.0062 58.5516 40.7989 3 0.000961107 -4.10597
17097 1 62.5779 58.5516 40.7989 3 0.000986078 -4.10599
17098 1 61.7207 58.5516 38.4675 3 0.000980179 -4.10598
17099 1 63.4352 58.5516 36.1361 3 0.000989617 -4.10599
17100 1 58.2897 56.554 46.6253 3 7.72881e-06 -4.10566
17101 1 60.8624 56.5546 46.6261 3 2.97658e-06 -4.10572
17102 1 60.0049 56.5544 44.2945 3 4.2021e-06 -4.1057
17103 1 62.5774 56.5548 44.2953 3 1.43673e-06 -4.10574
17104 1 61.7199 56.5547 41.9637 3 2.06605e-06 -4.10573
17105 1 63.4349 56.5548 39.6329 3 1.06806e-06 -4.10574
17106 1 60.0048 54.5571 47.7902 3 4.27623e-06 -4.10678
17107 1 62.5774 54.5578 47.7918 3 1.54511e-06 -4.10688
17108 1 61.7199 54.5576 45.4599 3 2.17642e-06 -4.10685
17109 1 63.4349 54.5578 43.1297 3 1.17353e-06 -4.10689
17110 1 63.4352 52.5607 46.6265 3 2.74717e-06 -4.10707
17111 1 54.8628 62.5896 47.7929 5 12.3402 -3.52387
17112 1 57.4345 62.5896 47.7929 5 12.3402 -3.52387
17113 1 56.5773 62.5896 45.4616 5 12.3402 -3.52387
17114 1 59.149 62.5896 45.4616 5 12.3402 -3.52387
17115 1 58.2918 62.5896 43.1302 5 12.3402 -3.52387
17116 1 60.8635 62.5896 43.1302 5 12.3402 -3.52387
17117 1 60.0062 62.5896 40.7989 5 12.3402 -3.52387
17118 1 62.5779 62.5896 40.7989 5 12.3402 -3.52387
17119 1 61.7207 62.5896 38.4675 5 12.3402 -3.52387
17120 1 63.4352 62.5896 36.1361 5 12.3402 -3.52387
17121 1 58.2918 60.5706 46.6273 3 4.0169e-16 -4.09059
17122 1 60.8635 60.5706 46.6273 3 1.69002e-18 -4.09062
17123 1 60.0062 60.5706 44.2959 3 1e-16 -4.09062
17124 1 62.5779 60.5706 44.2959 3 3.5776e-16 -4.09064
17125 1 61.7207 60.5706 41.9645 3 5.77599e-17 -4.09063
17126 1 63.4352 60.5706 39.6332 3 6.15041e-16 -4.09064
17127 1 60.0062 58.5516 47.7929 3 0.000961107 -4.10597
17128 1 62.5779 58.5516 47.7929 3 0.000986078 -4.10599
17129 1 61.7207 58.5516 45.4616 3 0.000980179 -4.10598
17130 1 63.4352 58.5516 43.1302 3 0.000989617 -4.10599
17131 1 63.4349 56.5548 46.627 3 1.06806e-06 -4.10574
17132 1 60.0062 62.5896 47.7929 5 12.3402 -3.52387
17133 1 62.5779 62.5896 47.7929 5 12.3402 -3.52387
17134 1 61.7207 62.5896 45.4616 5 12.3402 -3.52387
17135 1 63.4352 62.5896 43.1302 5 12.3402 -3.52387
17136 1 63.4352 60.5706 46.6273 3 6.16731e-16 -4.09064
