ITEM: TIMESTEP
1
ITEM: NUMBER OF ATOMS
17472
ITEM: BOX BOUNDS pp ss pp
0.0000000000000000e+00 6.4292383637599997e+01
-6.4608629439699998e-03 6.2596070632943970e+01
0.0000000000000000e+00 4.8958625098699997e+01
ITEM: ATOMS id type x y z c_cna c_cs c_peat
1 1 0.824261 0 2.33136 5 12.2293 -3.54465
2 1 0 0 0 5 12.2293 -3.54465
3 1 2.47278 0 0 5 12.2293 -3.54465
4 1 0.824261 4.03804 2.33136 3 5.776e-17 -4.12244
5 1 0 4.03804 0 3 2.811e-17 -4.12244
6 1 2.47278 4.03804 0 3 4.0507e-16 -4.12244
7 1 0.824261 2.01902 5.82841 3 5.776e-17 -4.10627
8 1 0 2.01902 3.49704 3 2.304e-17 -4.10627
9 1 2.47278 2.01902 3.49704 3 4e-16 -4.10627
10 1 1.64852 2.01902 1.16568 3 5.945e-17 -4.10627
11 1 4.12131 2.01902 1.16568 3 1.0169e-16 -4.10627
12 1 0.824261 0 9.32545 5 12.2293 -3.54465
13 1 0 0 6.99409 5 12.2293 -3.54465
14 1 2.47278 0 6.99409 5 12.2293 -3.54465
15 1 1.64852 0 4.66273 5 12.2293 -3.54465
16 1 4.12131 0 4.66273 5 12.2293 -3.54465
17 1 3.29705 0 2.33136 5 12.2293 -3.54465
18 1 5.76983 0 2.33136 5 12.2293 -3.54465
19 1 4.94557 0 0 5 12.2293 -3.54465
20 1 7.41835 0 0 5 12.2293 -3.54465
21 1 0.824261 8.07608 2.33136 3 5.776e-17 -4.12244
22 1 0 8.07608 0 3 2.811e-17 -4.12244
23 1 2.47278 8.07608 0 3 4.0507e-16 -4.12244
24 1 0.824261 6.05706 5.82841 3 5.776e-17 -4.12244
25 1 0 6.05706 3.49704 3 2.304e-17 -4.12244
26 1 2.47278 6.05706 3.49704 3 4e-16 -4.12244
27 1 1.64852 6.05706 1.16568 3 5.945e-17 -4.12244
28 1 4.12131 6.05706 1.16568 3 1.0169e-16 -4.12244
29 1 0.824261 4.03804 9.32545 3 5.776e-17 -4.12244
30 1 0 4.03804 6.99409 3 2.304e-17 -4.12244
31 1 2.47278 4.03804 6.99409 3 4e-16 -4.12244
32 1 1.64852 4.03804 4.66273 3 5.776e-17 -4.12244
33 1 4.12131 4.03804 4.66273 3 1e-16 -4.12244
34 1 3.29705 4.03804 2.33136 3 4e-16 -4.12244
35 1 5.76983 4.03804 2.33136 3 0 -4.12244
36 1 4.94557 4.03804 0 3 1.0507e-16 -4.12244
37 1 7.41835 4.03804 0 3 1.0507e-16 -4.12244
38 1 0.824261 2.01902 12.8225 3 5.776e-17 -4.10627
39 1 0 2.01902 10.4911 3 2.304e-17 -4.10627
40 1 2.47278 2.01902 10.4911 3 4e-16 -4.10627
41 1 1.64852 2.01902 8.15977 3 5.776e-17 -4.10627
42 1 4.12131 2.01902 8.15977 3 1e-16 -4.10627
43 1 3.29705 2.01902 5.82841 3 4e-16 -4.10627
44 1 5.76983 2.01902 5.82841 3 3.15544e-30 -4.10627
45 1 4.94557 2.01902 3.49704 3 1e-16 -4.10627
46 1 7.41835 2.01902 3.49704 3 1e-16 -4.10627
47 1 6.59409 2.01902 1.16568 3 1.69e-18 -4.10627
48 1 9.06687 2.01902 1.16568 3 4.0169e-16 -4.10627
49 1 0.824261 0 16.3195 5 12.2293 -3.54465
50 1 0 0 13.9882 5 12.2293 -3.54465
51 1 2.47278 0 13.9882 5 12.2293 -3.54465
52 1 1.64852 0 11.6568 5 12.2293 -3.54465
53 1 4.12131 0 11.6568 5 12.2293 -3.54465
54 1 3.29705 0 9.32545 5 12.2293 -3.54465
55 1 5.76983 0 9.32545 5 12.2293 -3.54465
56 1 4.94557 0 6.99409 5 12.2293 -3.54465
57 1 7.41835 0 6.99409 5 12.2293 -3.54465
58 1 6.59409 0 4.66273 5 12.2293 -3.54465
59 1 9.06687 0 4.66273 5 12.2293 -3.54465
60 1 8.24261 0 2.33136 5 12.2293 -3.54465
61 1 10.7154 0 2.33136 5 12.2293 -3.54465
62 1 9.89114 0 0 5 12.2293 -3.54465
63 1 12.3639 0 0 5 12.2293 -3.54465
64 1 0.824261 12.1141 2.33136 3 5.776e-17 -4.12244
65 1 0 12.1141 0 3 2.811e-17 -4.12244
66 1 2.47278 12.1141 0 3 4.0507e-16 -4.12244
67 1 0.824261 10.0951 5.82841 3 5.776e-17 -4.12244
68 1 0 10.0951 3.49704 3 2.304e-17 -4.12244
69 1 2.47278 10.0951 3.49704 3 4e-16 -4.12244
70 1 1.64852 10.0951 1.16568 3 5.945e-17 -4.12244
71 1 4.12131 10.0951 1.16568 3 1.0169e-16 -4.12244
72 1 0.824261 8.07608 9.32545 3 5.776e-17 -4.12244
73 1 0 8.07608 6.99409 3 2.304e-17 -4.12244
74 1 2.47278 8.07608 6.99409 3 4e-16 -4.12244
75 1 1.64852 8.07608 4.66273 3 5.776e-17 -4.12244
76 1 4.12131 8.07608 4.66273 3 1e-16 -4.12244
77 1 3.29705 8.07608 2.33136 3 4e-16 -4.12244
78 1 5.76983 8.07608 2.33136 3 0 -4.12244
79 1 4.94557 8.07608 0 3 1.0507e-16 -4.12244
80 1 7.41835 8.07608 0 3 1.0507e-16 -4.12244
81 1 0.824261 6.05706 12.8225 3 5.776e-17 -4.12244
82 1 0 6.05706 10.4911 3 2.304e-17 -4.12244
83 1 2.47278 6.05706 10.4911 3 4e-16 -4.12244
84 1 1.64852 6.05706 8.15977 3 5.776e-17 -4.12244
85 1 4.12131 6.05706 8.15977 3 1e-16 -4.12244
86 1 3.29705 6.05706 5.82841 3 4e-16 -4.12244
87 1 5.76983 6.05706 5.82841 3 3.15544e-30 -4.12244
88 1 4.94557 6.05706 3.49704 3 1e-16 -4.12244
89 1 7.41835 6.05706 3.49704 3 1e-16 -4.12244
90 1 6.59409 6.05706 1.16568 3 1.69e-18 -4.12244
91 1 9.06687 6.05706 1.16568 3 4.0169e-16 -4.12244
92 1 0.824261 4.03804 16.3195 3 5.776e-17 -4.12244
93 1 0 4.03804 13.9882 3 2.304e-17 -4.12244
94 1 2.47278 4.03804 13.9882 3 4e-16 -4.12244
95 1 1.64852 4.03804 11.6568 3 5.776e-17 -4.12244
96 1 4.12131 4.03804 11.6568 3 1e-16 -4.12244
97 1 3.29705 4.03804 9.32545 3 4e-16 -4.12244
98 1 5.76983 4.03804 9.32545 3 0 -4.12244
99 1 4.94557 4.03804 6.99409 3 1e-16 -4.12244
100 1 7.41835 4.03804 6.99409 3 1e-16 -4.12244
101 1 6.59409 4.03804 4.66273 3 0 -4.12244
102 1 9.06687 4.03804 4.66273 3 4e-16 -4.12244
103 1 8.24261 4.03804 2.33136 3 9.99999e-17 -4.12244
104 1 10.7154 4.03804 2.33136 3 1e-16 -4.12244
105 1 9.89114 4.03804 0 3 4.0507e-16 -4.12244
106 1 12.3639 4.03804 0 3 5.07001e-18 -4.12244
107 1 0.824261 2.01902 19.8166 3 5.776e-17 -4.10627
108 1 0 2.01902 17.4852 3 2.304e-17 -4.10627
109 1 2.47278 2.01902 17.4852 3 4e-16 -4.10627
110 1 1.64852 2.01902 15.1539 3 5.776e-17 -4.10627
111 1 4.12131 2.01902 15.1539 3 1e-16 -4.10627
112 1 3.29705 2.01902 12.8225 3 4e-16 -4.10627
113 1 5.76983 2.01902 12.8225 3 3.78653e-29 -4.10627
114 1 4.94557 2.01902 10.4911 3 1e-16 -4.10627
115 1 7.41835 2.01902 10.4911 3 1e-16 -4.10627
116 1 6.59409 2.01902 8.15977 3 1.26218e-29 -4.10627
117 1 9.06687 2.01902 8.15977 3 4e-16 -4.10627
118 1 8.24261 2.01902 5.82841 3 9.99999e-17 -4.10627
119 1 10.7154 2.01902 5.82841 3 1e-16 -4.10627
120 1 9.89114 2.01902 3.49704 3 4e-16 -4.10627
121 1 12.3639 2.01902 3.49704 3 7.88861e-31 -4.10627
122 1 11.5397 2.01902 1.16568 3 1.0169e-16 -4.10627
123 1 14.0124 2.01902 1.16568 3 1.0169e-16 -4.10627
124 1 0.824261 -0 23.3136 5 12.2293 -3.54465
125 1 0 0 20.9823 5 12.2293 -3.54465
126 1 2.47278 -0 20.9823 5 12.2293 -3.54465
127 1 1.64852 0 18.6509 5 12.2293 -3.54465
128 1 4.12131 -0 18.6509 5 12.2293 -3.54465
129 1 3.29705 0 16.3195 5 12.2293 -3.54465
130 1 5.76983 -0 16.3195 5 12.2293 -3.54465
131 1 4.94557 0 13.9882 5 12.2293 -3.54465
132 1 7.41835 -0 13.9882 5 12.2293 -3.54465
133 1 6.59409 0 11.6568 5 12.2293 -3.54465
134 1 9.06687 -0 11.6568 5 12.2293 -3.54465
135 1 8.24261 0 9.32545 5 12.2293 -3.54465
136 1 10.7154 -0 9.32545 5 12.2293 -3.54465
137 1 9.89114 0 6.99409 5 12.2293 -3.54465
138 1 12.3639 -0 6.99409 5 12.2293 -3.54465
139 1 11.5397 0 4.66273 5 12.2293 -3.54465
140 1 14.0124 -0 4.66273 5 12.2293 -3.54465
141 1 13.1882 0 2.33136 5 12.2293 -3.54465
142 1 15.661 -0 2.33136 5 12.2293 -3.54465
143 1 14.8367 0 0 5 12.2293 -3.54465
144 1 17.3095 -0 0 5 12.2293 -3.54465
145 1 0.824261 16.1522 2.33136 3 5.776e-17 -4.12244
146 1 0 16.1522 0 3 2.811e-17 -4.12244
147 1 2.47278 16.1522 0 3 4.0507e-16 -4.12244
148 1 0.824261 14.1331 5.82841 3 5.776e-17 -4.12244
149 1 0 14.1331 3.49704 3 2.304e-17 -4.12244
150 1 2.47278 14.1331 3.49704 3 4e-16 -4.12244
151 1 1.64852 14.1331 1.16568 3 5.945e-17 -4.12244
152 1 4.12131 14.1331 1.16568 3 1.0169e-16 -4.12244
153 1 0.824261 12.1141 9.32545 3 5.776e-17 -4.12244
154 1 0 12.1141 6.99409 3 2.304e-17 -4.12244
155 1 2.47278 12.1141 6.99409 3 4e-16 -4.12244
156 1 1.64852 12.1141 4.66273 3 5.776e-17 -4.12244
157 1 4.12131 12.1141 4.66273 3 1e-16 -4.12244
158 1 3.29705 12.1141 2.33136 3 4e-16 -4.12244
159 1 5.76983 12.1141 2.33136 3 0 -4.12244
160 1 4.94557 12.1141 0 3 1.0507e-16 -4.12244
161 1 7.41835 12.1141 0 3 1.0507e-16 -4.12244
162 1 0.824261 10.0951 12.8225 3 5.776e-17 -4.12244
163 1 0 10.0951 10.4911 3 2.304e-17 -4.12244
164 1 2.47278 10.0951 10.4911 3 4e-16 -4.12244
165 1 1.64852 10.0951 8.15977 3 5.776e-17 -4.12244
166 1 4.12131 10.0951 8.15977 3 1e-16 -4.12244
167 1 3.29705 10.0951 5.82841 3 4e-16 -4.12244
168 1 5.76983 10.0951 5.82841 3 3.15544e-30 -4.12244
169 1 4.94557 10.0951 3.49704 3 1e-16 -4.12244
170 1 7.41835 10.0951 3.49704 3 1e-16 -4.12244
171 1 6.59409 10.0951 1.16568 3 1.69e-18 -4.12244
172 1 9.06687 10.0951 1.16568 3 4.0169e-16 -4.12244
173 1 0.824261 8.07608 16.3195 3 5.776e-17 -4.12244
174 1 0 8.07608 13.9882 3 2.304e-17 -4.12244
175 1 2.47278 8.07608 13.9882 3 4e-16 -4.12244
176 1 1.64852 8.07608 11.6568 3 5.776e-17 -4.12244
177 1 4.12131 8.07608 11.6568 3 1e-16 -4.12244
178 1 3.29705 8.07608 9.32545 3 4e-16 -4.12244
179 1 5.76983 8.07608 9.32545 3 0 -4.12244
180 1 4.94557 8.07608 6.99409 3 1e-16 -4.12244
181 1 7.41835 8.07608 6.99409 3 1e-16 -4.12244
182 1 6.59409 8.07608 4.66273 3 0 -4.12244
183 1 9.06687 8.07608 4.66273 3 4e-16 -4.12244
184 1 8.24261 8.07608 2.33136 3 9.99999e-17 -4.12244
185 1 10.7154 8.07608 2.33136 3 1e-16 -4.12244
186 1 9.89114 8.07608 0 3 4.0507e-16 -4.12244
187 1 12.3639 8.07608 0 3 5.07001e-18 -4.12244
188 1 0.824261 6.05706 19.8166 3 5.776e-17 -4.12244
189 1 0 6.05706 17.4852 3 2.304e-17 -4.12244
190 1 2.47278 6.05706 17.4852 3 4e-16 -4.12244
191 1 1.64852 6.05706 15.1539 3 5.776e-17 -4.12244
192 1 4.12131 6.05706 15.1539 3 1e-16 -4.12244
193 1 3.29705 6.05706 12.8225 3 4e-16 -4.12244
194 1 5.76983 6.05706 12.8225 3 3.78653e-29 -4.12244
195 1 4.94557 6.05706 10.4911 3 1e-16 -4.12244
196 1 7.41835 6.05706 10.4911 3 1e-16 -4.12244
197 1 6.59409 6.05706 8.15977 3 1.26218e-29 -4.12244
198 1 9.06687 6.05706 8.15977 3 4e-16 -4.12244
199 1 8.24261 6.05706 5.82841 3 9.99999e-17 -4.12244
200 1 10.7154 6.05706 5.82841 3 1e-16 -4.12244
201 1 9.89114 6.05706 3.49704 3 4e-16 -4.12244
202 1 12.3639 6.05706 3.49704 3 7.88861e-31 -4.12244
203 1 11.5397 6.05706 1.16568 3 1.0169e-16 -4.12244
204 1 14.0124 6.05706 1.16568 3 1.0169e-16 -4.12244
205 1 0.824261 4.03804 23.3136 3 5.776e-17 -4.12244
206 1 0 4.03804 20.9823 3 2.304e-17 -4.12244
207 1 2.47278 4.03804 20.9823 3 4e-16 -4.12244
208 1 1.64852 4.03804 18.6509 3 5.776e-17 -4.12244
209 1 4.12131 4.03804 18.6509 3 1e-16 -4.12244
210 1 3.29705 4.03804 16.3195 3 4e-16 -4.12244
211 1 5.76983 4.03804 16.3195 3 1.00974e-28 -4.12244
212 1 4.94557 4.03804 13.9882 3 1e-16 -4.12244
213 1 7.41835 4.03804 13.9882 3 1e-16 -4.12244
214 1 6.59409 4.03804 11.6568 3 0 -4.12244
215 1 9.06687 4.03804 11.6568 3 4e-16 -4.12244
216 1 8.24261 4.03804 9.32545 3 9.99999e-17 -4.12244
217 1 10.7154 4.03804 9.32545 3 1e-16 -4.12244
218 1 9.89114 4.03804 6.99409 3 4e-16 -4.12244
219 1 12.3639 4.03804 6.99409 3 0 -4.12244
220 1 11.5397 4.03804 4.66273 3 1e-16 -4.12244
221 1 14.0124 4.03804 4.66273 3 1e-16 -4.12244
222 1 13.1882 4.03804 2.33136 3 0 -4.12244
223 1 15.661 4.03804 2.33136 3 4e-16 -4.12244
224 1 14.8367 4.03804 0 3 1.0507e-16 -4.12244
225 1 17.3095 4.03804 0 3 1.0507e-16 -4.12244
226 1 0.824261 2.01902 26.8107 3 5.776e-17 -4.10627
227 1 0 2.01902 24.4793 3 2.304e-17 -4.10627
228 1 2.47278 2.01902 24.4793 3 4e-16 -4.10627
229 1 1.64852 2.01902 22.1479 3 5.776e-17 -4.10627
230 1 4.12131 2.01902 22.1479 3 1e-16 -4.10627
231 1 3.29705 2.01902 19.8166 3 4e-16 -4.10627
232 1 5.76983 2.01902 19.8166 3 0 -4.10627
233 1 4.94557 2.01902 17.4852 3 1e-16 -4.10627
234 1 7.41835 2.01902 17.4852 3 1e-16 -4.10627
235 1 6.59409 2.01902 15.1539 3 0 -4.10627
236 1 9.06687 2.01902 15.1539 3 4e-16 -4.10627
237 1 8.24261 2.01902 12.8225 3 9.99999e-17 -4.10627
238 1 10.7154 2.01902 12.8225 3 1e-16 -4.10627
239 1 9.89114 2.01902 10.4911 3 4e-16 -4.10627
240 1 12.3639 2.01902 10.4911 3 0 -4.10627
241 1 11.5397 2.01902 8.15977 3 1e-16 -4.10627
242 1 14.0124 2.01902 8.15977 3 1e-16 -4.10627
243 1 13.1882 2.01902 5.82841 3 3.15544e-30 -4.10627
244 1 15.661 2.01902 5.82841 3 4e-16 -4.10627
245 1 14.8367 2.01902 3.49704 3 9.99999e-17 -4.10627
246 1 17.3095 2.01902 3.49704 3 1e-16 -4.10627
247 1 16.4852 2.01902 1.16568 3 4.0169e-16 -4.10627
248 1 18.958 2.01902 1.16568 3 1.69e-18 -4.10627
249 1 0.824261 0 30.3077 5 12.2293 -3.54465
250 1 0 0 27.9764 5 12.2293 -3.54465
251 1 2.47278 0 27.9764 5 12.2293 -3.54465
252 1 1.64852 0 25.645 5 12.2293 -3.54465
253 1 4.12131 0 25.645 5 12.2293 -3.54465
254 1 3.29705 0 23.3136 5 12.2293 -3.54465
255 1 5.76983 0 23.3136 5 12.2293 -3.54465
256 1 4.94557 0 20.9823 5 12.2293 -3.54465
257 1 7.41835 0 20.9823 5 12.2293 -3.54465
258 1 6.59409 0 18.6509 5 12.2293 -3.54465
259 1 9.06687 0 18.6509 5 12.2293 -3.54465
260 1 8.24261 0 16.3195 5 12.2293 -3.54465
261 1 10.7154 0 16.3195 5 12.2293 -3.54465
262 1 9.89114 0 13.9882 5 12.2293 -3.54465
263 1 12.3639 0 13.9882 5 12.2293 -3.54465
264 1 11.5397 0 11.6568 5 12.2293 -3.54465
265 1 14.0124 0 11.6568 5 12.2293 -3.54465
266 1 13.1882 0 9.32545 5 12.2293 -3.54465
267 1 15.661 0 9.32545 5 12.2293 -3.54465
268 1 14.8367 0 6.99409 5 12.2293 -3.54465
269 1 17.3095 0 6.99409 5 12.2293 -3.54465
270 1 16.4852 0 4.66273 5 12.2293 -3.54465
271 1 18.958 0 4.66273 5 12.2293 -3.54465
272 1 18.1337 0 2.33136 5 12.2293 -3.54465
273 1 20.6065 0 2.33136 5 12.2293 -3.54465
274 1 19.7823 0 0 5 12.2293 -3.54465
275 1 22.2551 0 0 5 12.2293 -3.54465
276 1 0.824261 20.1902 2.33136 3 5.776e-17 -4.12244
277 1 0 20.1902 0 3 2.811e-17 -4.12244
278 1 2.47278 20.1902 0 3 4.0507e-16 -4.12244
279 1 0.824261 18.1712 5.82841 3 5.776e-17 -4.12244
280 1 0 18.1712 3.49704 3 2.304e-17 -4.12244
281 1 2.47278 18.1712 3.49704 3 4e-16 -4.12244
282 1 1.64852 18.1712 1.16568 3 5.945e-17 -4.12244
283 1 4.12131 18.1712 1.16568 3 1.0169e-16 -4.12244
284 1 0.824261 16.1522 9.32545 3 5.776e-17 -4.12244
285 1 0 16.1522 6.99409 3 2.304e-17 -4.12244
286 1 2.47278 16.1522 6.99409 3 4e-16 -4.12244
287 1 1.64852 16.1522 4.66273 3 5.776e-17 -4.12244
288 1 4.12131 16.1522 4.66273 3 1e-16 -4.12244
289 1 3.29705 16.1522 2.33136 3 4e-16 -4.12244
290 1 5.76983 16.1522 2.33136 3 0 -4.12244
291 1 4.94557 16.1522 0 3 1.0507e-16 -4.12244
292 1 7.41835 16.1522 0 3 1.0507e-16 -4.12244
293 1 0.824261 14.1331 12.8225 3 5.776e-17 -4.12244
294 1 0 14.1331 10.4911 3 2.304e-17 -4.12244
295 1 2.47278 14.1331 10.4911 3 4e-16 -4.12244
296 1 1.64852 14.1331 8.15977 3 5.776e-17 -4.12244
297 1 4.12131 14.1331 8.15977 3 1e-16 -4.12244
298 1 3.29705 14.1331 5.82841 3 4e-16 -4.12244
299 1 5.76983 14.1331 5.82841 3 3.15544e-30 -4.12244
300 1 4.94557 14.1331 3.49704 3 1e-16 -4.12244
301 1 7.41835 14.1331 3.49704 3 1e-16 -4.12244
302 1 6.59409 14.1331 1.16568 3 1.69e-18 -4.12244
303 1 9.06687 14.1331 1.16568 3 4.0169e-16 -4.12244
304 1 0.824261 12.1141 16.3195 3 5.776e-17 -4.12244
305 1 0 12.1141 13.9882 3 2.304e-17 -4.12244
306 1 2.47278 12.1141 13.9882 3 4e-16 -4.12244
307 1 1.64852 12.1141 11.6568 3 5.776e-17 -4.12244
308 1 4.12131 12.1141 11.6568 3 1e-16 -4.12244
309 1 3.29705 12.1141 9.32545 3 4e-16 -4.12244
310 1 5.76983 12.1141 9.32545 3 0 -4.12244
311 1 4.94557 12.1141 6.99409 3 1e-16 -4.12244
312 1 7.41835 12.1141 6.99409 3 1e-16 -4.12244
313 1 6.59409 12.1141 4.66273 3 0 -4.12244
314 1 9.06687 12.1141 4.66273 3 4e-16 -4.12244
315 1 8.24261 12.1141 2.33136 3 9.99999e-17 -4.12244
316 1 10.7154 12.1141 2.33136 3 1e-16 -4.12244
317 1 9.89114 12.1141 0 3 4.0507e-16 -4.12244
318 1 12.3639 12.1141 0 3 5.07001e-18 -4.12244
319 1 0.824261 10.0951 19.8166 3 5.776e-17 -4.12244
320 1 0 10.0951 17.4852 3 2.304e-17 -4.12244
321 1 2.47278 10.0951 17.4852 3 4e-16 -4.12244
322 1 1.64852 10.0951 15.1539 3 5.776e-17 -4.12244
323 1 4.12131 10.0951 15.1539 3 1e-16 -4.12244
324 1 3.29705 10.0951 12.8225 3 4e-16 -4.12244
325 1 5.76983 10.0951 12.8225 3 3.78653e-29 -4.12244
326 1 4.94557 10.0951 10.4911 3 1e-16 -4.12244
327 1 7.41835 10.0951 10.4911 3 1e-16 -4.12244
328 1 6.59409 10.0951 8.15977 3 1.26218e-29 -4.12244
329 1 9.06687 10.0951 8.15977 3 4e-16 -4.12244
330 1 8.24261 10.0951 5.82841 3 9.99999e-17 -4.12244
331 1 10.7154 10.0951 5.82841 3 1e-16 -4.12244
332 1 9.89114 10.0951 3.49704 3 4e-16 -4.12244
333 1 12.3639 10.0951 3.49704 3 7.88861e-31 -4.12244
334 1 11.5397 10.0951 1.16568 3 1.0169e-16 -4.12244
335 1 14.0124 10.0951 1.16568 3 1.0169e-16 -4.12244
336 1 0.824261 8.07608 23.3136 3 5.776e-17 -4.12244
337 1 0 8.07608 20.9823 3 2.304e-17 -4.12244
338 1 2.47278 8.07608 20.9823 3 4e-16 -4.12244
339 1 1.64852 8.07608 18.6509 3 5.776e-17 -4.12244
340 1 4.12131 8.07608 18.6509 3 1e-16 -4.12244
341 1 3.29705 8.07608 16.3195 3 4e-16 -4.12244
342 1 5.76983 8.07608 16.3195 3 1.00974e-28 -4.12244
343 1 4.94557 8.07608 13.9882 3 1e-16 -4.12244
344 1 7.41835 8.07608 13.9882 3 1e-16 -4.12244
345 1 6.59409 8.07608 11.6568 3 0 -4.12244
346 1 9.06687 8.07608 11.6568 3 4e-16 -4.12244
347 1 8.24261 8.07608 9.32545 3 9.99999e-17 -4.12244
348 1 10.7154 8.07608 9.32545 3 1e-16 -4.12244
349 1 9.89114 8.07608 6.99409 3 4e-16 -4.12244
350 1 12.3639 8.07608 6.99409 3 0 -4.12244
351 1 11.5397 8.07608 4.66273 3 1e-16 -4.12244
352 1 14.0124 8.07608 4.66273 3 1e-16 -4.12244
353 1 13.1882 8.07608 2.33136 3 0 -4.12244
354 1 15.661 8.07608 2.33136 3 4e-16 -4.12244
355 1 14.8367 8.07608 0 3 1.0507e-16 -4.12244
356 1 17.3095 8.07608 0 3 1.0507e-16 -4.12244
357 1 0.824261 6.05706 26.8107 3 5.776e-17 -4.12244
358 1 0 6.05706 24.4793 3 2.304e-17 -4.12244
359 1 2.47278 6.05706 24.4793 3 4e-16 -4.12244
360 1 1.64852 6.05706 22.1479 3 5.776e-17 -4.12244
361 1 4.12131 6.05706 22.1479 3 1e-16 -4.12244
362 1 3.29705 6.05706 19.8166 3 4e-16 -4.12244
363 1 5.76983 6.05706 19.8166 3 0 -4.12244
364 1 4.94557 6.05706 17.4852 3 1e-16 -4.12244
365 1 7.41835 6.05706 17.4852 3 1e-16 -4.12244
366 1 6.59409 6.05706 15.1539 3 0 -4.12244
367 1 9.06687 6.05706 15.1539 3 4e-16 -4.12244
368 1 8.24261 6.05706 12.8225 3 9.99999e-17 -4.12244
369 1 10.7154 6.05706 12.8225 3 1e-16 -4.12244
370 1 9.89114 6.05706 10.4911 3 4e-16 -4.12244
371 1 12.3639 6.05706 10.4911 3 0 -4.12244
372 1 11.5397 6.05706 8.15977 3 1e-16 -4.12244
373 1 14.0124 6.05706 8.15977 3 1e-16 -4.12244
374 1 13.1882 6.05706 5.82841 3 3.15544e-30 -4.12244
375 1 15.661 6.05706 5.82841 3 4e-16 -4.12244
376 1 14.8367 6.05706 3.49704 3 9.99999e-17 -4.12244
377 1 17.3095 6.05706 3.49704 3 1e-16 -4.12244
378 1 16.4852 6.05706 1.16568 3 4.0169e-16 -4.12244
379 1 18.958 6.05706 1.16568 3 1.69e-18 -4.12244
380 1 0.824261 4.03804 30.3077 3 5.776e-17 -4.12244
381 1 0 4.03804 27.9764 3 2.304e-17 -4.12244
382 1 2.47278 4.03804 27.9764 3 4e-16 -4.12244
383 1 1.64852 4.03804 25.645 3 5.776e-17 -4.12244
384 1 4.12131 4.03804 25.645 3 1e-16 -4.12244
385 1 3.29705 4.03804 23.3136 3 4e-16 -4.12244
386 1 5.76983 4.03804 23.3136 3 0 -4.12244
387 1 4.94557 4.03804 20.9823 3 1e-16 -4.12244
388 1 7.41835 4.03804 20.9823 3 1e-16 -4.12244
389 1 6.59409 4.03804 18.6509 3 0 -4.12244
390 1 9.06687 4.03804 18.6509 3 4e-16 -4.12244
391 1 8.24261 4.03804 16.3195 3 9.99999e-17 -4.12244
392 1 10.7154 4.03804 16.3195 3 1e-16 -4.12244
393 1 9.89114 4.03804 13.9882 3 4e-16 -4.12244
394 1 12.3639 4.03804 13.9882 3 2.52435e-29 -4.12244
395 1 11.5397 4.03804 11.6568 3 1e-16 -4.12244
396 1 14.0124 4.03804 11.6568 3 1e-16 -4.12244
397 1 13.1882 4.03804 9.32545 3 0 -4.12244
398 1 15.661 4.03804 9.32545 3 4e-16 -4.12244
399 1 14.8367 4.03804 6.99409 3 9.99999e-17 -4.12244
400 1 17.3095 4.03804 6.99409 3 1e-16 -4.12244
401 1 16.4852 4.03804 4.66273 3 4e-16 -4.12244
402 1 18.958 4.03804 4.66273 3 2.01948e-28 -4.12244
403 1 18.1337 4.03804 2.33136 3 1e-16 -4.12244
404 1 20.6065 4.03804 2.33136 3 1e-16 -4.12244
405 1 19.7823 4.03804 0 3 1.0507e-16 -4.12244
406 1 22.2551 4.03804 0 3 4.0507e-16 -4.12244
407 1 0.824261 2.01902 33.8048 3 5.776e-17 -4.10627
408 1 0 2.01902 31.4734 3 2.304e-17 -4.10627
409 1 2.47278 2.01902 31.4734 3 4e-16 -4.10627
410 1 1.64852 2.01902 29.142 3 5.776e-17 -4.10627
411 1 4.12131 2.01902 29.142 3 1e-16 -4.10627
412 1 3.29705 2.01902 26.8107 3 4e-16 -4.10627
413 1 5.76983 2.01902 26.8107 3 0 -4.10627
414 1 4.94557 2.01902 24.4793 3 1e-16 -4.10627
415 1 7.41835 2.01902 24.4793 3 1e-16 -4.10627
416 1 6.59409 2.01902 22.1479 3 0 -4.10627
417 1 9.06687 2.01902 22.1479 3 4e-16 -4.10627
418 1 8.24261 2.01902 19.8166 3 9.99999e-17 -4.10627
419 1 10.7154 2.01902 19.8166 3 1e-16 -4.10627
420 1 9.89114 2.01902 17.4852 3 4e-16 -4.10627
421 1 12.3639 2.01902 17.4852 3 1.00974e-28 -4.10627
422 1 11.5397 2.01902 15.1539 3 1e-16 -4.10627
423 1 14.0124 2.01902 15.1539 3 1e-16 -4.10627
424 1 13.1882 2.01902 12.8225 3 3.78653e-29 -4.10627
425 1 15.661 2.01902 12.8225 3 4e-16 -4.10627
426 1 14.8367 2.01902 10.4911 3 9.99999e-17 -4.10627
427 1 17.3095 2.01902 10.4911 3 1e-16 -4.10627
428 1 16.4852 2.01902 8.15977 3 4e-16 -4.10627
429 1 18.958 2.01902 8.15977 3 2.1457e-28 -4.10627
430 1 18.1337 2.01902 5.82841 3 1e-16 -4.10627
431 1 20.6065 2.01902 5.82841 3 1e-16 -4.10627
432 1 19.7823 2.01902 3.49704 3 1e-16 -4.10627
433 1 22.2551 2.01902 3.49704 3 4e-16 -4.10627
434 1 21.4308 2.01902 1.16568 3 4.0169e-16 -4.10627
435 1 23.9036 2.01902 1.16568 3 1.0169e-16 -4.10627
436 1 0.824261 -0 37.3018 5 12.2293 -3.54465
437 1 0 0 34.9704 5 12.2293 -3.54465
438 1 2.47278 -0 34.9704 5 12.2293 -3.54465
439 1 1.64852 0 32.6391 5 12.2293 -3.54465
440 1 4.12131 -0 32.6391 5 12.2293 -3.54465
441 1 3.29705 0 30.3077 5 12.2293 -3.54465
442 1 5.76983 -0 30.3077 5 12.2293 -3.54465
443 1 4.94557 0 27.9764 5 12.2293 -3.54465
444 1 7.41835 -0 27.9764 5 12.2293 -3.54465
445 1 6.59409 0 25.645 5 12.2293 -3.54465
446 1 9.06687 -0 25.645 5 12.2293 -3.54465
447 1 8.24261 0 23.3136 5 12.2293 -3.54465
448 1 10.7154 -0 23.3136 5 12.2293 -3.54465
449 1 9.89114 0 20.9823 5 12.2293 -3.54465
450 1 12.3639 -0 20.9823 5 12.2293 -3.54465
451 1 11.5397 0 18.6509 5 12.2293 -3.54465
452 1 14.0124 -0 18.6509 5 12.2293 -3.54465
453 1 13.1882 0 16.3195 5 12.2293 -3.54465
454 1 15.661 -0 16.3195 5 12.2293 -3.54465
455 1 14.8367 0 13.9882 5 12.2293 -3.54465
456 1 17.3095 -0 13.9882 5 12.2293 -3.54465
457 1 16.4852 0 11.6568 5 12.2293 -3.54465
458 1 18.958 -0 11.6568 5 12.2293 -3.54465
459 1 18.1337 0 9.32545 5 12.2293 -3.54465
460 1 20.6065 -0 9.32545 5 12.2293 -3.54465
461 1 19.7823 0 6.99409 5 12.2293 -3.54465
462 1 22.2551 -0 6.99409 5 12.2293 -3.54465
463 1 21.4308 0 4.66273 5 12.2293 -3.54465
464 1 23.9036 -0 4.66273 5 12.2293 -3.54465
465 1 23.0793 0 2.33136 5 12.2293 -3.54465
466 1 25.5521 -0 2.33136 5 12.2293 -3.54465
467 1 24.7278 0 0 5 12.2293 -3.54465
468 1 27.2006 -0 0 5 12.2293 -3.54465
469 1 0.824261 24.2282 2.33136 3 5.776e-17 -4.12244
470 1 0 24.2282 0 3 2.811e-17 -4.12244
471 1 2.47278 24.2282 0 3 4.0507e-16 -4.12244
472 1 0.824261 22.2092 5.82841 3 5.776e-17 -4.12244
473 1 0 22.2092 3.49704 3 2.304e-17 -4.12244
474 1 2.47278 22.2092 3.49704 3 4e-16 -4.12244
475 1 1.64852 22.2092 1.16568 3 5.945e-17 -4.12244
476 1 4.12131 22.2092 1.16568 3 1.0169e-16 -4.12244
477 1 0.824261 20.1902 9.32545 3 5.776e-17 -4.12244
478 1 0 20.1902 6.99409 3 2.304e-17 -4.12244
479 1 2.47278 20.1902 6.99409 3 4e-16 -4.12244
480 1 1.64852 20.1902 4.66273 3 5.776e-17 -4.12244
481 1 4.12131 20.1902 4.66273 3 1e-16 -4.12244
482 1 3.29705 20.1902 2.33136 3 4e-16 -4.12244
483 1 5.76983 20.1902 2.33136 3 0 -4.12244
484 1 4.94557 20.1902 0 3 1.0507e-16 -4.12244
485 1 7.41835 20.1902 0 3 1.0507e-16 -4.12244
486 1 0.824261 18.1712 12.8225 3 5.776e-17 -4.12244
487 1 0 18.1712 10.4911 3 2.304e-17 -4.12244
488 1 2.47278 18.1712 10.4911 3 4e-16 -4.12244
489 1 1.64852 18.1712 8.15977 3 5.776e-17 -4.12244
490 1 4.12131 18.1712 8.15977 3 1e-16 -4.12244
491 1 3.29705 18.1712 5.82841 3 4e-16 -4.12244
492 1 5.76983 18.1712 5.82841 3 1.0413e-28 -4.12244
493 1 4.94557 18.1712 3.49704 3 1e-16 -4.12244
494 1 7.41835 18.1712 3.49704 3 1e-16 -4.12244
495 1 6.59409 18.1712 1.16568 3 1.69e-18 -4.12244
496 1 9.06687 18.1712 1.16568 3 4.0169e-16 -4.12244
497 1 0.824261 16.1522 16.3195 3 5.776e-17 -4.12244
498 1 0 16.1522 13.9882 3 2.304e-17 -4.12244
499 1 2.47278 16.1522 13.9882 3 4e-16 -4.12244
500 1 1.64852 16.1522 11.6568 3 5.776e-17 -4.12244
501 1 4.12131 16.1522 11.6568 3 1e-16 -4.12244
502 1 3.29705 16.1522 9.32545 3 4e-16 -4.12244
503 1 5.76983 16.1522 9.32545 3 0 -4.12244
504 1 4.94557 16.1522 6.99409 3 1e-16 -4.12244
505 1 7.41835 16.1522 6.99409 3 1e-16 -4.12244
506 1 6.59409 16.1522 4.66273 3 0 -4.12244
507 1 9.06687 16.1522 4.66273 3 4e-16 -4.12244
508 1 8.24261 16.1522 2.33136 3 9.99999e-17 -4.12244
509 1 10.7154 16.1522 2.33136 3 1e-16 -4.12244
510 1 9.89114 16.1522 0 3 4.0507e-16 -4.12244
511 1 12.3639 16.1522 0 3 5.07001e-18 -4.12244
512 1 0.824261 14.1331 19.8166 3 5.776e-17 -4.12244
513 1 0 14.1331 17.4852 3 2.304e-17 -4.12244
514 1 2.47278 14.1331 17.4852 3 4e-16 -4.12244
515 1 1.64852 14.1331 15.1539 3 5.776e-17 -4.12244
516 1 4.12131 14.1331 15.1539 3 1e-16 -4.12244
517 1 3.29705 14.1331 12.8225 3 4e-16 -4.12244
518 1 5.76983 14.1331 12.8225 3 3.78653e-29 -4.12244
519 1 4.94557 14.1331 10.4911 3 1e-16 -4.12244
520 1 7.41835 14.1331 10.4911 3 1e-16 -4.12244
521 1 6.59409 14.1331 8.15977 3 1.26218e-29 -4.12244
522 1 9.06687 14.1331 8.15977 3 4e-16 -4.12244
523 1 8.24261 14.1331 5.82841 3 9.99999e-17 -4.12244
524 1 10.7154 14.1331 5.82841 3 1e-16 -4.12244
525 1 9.89114 14.1331 3.49704 3 4e-16 -4.12244
526 1 12.3639 14.1331 3.49704 3 7.88861e-31 -4.12244
527 1 11.5397 14.1331 1.16568 3 1.0169e-16 -4.12244
528 1 14.0124 14.1331 1.16568 3 1.0169e-16 -4.12244
529 1 0.824261 12.1141 23.3136 3 5.776e-17 -4.12244
530 1 0 12.1141 20.9823 3 2.304e-17 -4.12244
531 1 2.47278 12.1141 20.9823 3 4e-16 -4.12244
532 1 1.64852 12.1141 18.6509 3 5.776e-17 -4.12244
533 1 4.12131 12.1141 18.6509 3 1e-16 -4.12244
534 1 3.29705 12.1141 16.3195 3 4e-16 -4.12244
535 1 5.76983 12.1141 16.3195 3 1.00974e-28 -4.12244
536 1 4.94557 12.1141 13.9882 3 1e-16 -4.12244
537 1 7.41835 12.1141 13.9882 3 1e-16 -4.12244
538 1 6.59409 12.1141 11.6568 3 0 -4.12244
539 1 9.06687 12.1141 11.6568 3 4e-16 -4.12244
540 1 8.24261 12.1141 9.32545 3 9.99999e-17 -4.12244
541 1 10.7154 12.1141 9.32545 3 1e-16 -4.12244
542 1 9.89114 12.1141 6.99409 3 4e-16 -4.12244
543 1 12.3639 12.1141 6.99409 3 0 -4.12244
544 1 11.5397 12.1141 4.66273 3 1e-16 -4.12244
545 1 14.0124 12.1141 4.66273 3 1e-16 -4.12244
546 1 13.1882 12.1141 2.33136 3 0 -4.12244
547 1 15.661 12.1141 2.33136 3 4e-16 -4.12244
548 1 14.8367 12.1141 0 3 1.0507e-16 -4.12244
549 1 17.3095 12.1141 0 3 1.0507e-16 -4.12244
550 1 0.824261 10.0951 26.8107 3 5.776e-17 -4.12244
551 1 0 10.0951 24.4793 3 2.304e-17 -4.12244
552 1 2.47278 10.0951 24.4793 3 4e-16 -4.12244
553 1 1.64852 10.0951 22.1479 3 5.776e-17 -4.12244
554 1 4.12131 10.0951 22.1479 3 1e-16 -4.12244
555 1 3.29705 10.0951 19.8166 3 4e-16 -4.12244
556 1 5.76983 10.0951 19.8166 3 0 -4.12244
557 1 4.94557 10.0951 17.4852 3 1e-16 -4.12244
558 1 7.41835 10.0951 17.4852 3 1e-16 -4.12244
559 1 6.59409 10.0951 15.1539 3 0 -4.12244
560 1 9.06687 10.0951 15.1539 3 4e-16 -4.12244
561 1 8.24261 10.0951 12.8225 3 9.99999e-17 -4.12244
562 1 10.7154 10.0951 12.8225 3 1e-16 -4.12244
563 1 9.89114 10.0951 10.4911 3 4e-16 -4.12244
564 1 12.3639 10.0951 10.4911 3 0 -4.12244
565 1 11.5397 10.0951 8.15977 3 1e-16 -4.12244
566 1 14.0124 10.0951 8.15977 3 1e-16 -4.12244
567 1 13.1882 10.0951 5.82841 3 3.15544e-30 -4.12244
568 1 15.661 10.0951 5.82841 3 4e-16 -4.12244
569 1 14.8367 10.0951 3.49704 3 9.99999e-17 -4.12244
570 1 17.3095 10.0951 3.49704 3 1e-16 -4.12244
571 1 16.4852 10.0951 1.16568 3 4.0169e-16 -4.12244
572 1 18.958 10.0951 1.16568 3 1.69e-18 -4.12244
573 1 0.824261 8.07608 30.3077 3 5.776e-17 -4.12244
574 1 0 8.07608 27.9764 3 2.304e-17 -4.12244
575 1 2.47278 8.07608 27.9764 3 4e-16 -4.12244
576 1 1.64852 8.07608 25.645 3 5.776e-17 -4.12244
577 1 4.12131 8.07608 25.645 3 1e-16 -4.12244
578 1 3.29705 8.07608 23.3136 3 4e-16 -4.12244
579 1 5.76983 8.07608 23.3136 3 0 -4.12244
580 1 4.94557 8.07608 20.9823 3 1e-16 -4.12244
581 1 7.41835 8.07608 20.9823 3 1e-16 -4.12244
582 1 6.59409 8.07608 18.6509 3 0 -4.12244
583 1 9.06687 8.07608 18.6509 3 4e-16 -4.12244
584 1 8.24261 8.07608 16.3195 3 9.99999e-17 -4.12244
585 1 10.7154 8.07608 16.3195 3 1e-16 -4.12244
586 1 9.89114 8.07608 13.9882 3 4e-16 -4.12244
587 1 12.3639 8.07608 13.9882 3 2.52435e-29 -4.12244
588 1 11.5397 8.07608 11.6568 3 1e-16 -4.12244
589 1 14.0124 8.07608 11.6568 3 1e-16 -4.12244
590 1 13.1882 8.07608 9.32545 3 0 -4.12244
591 1 15.661 8.07608 9.32545 3 4e-16 -4.12244
592 1 14.8367 8.07608 6.99409 3 9.99999e-17 -4.12244
593 1 17.3095 8.07608 6.99409 3 1e-16 -4.12244
594 1 16.4852 8.07608 4.66273 3 4e-16 -4.12244
595 1 18.958 8.07608 4.66273 3 2.01948e-28 -4.12244
596 1 18.1337 8.07608 2.33136 3 1e-16 -4.12244
597 1 20.6065 8.07608 2.33136 3 1e-16 -4.12244
598 1 19.7823 8.07608 0 3 1.0507e-16 -4.12244
599 1 22.2551 8.07608 0 3 4.0507e-16 -4.12244
600 1 0.824261 6.05706 33.8048 3 5.776e-17 -4.12244
601 1 0 6.05706 31.4734 3 2.304e-17 -4.12244
602 1 2.47278 6.05706 31.4734 3 4e-16 -4.12244
603 1 1.64852 6.05706 29.142 3 5.776e-17 -4.12244
604 1 4.12131 6.05706 29.142 3 1e-16 -4.12244
605 1 3.29705 6.05706 26.8107 3 4e-16 -4.12244
606 1 5.76983 6.05706 26.8107 3 0 -4.12244
607 1 4.94557 6.05706 24.4793 3 1e-16 -4.12244
608 1 7.41835 6.05706 24.4793 3 1e-16 -4.12244
609 1 6.59409 6.05706 22.1479 3 0 -4.12244
610 1 9.06687 6.05706 22.1479 3 4e-16 -4.12244
611 1 8.24261 6.05706 19.8166 3 9.99999e-17 -4.12244
612 1 10.7154 6.05706 19.8166 3 1e-16 -4.12244
613 1 9.89114 6.05706 17.4852 3 4e-16 -4.12244
614 1 12.3639 6.05706 17.4852 3 1.00974e-28 -4.12244
615 1 11.5397 6.05706 15.1539 3 1e-16 -4.12244
616 1 14.0124 6.05706 15.1539 3 1e-16 -4.12244
617 1 13.1882 6.05706 12.8225 3 3.78653e-29 -4.12244
618 1 15.661 6.05706 12.8225 3 4e-16 -4.12244
619 1 14.8367 6.05706 10.4911 3 9.99999e-17 -4.12244
620 1 17.3095 6.05706 10.4911 3 1e-16 -4.12244
621 1 16.4852 6.05706 8.15977 3 4e-16 -4.12244
622 1 18.958 6.05706 8.15977 3 2.1457e-28 -4.12244
623 1 18.1337 6.05706 5.82841 3 1e-16 -4.12244
624 1 20.6065 6.05706 5.82841 3 1e-16 -4.12244
625 1 19.7823 6.05706 3.49704 3 1e-16 -4.12244
626 1 22.2551 6.05706 3.49704 3 4e-16 -4.12244
627 1 21.4308 6.05706 1.16568 3 4.0169e-16 -4.12244
628 1 23.9036 6.05706 1.16568 3 1.0169e-16 -4.12244
629 1 0.824261 4.03804 37.3018 3 5.776e-17 -4.12244
630 1 0 4.03804 34.9704 3 2.304e-17 -4.12244
631 1 2.47278 4.03804 34.9704 3 4e-16 -4.12244
632 1 1.64852 4.03804 32.6391 3 5.776e-17 -4.12244
633 1 4.12131 4.03804 32.6391 3 1e-16 -4.12244
634 1 3.29705 4.03804 30.3077 3 4e-16 -4.12244
635 1 5.76983 4.03804 30.3077 3 0 -4.12244
636 1 4.94557 4.03804 27.9764 3 1e-16 -4.12244
637 1 7.41835 4.03804 27.9764 3 1e-16 -4.12244
638 1 6.59409 4.03804 25.645 3 1.51461e-28 -4.12244
639 1 9.06687 4.03804 25.645 3 4e-16 -4.12244
640 1 8.24261 4.03804 23.3136 3 9.99999e-17 -4.12244
641 1 10.7154 4.03804 23.3136 3 1e-16 -4.12244
642 1 9.89114 4.03804 20.9823 3 4e-16 -4.12244
643 1 12.3639 4.03804 20.9823 3 0 -4.12244
644 1 11.5397 4.03804 18.6509 3 1e-16 -4.12244
645 1 14.0124 4.03804 18.6509 3 1e-16 -4.12244
646 1 13.1882 4.03804 16.3195 3 1.00974e-28 -4.12244
647 1 15.661 4.03804 16.3195 3 4e-16 -4.12244
648 1 14.8367 4.03804 13.9882 3 9.99999e-17 -4.12244
649 1 17.3095 4.03804 13.9882 3 1e-16 -4.12244
650 1 16.4852 4.03804 11.6568 3 4e-16 -4.12244
651 1 18.958 4.03804 11.6568 3 2.01948e-28 -4.12244
652 1 18.1337 4.03804 9.32545 3 1e-16 -4.12244
653 1 20.6065 4.03804 9.32545 3 1e-16 -4.12244
654 1 19.7823 4.03804 6.99409 3 1e-16 -4.12244
655 1 22.2551 4.03804 6.99409 3 4e-16 -4.12244
656 1 21.4308 4.03804 4.66273 3 4e-16 -4.12244
657 1 23.9036 4.03804 4.66273 3 1e-16 -4.12244
658 1 23.0793 4.03804 2.33136 3 1e-16 -4.12244
659 1 25.5521 4.03804 2.33136 3 1.51461e-28 -4.12244
660 1 24.7278 4.03804 0 3 5.07001e-18 -4.12244
661 1 27.2006 4.03804 0 3 1.0507e-16 -4.12244
662 1 0.824261 2.01902 40.7989 3 5.776e-17 -4.10627
663 1 0 2.01902 38.4675 3 2.304e-17 -4.10627
664 1 2.47278 2.01902 38.4675 3 4e-16 -4.10627
665 1 1.64852 2.01902 36.1361 3 5.776e-17 -4.10627
666 1 4.12131 2.01902 36.1361 3 1e-16 -4.10627
667 1 3.29705 2.01902 33.8048 3 4e-16 -4.10627
668 1 5.76983 2.01902 33.8048 3 0 -4.10627
669 1 4.94557 2.01902 31.4734 3 1e-16 -4.10627
670 1 7.41835 2.01902 31.4734 3 1e-16 -4.10627
671 1 6.59409 2.01902 29.142 3 1.51461e-28 -4.10627
672 1 9.06687 2.01902 29.142 3 4e-16 -4.10627
673 1 8.24261 2.01902 26.8107 3 9.99999e-17 -4.10627
674 1 10.7154 2.01902 26.8107 3 1e-16 -4.10627
675 1 9.89114 2.01902 24.4793 3 4e-16 -4.10627
676 1 12.3639 2.01902 24.4793 3 1.00974e-28 -4.10627
677 1 11.5397 2.01902 22.1479 3 1e-16 -4.10627
678 1 14.0124 2.01902 22.1479 3 1e-16 -4.10627
679 1 13.1882 2.01902 19.8166 3 0 -4.10627
680 1 15.661 2.01902 19.8166 3 4e-16 -4.10627
681 1 14.8367 2.01902 17.4852 3 9.99999e-17 -4.10627
682 1 17.3095 2.01902 17.4852 3 1e-16 -4.10627
683 1 16.4852 2.01902 15.1539 3 4e-16 -4.10627
684 1 18.958 2.01902 15.1539 3 2.01948e-28 -4.10627
685 1 18.1337 2.01902 12.8225 3 1e-16 -4.10627
686 1 20.6065 2.01902 12.8225 3 1e-16 -4.10627
687 1 19.7823 2.01902 10.4911 3 1e-16 -4.10627
688 1 22.2551 2.01902 10.4911 3 4e-16 -4.10627
689 1 21.4308 2.01902 8.15977 3 4e-16 -4.10627
690 1 23.9036 2.01902 8.15977 3 1e-16 -4.10627
691 1 23.0793 2.01902 5.82841 3 1e-16 -4.10627
692 1 25.5521 2.01902 5.82841 3 1.54617e-28 -4.10627
693 1 24.7278 2.01902 3.49704 3 7.88861e-31 -4.10627
694 1 27.2006 2.01902 3.49704 3 1e-16 -4.10627
695 1 26.3764 2.01902 1.16568 3 1.0169e-16 -4.10627
696 1 28.8491 2.01902 1.16568 3 4.0169e-16 -4.10627
697 1 0.824261 0 44.2959 5 12.2293 -3.54465
698 1 0 0 41.9645 5 12.2293 -3.54465
699 1 2.47278 0 41.9645 5 12.2293 -3.54465
700 1 1.64852 0 39.6332 5 12.2293 -3.54465
701 1 4.12131 0 39.6332 5 12.2293 -3.54465
702 1 3.29705 0 37.3018 5 12.2293 -3.54465
703 1 5.76983 0 37.3018 5 12.2293 -3.54465
704 1 4.94557 0 34.9704 5 12.2293 -3.54465
705 1 7.41835 0 34.9704 5 12.2293 -3.54465
706 1 6.59409 0 32.6391 5 12.2293 -3.54465
707 1 9.06687 0 32.6391 5 12.2293 -3.54465
708 1 8.24261 0 30.3077 5 12.2293 -3.54465
709 1 10.7154 0 30.3077 5 12.2293 -3.54465
710 1 9.89114 0 27.9764 5 12.2293 -3.54465
711 1 12.3639 0 27.9764 5 12.2293 -3.54465
712 1 11.5397 0 25.645 5 12.2293 -3.54465
713 1 14.0124 0 25.645 5 12.2293 -3.54465
714 1 13.1882 0 23.3136 5 12.2293 -3.54465
715 1 15.661 0 23.3136 5 12.2293 -3.54465
716 1 14.8367 0 20.9823 5 12.2293 -3.54465
717 1 17.3095 0 20.9823 5 12.2293 -3.54465
718 1 16.4852 0 18.6509 5 12.2293 -3.54465
719 1 18.958 0 18.6509 5 12.2293 -3.54465
720 1 18.1337 0 16.3195 5 12.2293 -3.54465
721 1 20.6065 0 16.3195 5 12.2293 -3.54465
722 1 19.7823 0 13.9882 5 12.2293 -3.54465
723 1 22.2551 0 13.9882 5 12.2293 -3.54465
724 1 21.4308 0 11.6568 5 12.2293 -3.54465
725 1 23.9036 0 11.6568 5 12.2293 -3.54465
726 1 23.0793 0 9.32545 5 12.2293 -3.54465
727 1 25.5521 0 9.32545 5 12.2293 -3.54465
728 1 24.7278 0 6.99409 5 12.2293 -3.54465
729 1 27.2006 0 6.99409 5 12.2293 -3.54465
730 1 26.3764 0 4.66273 5 12.2293 -3.54465
731 1 28.8491 0 4.66273 5 12.2293 -3.54465
732 1 28.0249 0 2.33136 5 12.2293 -3.54465
733 1 30.4977 0 2.33136 5 12.2293 -3.54465
734 1 29.6734 0 0 5 12.2293 -3.54465
735 1 32.1462 0 0 5 12.2293 -3.54465
736 1 0.824261 28.2663 2.33136 3 5.776e-17 -4.12244
737 1 0 28.2663 0 3 2.811e-17 -4.12244
738 1 2.47278 28.2663 0 3 4.0507e-16 -4.12244
739 1 0.824261 26.2473 5.82841 3 5.776e-17 -4.12244
740 1 0 26.2473 3.49704 3 2.304e-17 -4.12244
741 1 2.47278 26.2473 3.49704 3 4e-16 -4.12244
742 1 1.64852 26.2473 1.16568 3 5.945e-17 -4.12244
743 1 4.12131 26.2473 1.16568 3 1.0169e-16 -4.12244
744 1 0.824261 24.2282 9.32545 3 5.776e-17 -4.12244
745 1 0 24.2282 6.99409 3 2.304e-17 -4.12244
746 1 2.47278 24.2282 6.99409 3 4e-16 -4.12244
747 1 1.64852 24.2282 4.66273 3 5.776e-17 -4.12244
748 1 4.12131 24.2282 4.66273 3 1e-16 -4.12244
749 1 3.29705 24.2282 2.33136 3 4e-16 -4.12244
750 1 5.76983 24.2282 2.33136 3 0 -4.12244
751 1 4.94557 24.2282 0 3 1.0507e-16 -4.12244
752 1 7.41835 24.2282 0 3 1.0507e-16 -4.12244
753 1 0.824261 22.2092 12.8225 3 5.776e-17 -4.12244
754 1 0 22.2092 10.4911 3 2.304e-17 -4.12244
755 1 2.47278 22.2092 10.4911 3 4e-16 -4.12244
756 1 1.64852 22.2092 8.15977 3 5.776e-17 -4.12244
757 1 4.12131 22.2092 8.15977 3 1e-16 -4.12244
758 1 3.29705 22.2092 5.82841 3 4e-16 -4.12244
759 1 5.76983 22.2092 5.82841 3 3.15544e-30 -4.12244
760 1 4.94557 22.2092 3.49704 3 1e-16 -4.12244
761 1 7.41835 22.2092 3.49704 3 1e-16 -4.12244
762 1 6.59409 22.2092 1.16568 3 1.69e-18 -4.12244
763 1 9.06687 22.2092 1.16568 3 4.0169e-16 -4.12244
764 1 0.824261 20.1902 16.3195 3 5.776e-17 -4.12244
765 1 0 20.1902 13.9882 3 2.304e-17 -4.12244
766 1 2.47278 20.1902 13.9882 3 4e-16 -4.12244
767 1 1.64852 20.1902 11.6568 3 5.776e-17 -4.12244
768 1 4.12131 20.1902 11.6568 3 1e-16 -4.12244
769 1 3.29705 20.1902 9.32545 3 4e-16 -4.12244
770 1 5.76983 20.1902 9.32545 3 0 -4.12244
771 1 4.94557 20.1902 6.99409 3 1e-16 -4.12244
772 1 7.41835 20.1902 6.99409 3 1e-16 -4.12244
773 1 6.59409 20.1902 4.66273 3 0 -4.12244
774 1 9.06687 20.1902 4.66273 3 4e-16 -4.12244
775 1 8.24261 20.1902 2.33136 3 9.99999e-17 -4.12244
776 1 10.7154 20.1902 2.33136 3 1e-16 -4.12244
777 1 9.89114 20.1902 0 3 4.0507e-16 -4.12244
778 1 12.3639 20.1902 0 3 5.07001e-18 -4.12244
779 1 0.824261 18.1712 19.8166 3 5.776e-17 -4.12244
780 1 0 18.1712 17.4852 3 2.304e-17 -4.12244
781 1 2.47278 18.1712 17.4852 3 4e-16 -4.12244
782 1 1.64852 18.1712 15.1539 3 5.776e-17 -4.12244
783 1 4.12131 18.1712 15.1539 3 1e-16 -4.12244
784 1 3.29705 18.1712 12.8225 3 4e-16 -4.12244
785 1 5.76983 18.1712 12.8225 3 1.3884e-28 -4.12244
786 1 4.94557 18.1712 10.4911 3 1e-16 -4.12244
787 1 7.41835 18.1712 10.4911 3 1e-16 -4.12244
788 1 6.59409 18.1712 8.15977 3 1.13596e-28 -4.12244
789 1 9.06687 18.1712 8.15977 3 4e-16 -4.12244
790 1 8.24261 18.1712 5.82841 3 9.99999e-17 -4.12244
791 1 10.7154 18.1712 5.82841 3 1e-16 -4.12244
792 1 9.89114 18.1712 3.49704 3 4e-16 -4.12244
793 1 12.3639 18.1712 3.49704 3 1.01763e-28 -4.12244
794 1 11.5397 18.1712 1.16568 3 1.0169e-16 -4.12244
795 1 14.0124 18.1712 1.16568 3 1.0169e-16 -4.12244
796 1 0.824261 16.1522 23.3136 3 5.776e-17 -4.12244
797 1 0 16.1522 20.9823 3 2.304e-17 -4.12244
798 1 2.47278 16.1522 20.9823 3 4e-16 -4.12244
799 1 1.64852 16.1522 18.6509 3 5.776e-17 -4.12244
800 1 4.12131 16.1522 18.6509 3 1e-16 -4.12244
801 1 3.29705 16.1522 16.3195 3 4e-16 -4.12244
802 1 5.76983 16.1522 16.3195 3 1.00974e-28 -4.12244
803 1 4.94557 16.1522 13.9882 3 1e-16 -4.12244
804 1 7.41835 16.1522 13.9882 3 1e-16 -4.12244
805 1 6.59409 16.1522 11.6568 3 0 -4.12244
806 1 9.06687 16.1522 11.6568 3 4e-16 -4.12244
807 1 8.24261 16.1522 9.32545 3 9.99999e-17 -4.12244
808 1 10.7154 16.1522 9.32545 3 1e-16 -4.12244
809 1 9.89114 16.1522 6.99409 3 4e-16 -4.12244
810 1 12.3639 16.1522 6.99409 3 0 -4.12244
811 1 11.5397 16.1522 4.66273 3 1e-16 -4.12244
812 1 14.0124 16.1522 4.66273 3 1e-16 -4.12244
813 1 13.1882 16.1522 2.33136 3 0 -4.12244
814 1 15.661 16.1522 2.33136 3 4e-16 -4.12244
815 1 14.8367 16.1522 0 3 1.0507e-16 -4.12244
816 1 17.3095 16.1522 0 3 1.0507e-16 -4.12244
817 1 0.824261 14.1331 26.8107 3 5.776e-17 -4.12244
818 1 0 14.1331 24.4793 3 2.304e-17 -4.12244
819 1 2.47278 14.1331 24.4793 3 4e-16 -4.12244
820 1 1.64852 14.1331 22.1479 3 5.776e-17 -4.12244
821 1 4.12131 14.1331 22.1479 3 1e-16 -4.12244
822 1 3.29705 14.1331 19.8166 3 4e-16 -4.12244
823 1 5.76983 14.1331 19.8166 3 0 -4.12244
824 1 4.94557 14.1331 17.4852 3 1e-16 -4.12244
825 1 7.41835 14.1331 17.4852 3 1e-16 -4.12244
826 1 6.59409 14.1331 15.1539 3 0 -4.12244
827 1 9.06687 14.1331 15.1539 3 4e-16 -4.12244
828 1 8.24261 14.1331 12.8225 3 9.99999e-17 -4.12244
829 1 10.7154 14.1331 12.8225 3 1e-16 -4.12244
830 1 9.89114 14.1331 10.4911 3 4e-16 -4.12244
831 1 12.3639 14.1331 10.4911 3 0 -4.12244
832 1 11.5397 14.1331 8.15977 3 1e-16 -4.12244
833 1 14.0124 14.1331 8.15977 3 1e-16 -4.12244
834 1 13.1882 14.1331 5.82841 3 3.15544e-30 -4.12244
835 1 15.661 14.1331 5.82841 3 4e-16 -4.12244
836 1 14.8367 14.1331 3.49704 3 9.99999e-17 -4.12244
837 1 17.3095 14.1331 3.49704 3 1e-16 -4.12244
838 1 16.4852 14.1331 1.16568 3 4.0169e-16 -4.12244
839 1 18.958 14.1331 1.16568 3 1.69e-18 -4.12244
840 1 0.824261 12.1141 30.3077 3 5.776e-17 -4.12244
841 1 0 12.1141 27.9764 3 2.304e-17 -4.12244
842 1 2.47278 12.1141 27.9764 3 4e-16 -4.12244
843 1 1.64852 12.1141 25.645 3 5.776e-17 -4.12244
844 1 4.12131 12.1141 25.645 3 1e-16 -4.12244
845 1 3.29705 12.1141 23.3136 3 4e-16 -4.12244
846 1 5.76983 12.1141 23.3136 3 0 -4.12244
847 1 4.94557 12.1141 20.9823 3 1e-16 -4.12244
848 1 7.41835 12.1141 20.9823 3 1e-16 -4.12244
849 1 6.59409 12.1141 18.6509 3 0 -4.12244
850 1 9.06687 12.1141 18.6509 3 4e-16 -4.12244
851 1 8.24261 12.1141 16.3195 3 9.99999e-17 -4.12244
852 1 10.7154 12.1141 16.3195 3 1e-16 -4.12244
853 1 9.89114 12.1141 13.9882 3 4e-16 -4.12244
854 1 12.3639 12.1141 13.9882 3 2.52435e-29 -4.12244
855 1 11.5397 12.1141 11.6568 3 1e-16 -4.12244
856 1 14.0124 12.1141 11.6568 3 1e-16 -4.12244
857 1 13.1882 12.1141 9.32545 3 0 -4.12244
858 1 15.661 12.1141 9.32545 3 4e-16 -4.12244
859 1 14.8367 12.1141 6.99409 3 9.99999e-17 -4.12244
860 1 17.3095 12.1141 6.99409 3 1e-16 -4.12244
861 1 16.4852 12.1141 4.66273 3 4e-16 -4.12244
862 1 18.958 12.1141 4.66273 3 2.01948e-28 -4.12244
863 1 18.1337 12.1141 2.33136 3 1e-16 -4.12244
864 1 20.6065 12.1141 2.33136 3 1e-16 -4.12244
865 1 19.7823 12.1141 0 3 1.0507e-16 -4.12244
866 1 22.2551 12.1141 0 3 4.0507e-16 -4.12244
867 1 0.824261 10.0951 33.8048 3 5.776e-17 -4.12244
868 1 0 10.0951 31.4734 3 2.304e-17 -4.12244
869 1 2.47278 10.0951 31.4734 3 4e-16 -4.12244
870 1 1.64852 10.0951 29.142 3 5.776e-17 -4.12244
871 1 4.12131 10.0951 29.142 3 1e-16 -4.12244
872 1 3.29705 10.0951 26.8107 3 4e-16 -4.12244
873 1 5.76983 10.0951 26.8107 3 0 -4.12244
874 1 4.94557 10.0951 24.4793 3 1e-16 -4.12244
875 1 7.41835 10.0951 24.4793 3 1e-16 -4.12244
876 1 6.59409 10.0951 22.1479 3 0 -4.12244
877 1 9.06687 10.0951 22.1479 3 4e-16 -4.12244
878 1 8.24261 10.0951 19.8166 3 9.99999e-17 -4.12244
879 1 10.7154 10.0951 19.8166 3 1e-16 -4.12244
880 1 9.89114 10.0951 17.4852 3 4e-16 -4.12244
881 1 12.3639 10.0951 17.4852 3 1.00974e-28 -4.12244
882 1 11.5397 10.0951 15.1539 3 1e-16 -4.12244
883 1 14.0124 10.0951 15.1539 3 1e-16 -4.12244
884 1 13.1882 10.0951 12.8225 3 3.78653e-29 -4.12244
885 1 15.661 10.0951 12.8225 3 4e-16 -4.12244
886 1 14.8367 10.0951 10.4911 3 9.99999e-17 -4.12244
887 1 17.3095 10.0951 10.4911 3 1e-16 -4.12244
888 1 16.4852 10.0951 8.15977 3 4e-16 -4.12244
889 1 18.958 10.0951 8.15977 3 2.1457e-28 -4.12244
890 1 18.1337 10.0951 5.82841 3 1e-16 -4.12244
891 1 20.6065 10.0951 5.82841 3 1e-16 -4.12244
892 1 19.7823 10.0951 3.49704 3 1e-16 -4.12244
893 1 22.2551 10.0951 3.49704 3 4e-16 -4.12244
894 1 21.4308 10.0951 1.16568 3 4.0169e-16 -4.12244
895 1 23.9036 10.0951 1.16568 3 1.0169e-16 -4.12244
896 1 0.824261 8.07608 37.3018 3 5.776e-17 -4.12244
897 1 0 8.07608 34.9704 3 2.304e-17 -4.12244
898 1 2.47278 8.07608 34.9704 3 4e-16 -4.12244
899 1 1.64852 8.07608 32.6391 3 5.776e-17 -4.12244
900 1 4.12131 8.07608 32.6391 3 1e-16 -4.12244
901 1 3.29705 8.07608 30.3077 3 4e-16 -4.12244
902 1 5.76983 8.07608 30.3077 3 0 -4.12244
903 1 4.94557 8.07608 27.9764 3 1e-16 -4.12244
904 1 7.41835 8.07608 27.9764 3 1e-16 -4.12244
905 1 6.59409 8.07608 25.645 3 1.51461e-28 -4.12244
906 1 9.06687 8.07608 25.645 3 4e-16 -4.12244
907 1 8.24261 8.07608 23.3136 3 9.99999e-17 -4.12244
908 1 10.7154 8.07608 23.3136 3 1e-16 -4.12244
909 1 9.89114 8.07608 20.9823 3 4e-16 -4.12244
910 1 12.3639 8.07608 20.9823 3 0 -4.12244
911 1 11.5397 8.07608 18.6509 3 1e-16 -4.12244
912 1 14.0124 8.07608 18.6509 3 1e-16 -4.12244
913 1 13.1882 8.07608 16.3195 3 1.00974e-28 -4.12244
914 1 15.661 8.07608 16.3195 3 4e-16 -4.12244
915 1 14.8367 8.07608 13.9882 3 9.99999e-17 -4.12244
916 1 17.3095 8.07608 13.9882 3 1e-16 -4.12244
917 1 16.4852 8.07608 11.6568 3 4e-16 -4.12244
918 1 18.958 8.07608 11.6568 3 2.01948e-28 -4.12244
919 1 18.1337 8.07608 9.32545 3 1e-16 -4.12244
920 1 20.6065 8.07608 9.32545 3 1e-16 -4.12244
921 1 19.7823 8.07608 6.99409 3 1e-16 -4.12244
922 1 22.2551 8.07608 6.99409 3 4e-16 -4.12244
923 1 21.4308 8.07608 4.66273 3 4e-16 -4.12244
924 1 23.9036 8.07608 4.66273 3 1e-16 -4.12244
925 1 23.0793 8.07608 2.33136 3 1e-16 -4.12244
926 1 25.5521 8.07608 2.33136 3 1.51461e-28 -4.12244
927 1 24.7278 8.07608 0 3 5.07001e-18 -4.12244
928 1 27.2006 8.07608 0 3 1.0507e-16 -4.12244
929 1 0.824261 6.05706 40.7989 3 5.776e-17 -4.12244
930 1 0 6.05706 38.4675 3 2.304e-17 -4.12244
931 1 2.47278 6.05706 38.4675 3 4e-16 -4.12244
932 1 1.64852 6.05706 36.1361 3 5.776e-17 -4.12244
933 1 4.12131 6.05706 36.1361 3 1e-16 -4.12244
934 1 3.29705 6.05706 33.8048 3 4e-16 -4.12244
935 1 5.76983 6.05706 33.8048 3 0 -4.12244
936 1 4.94557 6.05706 31.4734 3 1e-16 -4.12244
937 1 7.41835 6.05706 31.4734 3 1e-16 -4.12244
938 1 6.59409 6.05706 29.142 3 1.51461e-28 -4.12244
939 1 9.06687 6.05706 29.142 3 4e-16 -4.12244
940 1 8.24261 6.05706 26.8107 3 9.99999e-17 -4.12244
941 1 10.7154 6.05706 26.8107 3 1e-16 -4.12244
942 1 9.89114 6.05706 24.4793 3 4e-16 -4.12244
943 1 12.3639 6.05706 24.4793 3 1.00974e-28 -4.12244
944 1 11.5397 6.05706 22.1479 3 1e-16 -4.12244
945 1 14.0124 6.05706 22.1479 3 1e-16 -4.12244
946 1 13.1882 6.05706 19.8166 3 0 -4.12244
947 1 15.661 6.05706 19.8166 3 4e-16 -4.12244
948 1 14.8367 6.05706 17.4852 3 9.99999e-17 -4.12244
949 1 17.3095 6.05706 17.4852 3 1e-16 -4.12244
950 1 16.4852 6.05706 15.1539 3 4e-16 -4.12244
951 1 18.958 6.05706 15.1539 3 2.01948e-28 -4.12244
952 1 18.1337 6.05706 12.8225 3 1e-16 -4.12244
953 1 20.6065 6.05706 12.8225 3 1e-16 -4.12244
954 1 19.7823 6.05706 10.4911 3 1e-16 -4.12244
955 1 22.2551 6.05706 10.4911 3 4e-16 -4.12244
956 1 21.4308 6.05706 8.15977 3 4e-16 -4.12244
957 1 23.9036 6.05706 8.15977 3 1e-16 -4.12244
958 1 23.0793 6.05706 5.82841 3 1e-16 -4.12244
959 1 25.5521 6.05706 5.82841 3 1.54617e-28 -4.12244
960 1 24.7278 6.05706 3.49704 3 7.88861e-31 -4.12244
961 1 27.2006 6.05706 3.49704 3 1e-16 -4.12244
962 1 26.3764 6.05706 1.16568 3 1.0169e-16 -4.12244
963 1 28.8491 6.05706 1.16568 3 4.0169e-16 -4.12244
964 1 0.824261 4.03804 44.2959 3 5.776e-17 -4.12244
965 1 0 4.03804 41.9645 3 2.304e-17 -4.12244
966 1 2.47278 4.03804 41.9645 3 4e-16 -4.12244
967 1 1.64852 4.03804 39.6332 3 5.776e-17 -4.12244
968 1 4.12131 4.03804 39.6332 3 1e-16 -4.12244
969 1 3.29705 4.03804 37.3018 3 4e-16 -4.12244
970 1 5.76983 4.03804 37.3018 3 0 -4.12244
971 1 4.94557 4.03804 34.9704 3 1e-16 -4.12244
972 1 7.41835 4.03804 34.9704 3 1e-16 -4.12244
973 1 6.59409 4.03804 32.6391 3 2.01948e-28 -4.12244
974 1 9.06687 4.03804 32.6391 3 4e-16 -4.12244
975 1 8.24261 4.03804 30.3077 3 9.99999e-17 -4.12244
976 1 10.7154 4.03804 30.3077 3 1e-16 -4.12244
977 1 9.89114 4.03804 27.9764 3 4e-16 -4.12244
978 1 12.3639 4.03804 27.9764 3 1.51461e-28 -4.12244
979 1 11.5397 4.03804 25.645 3 1e-16 -4.12244
980 1 14.0124 4.03804 25.645 3 1e-16 -4.12244
981 1 13.1882 4.03804 23.3136 3 0 -4.12244
982 1 15.661 4.03804 23.3136 3 4e-16 -4.12244
983 1 14.8367 4.03804 20.9823 3 9.99999e-17 -4.12244
984 1 17.3095 4.03804 20.9823 3 1e-16 -4.12244
985 1 16.4852 4.03804 18.6509 3 4e-16 -4.12244
986 1 18.958 4.03804 18.6509 3 2.01948e-28 -4.12244
987 1 18.1337 4.03804 16.3195 3 1e-16 -4.12244
988 1 20.6065 4.03804 16.3195 3 1e-16 -4.12244
989 1 19.7823 4.03804 13.9882 3 1e-16 -4.12244
990 1 22.2551 4.03804 13.9882 3 4e-16 -4.12244
991 1 21.4308 4.03804 11.6568 3 4e-16 -4.12244
992 1 23.9036 4.03804 11.6568 3 1e-16 -4.12244
993 1 23.0793 4.03804 9.32545 3 1e-16 -4.12244
994 1 25.5521 4.03804 9.32545 3 1.51461e-28 -4.12244
995 1 24.7278 4.03804 6.99409 3 0 -4.12244
996 1 27.2006 4.03804 6.99409 3 1e-16 -4.12244
997 1 26.3764 4.03804 4.66273 3 1e-16 -4.12244
998 1 28.8491 4.03804 4.66273 3 4e-16 -4.12244
999 1 28.0249 4.03804 2.33136 3 3.99999e-16 -4.12244
1000 1 30.4977 4.03804 2.33136 3 9.99999e-17 -4.12244
1001 1 29.6734 4.03804 0 3 1.0507e-16 -4.12244
1002 1 32.1462 4.03804 0 3 1.0507e-16 -4.12244
1003 1 0.824261 2.01902 47.7929 3 6.28299e-17 -4.10627
1004 1 0 2.01902 45.4616 3 2.304e-17 -4.10627
1005 1 2.47278 2.01902 45.4616 3 4e-16 -4.10627
1006 1 1.64852 2.01902 43.1302 3 5.776e-17 -4.10627
1007 1 4.12131 2.01902 43.1302 3 1e-16 -4.10627
1008 1 3.29705 2.01902 40.7989 3 4e-16 -4.10627
1009 1 5.76983 2.01902 40.7989 3 6.05845e-28 -4.10627
1010 1 4.94557 2.01902 38.4675 3 1e-16 -4.10627
1011 1 7.41835 2.01902 38.4675 3 1e-16 -4.10627
1012 1 6.59409 2.01902 36.1361 3 6.05845e-28 -4.10627
1013 1 9.06687 2.01902 36.1361 3 4e-16 -4.10627
1014 1 8.24261 2.01902 33.8048 3 9.99999e-17 -4.10627
1015 1 10.7154 2.01902 33.8048 3 1e-16 -4.10627
1016 1 9.89114 2.01902 31.4734 3 4e-16 -4.10627
1017 1 12.3639 2.01902 31.4734 3 5.04871e-29 -4.10627
1018 1 11.5397 2.01902 29.142 3 1e-16 -4.10627
1019 1 14.0124 2.01902 29.142 3 1e-16 -4.10627
1020 1 13.1882 2.01902 26.8107 3 0 -4.10627
1021 1 15.661 2.01902 26.8107 3 4e-16 -4.10627
1022 1 14.8367 2.01902 24.4793 3 9.99999e-17 -4.10627
1023 1 17.3095 2.01902 24.4793 3 1e-16 -4.10627
1024 1 16.4852 2.01902 22.1479 3 4e-16 -4.10627
1025 1 18.958 2.01902 22.1479 3 2.01948e-28 -4.10627
1026 1 18.1337 2.01902 19.8166 3 1e-16 -4.10627
1027 1 20.6065 2.01902 19.8166 3 1e-16 -4.10627
1028 1 19.7823 2.01902 17.4852 3 1e-16 -4.10627
1029 1 22.2551 2.01902 17.4852 3 4e-16 -4.10627
1030 1 21.4308 2.01902 15.1539 3 4e-16 -4.10627
1031 1 23.9036 2.01902 15.1539 3 1e-16 -4.10627
1032 1 23.0793 2.01902 12.8225 3 1e-16 -4.10627
1033 1 25.5521 2.01902 12.8225 3 1.89327e-28 -4.10627
1034 1 24.7278 2.01902 10.4911 3 0 -4.10627
1035 1 27.2006 2.01902 10.4911 3 1e-16 -4.10627
1036 1 26.3764 2.01902 8.15977 3 1e-16 -4.10627
1037 1 28.8491 2.01902 8.15977 3 4e-16 -4.10627
1038 1 28.0249 2.01902 5.82841 3 3.99999e-16 -4.10627
1039 1 30.4977 2.01902 5.82841 3 9.99999e-17 -4.10627
1040 1 29.6734 2.01902 3.49704 3 1e-16 -4.10627
1041 1 32.1462 2.01902 3.49704 3 9.99999e-17 -4.10627
1042 1 31.3219 2.01902 1.16568 3 1.69e-18 -4.10627
1043 1 33.7947 2.01902 1.16568 3 4.01691e-16 -4.10627
1044 1 1.64852 -0 46.6273 5 12.2293 -3.54465
1045 1 4.12131 -0 46.6273 5 12.2293 -3.54465
1046 1 3.29705 -0 44.2959 5 12.2293 -3.54465
1047 1 5.76983 -0 44.2959 5 12.2293 -3.54465
1048 1 4.94557 -0 41.9645 5 12.2293 -3.54465
1049 1 7.41835 -0 41.9645 5 12.2293 -3.54465
1050 1 6.59409 -0 39.6332 5 12.2293 -3.54465
1051 1 9.06687 -0 39.6332 5 12.2293 -3.54465
1052 1 8.24261 -0 37.3018 5 12.2293 -3.54465
1053 1 10.7154 -0 37.3018 5 12.2293 -3.54465
1054 1 9.89114 -0 34.9704 5 12.2293 -3.54465
1055 1 12.3639 -0 34.9704 5 12.2293 -3.54465
1056 1 11.5397 -0 32.6391 5 12.2293 -3.54465
1057 1 14.0124 -0 32.6391 5 12.2293 -3.54465
1058 1 13.1882 -0 30.3077 5 12.2293 -3.54465
1059 1 15.661 -0 30.3077 5 12.2293 -3.54465
1060 1 14.8367 -0 27.9764 5 12.2293 -3.54465
1061 1 17.3095 -0 27.9764 5 12.2293 -3.54465
1062 1 16.4852 -0 25.645 5 12.2293 -3.54465
1063 1 18.958 -0 25.645 5 12.2293 -3.54465
1064 1 18.1337 -0 23.3136 5 12.2293 -3.54465
1065 1 20.6065 -0 23.3136 5 12.2293 -3.54465
1066 1 19.7823 -0 20.9823 5 12.2293 -3.54465
1067 1 22.2551 -0 20.9823 5 12.2293 -3.54465
1068 1 21.4308 -0 18.6509 5 12.2293 -3.54465
1069 1 23.9036 -0 18.6509 5 12.2293 -3.54465
1070 1 23.0793 -0 16.3195 5 12.2293 -3.54465
1071 1 25.5521 -0 16.3195 5 12.2293 -3.54465
1072 1 24.7278 -0 13.9882 5 12.2293 -3.54465
1073 1 27.2006 -0 13.9882 5 12.2293 -3.54465
1074 1 26.3764 -0 11.6568 5 12.2293 -3.54465
1075 1 28.8491 -0 11.6568 5 12.2293 -3.54465
1076 1 28.0249 -0 9.32545 5 12.2293 -3.54465
1077 1 30.4977 -0 9.32545 5 12.2293 -3.54465
1078 1 29.6734 -0 6.99409 5 12.2293 -3.54465
1079 1 32.1462 -0 6.99409 5 12.2293 -3.54465
1080 1 31.3219 -0 4.66273 5 12.2293 -3.54465
1081 1 33.7947 -0 4.66273 5 12.2293 -3.54465
1082 1 32.9705 -0 2.33136 5 12.2293 -3.54465
1083 1 35.4432 -0 2.33136 5 12.2293 -3.54465
1084 1 34.619 -0 0 5 12.2293 -3.54465
1085 1 37.0918 -0 0 5 12.2293 -3.54465
1086 1 0.824261 32.3043 2.33136 3 5.776e-17 -4.12244
1087 1 0 32.3043 0 3 2.811e-17 -4.12244
1088 1 2.47278 32.3043 0 3 4.0507e-16 -4.12244
1089 1 0.824261 30.2853 5.82841 3 5.776e-17 -4.12244
1090 1 0 30.2853 3.49704 3 2.304e-17 -4.12244
1091 1 2.47278 30.2853 3.49704 3 4e-16 -4.12244
1092 1 1.64852 30.2853 1.16568 3 5.945e-17 -4.12244
1093 1 4.12131 30.2853 1.16568 3 1.0169e-16 -4.12244
1094 1 0.824261 28.2663 9.32545 3 5.776e-17 -4.12244
1095 1 0 28.2663 6.99409 3 2.304e-17 -4.12244
1096 1 2.47278 28.2663 6.99409 3 4e-16 -4.12244
1097 1 1.64852 28.2663 4.66273 3 5.776e-17 -4.12244
1098 1 4.12131 28.2663 4.66273 3 1e-16 -4.12244
1099 1 3.29705 28.2663 2.33136 3 4e-16 -4.12244
1100 1 5.76983 28.2663 2.33136 3 0 -4.12244
1101 1 4.94557 28.2663 0 3 1.0507e-16 -4.12244
1102 1 7.41835 28.2663 0 3 1.0507e-16 -4.12244
1103 1 0.824261 26.2473 12.8225 3 5.776e-17 -4.12244
1104 1 0 26.2473 10.4911 3 2.304e-17 -4.12244
1105 1 2.47278 26.2473 10.4911 3 4e-16 -4.12244
1106 1 1.64852 26.2473 8.15977 3 5.776e-17 -4.12244
1107 1 4.12131 26.2473 8.15977 3 1e-16 -4.12244
1108 1 3.29705 26.2473 5.82841 3 4e-16 -4.12244
1109 1 5.76983 26.2473 5.82841 3 1.0413e-28 -4.12244
1110 1 4.94557 26.2473 3.49704 3 1e-16 -4.12244
1111 1 7.41835 26.2473 3.49704 3 1e-16 -4.12244
1112 1 6.59409 26.2473 1.16568 3 1.69e-18 -4.12244
1113 1 9.06687 26.2473 1.16568 3 4.0169e-16 -4.12244
1114 1 0.824261 24.2282 16.3195 3 5.776e-17 -4.12244
1115 1 0 24.2282 13.9882 3 2.304e-17 -4.12244
1116 1 2.47278 24.2282 13.9882 3 4e-16 -4.12244
1117 1 1.64852 24.2282 11.6568 3 5.776e-17 -4.12244
1118 1 4.12131 24.2282 11.6568 3 1e-16 -4.12244
1119 1 3.29705 24.2282 9.32545 3 4e-16 -4.12244
1120 1 5.76983 24.2282 9.32545 3 0 -4.12244
1121 1 4.94557 24.2282 6.99409 3 1e-16 -4.12244
1122 1 7.41835 24.2282 6.99409 3 1e-16 -4.12244
1123 1 6.59409 24.2282 4.66273 3 0 -4.12244
1124 1 9.06687 24.2282 4.66273 3 4e-16 -4.12244
1125 1 8.24261 24.2282 2.33136 3 9.99999e-17 -4.12244
1126 1 10.7154 24.2282 2.33136 3 1e-16 -4.12244
1127 1 9.89114 24.2282 0 3 4.0507e-16 -4.12244
1128 1 12.3639 24.2282 0 3 5.07001e-18 -4.12244
1129 1 0.824261 22.2092 19.8166 3 5.776e-17 -4.12244
1130 1 0 22.2092 17.4852 3 2.304e-17 -4.12244
1131 1 2.47278 22.2092 17.4852 3 4e-16 -4.12244
1132 1 1.64852 22.2092 15.1539 3 5.776e-17 -4.12244
1133 1 4.12131 22.2092 15.1539 3 1e-16 -4.12244
1134 1 3.29705 22.2092 12.8225 3 4e-16 -4.12244
1135 1 5.76983 22.2092 12.8225 3 3.78653e-29 -4.12244
1136 1 4.94557 22.2092 10.4911 3 1e-16 -4.12244
1137 1 7.41835 22.2092 10.4911 3 1e-16 -4.12244
1138 1 6.59409 22.2092 8.15977 3 1.26218e-29 -4.12244
1139 1 9.06687 22.2092 8.15977 3 4e-16 -4.12244
1140 1 8.24261 22.2092 5.82841 3 9.99999e-17 -4.12244
1141 1 10.7154 22.2092 5.82841 3 1e-16 -4.12244
1142 1 9.89114 22.2092 3.49704 3 4e-16 -4.12244
1143 1 12.3639 22.2092 3.49704 3 7.88861e-31 -4.12244
1144 1 11.5397 22.2092 1.16568 3 1.0169e-16 -4.12244
1145 1 14.0124 22.2092 1.16568 3 1.0169e-16 -4.12244
1146 1 0.824261 20.1902 23.3136 3 5.776e-17 -4.12244
1147 1 0 20.1902 20.9823 3 2.304e-17 -4.12244
1148 1 2.47278 20.1902 20.9823 3 4e-16 -4.12244
1149 1 1.64852 20.1902 18.6509 3 5.776e-17 -4.12244
1150 1 4.12131 20.1902 18.6509 3 1e-16 -4.12244
1151 1 3.29705 20.1902 16.3195 3 4e-16 -4.12244
1152 1 5.76983 20.1902 16.3195 3 1.00974e-28 -4.12244
1153 1 4.94557 20.1902 13.9882 3 1e-16 -4.12244
1154 1 7.41835 20.1902 13.9882 3 1e-16 -4.12244
1155 1 6.59409 20.1902 11.6568 3 0 -4.12244
1156 1 9.06687 20.1902 11.6568 3 4e-16 -4.12244
1157 1 8.24261 20.1902 9.32545 3 9.99999e-17 -4.12244
1158 1 10.7154 20.1902 9.32545 3 1e-16 -4.12244
1159 1 9.89114 20.1902 6.99409 3 4e-16 -4.12244
1160 1 12.3639 20.1902 6.99409 3 0 -4.12244
1161 1 11.5397 20.1902 4.66273 3 1e-16 -4.12244
1162 1 14.0124 20.1902 4.66273 3 1e-16 -4.12244
1163 1 13.1882 20.1902 2.33136 3 0 -4.12244
1164 1 15.661 20.1902 2.33136 3 4e-16 -4.12244
1165 1 14.8367 20.1902 0 3 1.0507e-16 -4.12244
1166 1 17.3095 20.1902 0 3 1.0507e-16 -4.12244
1167 1 0.824261 18.1712 26.8107 3 5.776e-17 -4.12244
1168 1 0 18.1712 24.4793 3 2.304e-17 -4.12244
1169 1 2.47278 18.1712 24.4793 3 4e-16 -4.12244
1170 1 1.64852 18.1712 22.1479 3 5.776e-17 -4.12244
1171 1 4.12131 18.1712 22.1479 3 1e-16 -4.12244
1172 1 3.29705 18.1712 19.8166 3 4e-16 -4.12244
1173 1 5.76983 18.1712 19.8166 3 1.00974e-28 -4.12244
1174 1 4.94557 18.1712 17.4852 3 1e-16 -4.12244
1175 1 7.41835 18.1712 17.4852 3 1e-16 -4.12244
1176 1 6.59409 18.1712 15.1539 3 1.00974e-28 -4.12244
1177 1 9.06687 18.1712 15.1539 3 4e-16 -4.12244
1178 1 8.24261 18.1712 12.8225 3 9.99999e-17 -4.12244
1179 1 10.7154 18.1712 12.8225 3 1e-16 -4.12244
1180 1 9.89114 18.1712 10.4911 3 4e-16 -4.12244
1181 1 12.3639 18.1712 10.4911 3 1.00974e-28 -4.12244
1182 1 11.5397 18.1712 8.15977 3 1e-16 -4.12244
1183 1 14.0124 18.1712 8.15977 3 1e-16 -4.12244
1184 1 13.1882 18.1712 5.82841 3 1.0413e-28 -4.12244
1185 1 15.661 18.1712 5.82841 3 4e-16 -4.12244
1186 1 14.8367 18.1712 3.49704 3 9.99999e-17 -4.12244
1187 1 17.3095 18.1712 3.49704 3 1e-16 -4.12244
1188 1 16.4852 18.1712 1.16568 3 4.0169e-16 -4.12244
1189 1 18.958 18.1712 1.16568 3 1.69e-18 -4.12244
1190 1 0.824261 16.1522 30.3077 3 5.776e-17 -4.12244
1191 1 0 16.1522 27.9764 3 2.304e-17 -4.12244
1192 1 2.47278 16.1522 27.9764 3 4e-16 -4.12244
1193 1 1.64852 16.1522 25.645 3 5.776e-17 -4.12244
1194 1 4.12131 16.1522 25.645 3 1e-16 -4.12244
1195 1 3.29705 16.1522 23.3136 3 4e-16 -4.12244
1196 1 5.76983 16.1522 23.3136 3 0 -4.12244
1197 1 4.94557 16.1522 20.9823 3 1e-16 -4.12244
1198 1 7.41835 16.1522 20.9823 3 1e-16 -4.12244
1199 1 6.59409 16.1522 18.6509 3 0 -4.12244
1200 1 9.06687 16.1522 18.6509 3 4e-16 -4.12244
1201 1 8.24261 16.1522 16.3195 3 9.99999e-17 -4.12244
1202 1 10.7154 16.1522 16.3195 3 1e-16 -4.12244
1203 1 9.89114 16.1522 13.9882 3 4e-16 -4.12244
1204 1 12.3639 16.1522 13.9882 3 2.52435e-29 -4.12244
1205 1 11.5397 16.1522 11.6568 3 1e-16 -4.12244
1206 1 14.0124 16.1522 11.6568 3 1e-16 -4.12244
1207 1 13.1882 16.1522 9.32545 3 0 -4.12244
1208 1 15.661 16.1522 9.32545 3 4e-16 -4.12244
1209 1 14.8367 16.1522 6.99409 3 9.99999e-17 -4.12244
1210 1 17.3095 16.1522 6.99409 3 1e-16 -4.12244
1211 1 16.4852 16.1522 4.66273 3 4e-16 -4.12244
1212 1 18.958 16.1522 4.66273 3 2.01948e-28 -4.12244
1213 1 18.1337 16.1522 2.33136 3 1e-16 -4.12244
1214 1 20.6065 16.1522 2.33136 3 1e-16 -4.12244
1215 1 19.7823 16.1522 0 3 1.0507e-16 -4.12244
1216 1 22.2551 16.1522 0 3 4.0507e-16 -4.12244
1217 1 0.824261 14.1331 33.8048 3 5.776e-17 -4.12244
1218 1 0 14.1331 31.4734 3 2.304e-17 -4.12244
1219 1 2.47278 14.1331 31.4734 3 4e-16 -4.12244
1220 1 1.64852 14.1331 29.142 3 5.776e-17 -4.12244
1221 1 4.12131 14.1331 29.142 3 1e-16 -4.12244
1222 1 3.29705 14.1331 26.8107 3 4e-16 -4.12244
1223 1 5.76983 14.1331 26.8107 3 0 -4.12244
1224 1 4.94557 14.1331 24.4793 3 1e-16 -4.12244
1225 1 7.41835 14.1331 24.4793 3 1e-16 -4.12244
1226 1 6.59409 14.1331 22.1479 3 0 -4.12244
1227 1 9.06687 14.1331 22.1479 3 4e-16 -4.12244
1228 1 8.24261 14.1331 19.8166 3 9.99999e-17 -4.12244
1229 1 10.7154 14.1331 19.8166 3 1e-16 -4.12244
1230 1 9.89114 14.1331 17.4852 3 4e-16 -4.12244
1231 1 12.3639 14.1331 17.4852 3 1.00974e-28 -4.12244
1232 1 11.5397 14.1331 15.1539 3 1e-16 -4.12244
1233 1 14.0124 14.1331 15.1539 3 1e-16 -4.12244
1234 1 13.1882 14.1331 12.8225 3 3.78653e-29 -4.12244
1235 1 15.661 14.1331 12.8225 3 4e-16 -4.12244
1236 1 14.8367 14.1331 10.4911 3 9.99999e-17 -4.12244
1237 1 17.3095 14.1331 10.4911 3 1e-16 -4.12244
1238 1 16.4852 14.1331 8.15977 3 4e-16 -4.12244
1239 1 18.958 14.1331 8.15977 3 2.1457e-28 -4.12244
1240 1 18.1337 14.1331 5.82841 3 1e-16 -4.12244
1241 1 20.6065 14.1331 5.82841 3 1e-16 -4.12244
1242 1 19.7823 14.1331 3.49704 3 1e-16 -4.12244
1243 1 22.2551 14.1331 3.49704 3 4e-16 -4.12244
1244 1 21.4308 14.1331 1.16568 3 4.0169e-16 -4.12244
1245 1 23.9036 14.1331 1.16568 3 1.0169e-16 -4.12244
1246 1 0.824261 12.1141 37.3018 3 5.776e-17 -4.12244
1247 1 0 12.1141 34.9704 3 2.304e-17 -4.12244
1248 1 2.47278 12.1141 34.9704 3 4e-16 -4.12244
1249 1 1.64852 12.1141 32.6391 3 5.776e-17 -4.12244
1250 1 4.12131 12.1141 32.6391 3 1e-16 -4.12244
1251 1 3.29705 12.1141 30.3077 3 4e-16 -4.12244
1252 1 5.76983 12.1141 30.3077 3 0 -4.12244
1253 1 4.94557 12.1141 27.9764 3 1e-16 -4.12244
1254 1 7.41835 12.1141 27.9764 3 1e-16 -4.12244
1255 1 6.59409 12.1141 25.645 3 1.51461e-28 -4.12244
1256 1 9.06687 12.1141 25.645 3 4e-16 -4.12244
1257 1 8.24261 12.1141 23.3136 3 9.99999e-17 -4.12244
1258 1 10.7154 12.1141 23.3136 3 1e-16 -4.12244
1259 1 9.89114 12.1141 20.9823 3 4e-16 -4.12244
1260 1 12.3639 12.1141 20.9823 3 0 -4.12244
1261 1 11.5397 12.1141 18.6509 3 1e-16 -4.12244
1262 1 14.0124 12.1141 18.6509 3 1e-16 -4.12244
1263 1 13.1882 12.1141 16.3195 3 1.00974e-28 -4.12244
1264 1 15.661 12.1141 16.3195 3 4e-16 -4.12244
1265 1 14.8367 12.1141 13.9882 3 9.99999e-17 -4.12244
1266 1 17.3095 12.1141 13.9882 3 1e-16 -4.12244
1267 1 16.4852 12.1141 11.6568 3 4e-16 -4.12244
1268 1 18.958 12.1141 11.6568 3 2.01948e-28 -4.12244
1269 1 18.1337 12.1141 9.32545 3 1e-16 -4.12244
1270 1 20.6065 12.1141 9.32545 3 1e-16 -4.12244
1271 1 19.7823 12.1141 6.99409 3 1e-16 -4.12244
1272 1 22.2551 12.1141 6.99409 3 4e-16 -4.12244
1273 1 21.4308 12.1141 4.66273 3 4e-16 -4.12244
1274 1 23.9036 12.1141 4.66273 3 1e-16 -4.12244
1275 1 23.0793 12.1141 2.33136 3 1e-16 -4.12244
1276 1 25.5521 12.1141 2.33136 3 1.51461e-28 -4.12244
1277 1 24.7278 12.1141 0 3 5.07001e-18 -4.12244
1278 1 27.2006 12.1141 0 3 1.0507e-16 -4.12244
1279 1 0.824261 10.0951 40.7989 3 5.776e-17 -4.12244
1280 1 0 10.0951 38.4675 3 2.304e-17 -4.12244
1281 1 2.47278 10.0951 38.4675 3 4e-16 -4.12244
1282 1 1.64852 10.0951 36.1361 3 5.776e-17 -4.12244
1283 1 4.12131 10.0951 36.1361 3 1e-16 -4.12244
1284 1 3.29705 10.0951 33.8048 3 4e-16 -4.12244
1285 1 5.76983 10.0951 33.8048 3 0 -4.12244
1286 1 4.94557 10.0951 31.4734 3 1e-16 -4.12244
1287 1 7.41835 10.0951 31.4734 3 1e-16 -4.12244
1288 1 6.59409 10.0951 29.142 3 1.51461e-28 -4.12244
1289 1 9.06687 10.0951 29.142 3 4e-16 -4.12244
1290 1 8.24261 10.0951 26.8107 3 9.99999e-17 -4.12244
1291 1 10.7154 10.0951 26.8107 3 1e-16 -4.12244
1292 1 9.89114 10.0951 24.4793 3 4e-16 -4.12244
1293 1 12.3639 10.0951 24.4793 3 1.00974e-28 -4.12244
1294 1 11.5397 10.0951 22.1479 3 1e-16 -4.12244
1295 1 14.0124 10.0951 22.1479 3 1e-16 -4.12244
1296 1 13.1882 10.0951 19.8166 3 0 -4.12244
1297 1 15.661 10.0951 19.8166 3 4e-16 -4.12244
1298 1 14.8367 10.0951 17.4852 3 9.99999e-17 -4.12244
1299 1 17.3095 10.0951 17.4852 3 1e-16 -4.12244
1300 1 16.4852 10.0951 15.1539 3 4e-16 -4.12244
1301 1 18.958 10.0951 15.1539 3 2.01948e-28 -4.12244
1302 1 18.1337 10.0951 12.8225 3 1e-16 -4.12244
1303 1 20.6065 10.0951 12.8225 3 1e-16 -4.12244
1304 1 19.7823 10.0951 10.4911 3 1e-16 -4.12244
1305 1 22.2551 10.0951 10.4911 3 4e-16 -4.12244
1306 1 21.4308 10.0951 8.15977 3 4e-16 -4.12244
1307 1 23.9036 10.0951 8.15977 3 1e-16 -4.12244
1308 1 23.0793 10.0951 5.82841 3 1e-16 -4.12244
1309 1 25.5521 10.0951 5.82841 3 1.54617e-28 -4.12244
1310 1 24.7278 10.0951 3.49704 3 7.88861e-31 -4.12244
1311 1 27.2006 10.0951 3.49704 3 1e-16 -4.12244
1312 1 26.3764 10.0951 1.16568 3 1.0169e-16 -4.12244
1313 1 28.8491 10.0951 1.16568 3 4.0169e-16 -4.12244
1314 1 0.824261 8.07608 44.2959 3 5.776e-17 -4.12244
1315 1 0 8.07608 41.9645 3 2.304e-17 -4.12244
1316 1 2.47278 8.07608 41.9645 3 4e-16 -4.12244
1317 1 1.64852 8.07608 39.6332 3 5.776e-17 -4.12244
1318 1 4.12131 8.07608 39.6332 3 1e-16 -4.12244
1319 1 3.29705 8.07608 37.3018 3 4e-16 -4.12244
1320 1 5.76983 8.07608 37.3018 3 0 -4.12244
1321 1 4.94557 8.07608 34.9704 3 1e-16 -4.12244
1322 1 7.41835 8.07608 34.9704 3 1e-16 -4.12244
1323 1 6.59409 8.07608 32.6391 3 2.01948e-28 -4.12244
1324 1 9.06687 8.07608 32.6391 3 4e-16 -4.12244
1325 1 8.24261 8.07608 30.3077 3 9.99999e-17 -4.12244
1326 1 10.7154 8.07608 30.3077 3 1e-16 -4.12244
1327 1 9.89114 8.07608 27.9764 3 4e-16 -4.12244
1328 1 12.3639 8.07608 27.9764 3 1.51461e-28 -4.12244
1329 1 11.5397 8.07608 25.645 3 1e-16 -4.12244
1330 1 14.0124 8.07608 25.645 3 1e-16 -4.12244
1331 1 13.1882 8.07608 23.3136 3 0 -4.12244
1332 1 15.661 8.07608 23.3136 3 4e-16 -4.12244
1333 1 14.8367 8.07608 20.9823 3 9.99999e-17 -4.12244
1334 1 17.3095 8.07608 20.9823 3 1e-16 -4.12244
1335 1 16.4852 8.07608 18.6509 3 4e-16 -4.12244
1336 1 18.958 8.07608 18.6509 3 2.01948e-28 -4.12244
1337 1 18.1337 8.07608 16.3195 3 1e-16 -4.12244
1338 1 20.6065 8.07608 16.3195 3 1e-16 -4.12244
1339 1 19.7823 8.07608 13.9882 3 1e-16 -4.12244
1340 1 22.2551 8.07608 13.9882 3 4e-16 -4.12244
1341 1 21.4308 8.07608 11.6568 3 4e-16 -4.12244
1342 1 23.9036 8.07608 11.6568 3 1e-16 -4.12244
1343 1 23.0793 8.07608 9.32545 3 1e-16 -4.12244
1344 1 25.5521 8.07608 9.32545 3 1.51461e-28 -4.12244
1345 1 24.7278 8.07608 6.99409 3 0 -4.12244
1346 1 27.2006 8.07608 6.99409 3 1e-16 -4.12244
1347 1 26.3764 8.07608 4.66273 3 1e-16 -4.12244
1348 1 28.8491 8.07608 4.66273 3 4e-16 -4.12244
1349 1 28.0249 8.07608 2.33136 3 3.99999e-16 -4.12244
1350 1 30.4977 8.07608 2.33136 3 9.99999e-17 -4.12244
1351 1 29.6734 8.07608 0 3 1.0507e-16 -4.12244
1352 1 32.1462 8.07608 0 3 1.0507e-16 -4.12244
1353 1 0.824261 6.05706 47.7929 3 6.28299e-17 -4.12244
1354 1 0 6.05706 45.4616 3 2.304e-17 -4.12244
1355 1 2.47278 6.05706 45.4616 3 4e-16 -4.12244
1356 1 1.64852 6.05706 43.1302 3 5.776e-17 -4.12244
1357 1 4.12131 6.05706 43.1302 3 1e-16 -4.12244
1358 1 3.29705 6.05706 40.7989 3 4e-16 -4.12244
1359 1 5.76983 6.05706 40.7989 3 6.05845e-28 -4.12244
1360 1 4.94557 6.05706 38.4675 3 1e-16 -4.12244
1361 1 7.41835 6.05706 38.4675 3 1e-16 -4.12244
1362 1 6.59409 6.05706 36.1361 3 6.05845e-28 -4.12244
1363 1 9.06687 6.05706 36.1361 3 4e-16 -4.12244
1364 1 8.24261 6.05706 33.8048 3 9.99999e-17 -4.12244
1365 1 10.7154 6.05706 33.8048 3 1e-16 -4.12244
1366 1 9.89114 6.05706 31.4734 3 4e-16 -4.12244
1367 1 12.3639 6.05706 31.4734 3 5.04871e-29 -4.12244
1368 1 11.5397 6.05706 29.142 3 1e-16 -4.12244
1369 1 14.0124 6.05706 29.142 3 1e-16 -4.12244
1370 1 13.1882 6.05706 26.8107 3 0 -4.12244
1371 1 15.661 6.05706 26.8107 3 4e-16 -4.12244
1372 1 14.8367 6.05706 24.4793 3 9.99999e-17 -4.12244
1373 1 17.3095 6.05706 24.4793 3 1e-16 -4.12244
1374 1 16.4852 6.05706 22.1479 3 4e-16 -4.12244
1375 1 18.958 6.05706 22.1479 3 2.01948e-28 -4.12244
1376 1 18.1337 6.05706 19.8166 3 1e-16 -4.12244
1377 1 20.6065 6.05706 19.8166 3 1e-16 -4.12244
1378 1 19.7823 6.05706 17.4852 3 1e-16 -4.12244
1379 1 22.2551 6.05706 17.4852 3 4e-16 -4.12244
1380 1 21.4308 6.05706 15.1539 3 4e-16 -4.12244
1381 1 23.9036 6.05706 15.1539 3 1e-16 -4.12244
1382 1 23.0793 6.05706 12.8225 3 1e-16 -4.12244
1383 1 25.5521 6.05706 12.8225 3 1.89327e-28 -4.12244
1384 1 24.7278 6.05706 10.4911 3 0 -4.12244
1385 1 27.2006 6.05706 10.4911 3 1e-16 -4.12244
1386 1 26.3764 6.05706 8.15977 3 1e-16 -4.12244
1387 1 28.8491 6.05706 8.15977 3 4e-16 -4.12244
1388 1 28.0249 6.05706 5.82841 3 3.99999e-16 -4.12244
1389 1 30.4977 6.05706 5.82841 3 9.99999e-17 -4.12244
1390 1 29.6734 6.05706 3.49704 3 1e-16 -4.12244
1391 1 32.1462 6.05706 3.49704 3 9.99999e-17 -4.12244
1392 1 31.3219 6.05706 1.16568 3 1.69e-18 -4.12244
1393 1 33.7947 6.05706 1.16568 3 4.01691e-16 -4.12244
1394 1 1.64852 4.03804 46.6273 3 5.945e-17 -4.12244
1395 1 4.12131 4.03804 46.6273 3 1.0169e-16 -4.12244
1396 1 3.29705 4.03804 44.2959 3 4e-16 -4.12244
1397 1 5.76983 4.03804 44.2959 3 0 -4.12244
1398 1 4.94557 4.03804 41.9645 3 1e-16 -4.12244
1399 1 7.41835 4.03804 41.9645 3 1e-16 -4.12244
1400 1 6.59409 4.03804 39.6332 3 0 -4.12244
1401 1 9.06687 4.03804 39.6332 3 4e-16 -4.12244
1402 1 8.24261 4.03804 37.3018 3 9.99999e-17 -4.12244
1403 1 10.7154 4.03804 37.3018 3 1e-16 -4.12244
1404 1 9.89114 4.03804 34.9704 3 4e-16 -4.12244
1405 1 12.3639 4.03804 34.9704 3 2.01948e-28 -4.12244
1406 1 11.5397 4.03804 32.6391 3 1e-16 -4.12244
1407 1 14.0124 4.03804 32.6391 3 1e-16 -4.12244
1408 1 13.1882 4.03804 30.3077 3 0 -4.12244
1409 1 15.661 4.03804 30.3077 3 4e-16 -4.12244
1410 1 14.8367 4.03804 27.9764 3 9.99999e-17 -4.12244
1411 1 17.3095 4.03804 27.9764 3 1e-16 -4.12244
1412 1 16.4852 4.03804 25.645 3 4e-16 -4.12244
1413 1 18.958 4.03804 25.645 3 3.5341e-28 -4.12244
1414 1 18.1337 4.03804 23.3136 3 1e-16 -4.12244
1415 1 20.6065 4.03804 23.3136 3 1e-16 -4.12244
1416 1 19.7823 4.03804 20.9823 3 1e-16 -4.12244
1417 1 22.2551 4.03804 20.9823 3 4e-16 -4.12244
1418 1 21.4308 4.03804 18.6509 3 4e-16 -4.12244
1419 1 23.9036 4.03804 18.6509 3 1e-16 -4.12244
1420 1 23.0793 4.03804 16.3195 3 1e-16 -4.12244
1421 1 25.5521 4.03804 16.3195 3 2.52435e-28 -4.12244
1422 1 24.7278 4.03804 13.9882 3 2.52435e-29 -4.12244
1423 1 27.2006 4.03804 13.9882 3 1e-16 -4.12244
1424 1 26.3764 4.03804 11.6568 3 1e-16 -4.12244
1425 1 28.8491 4.03804 11.6568 3 4e-16 -4.12244
1426 1 28.0249 4.03804 9.32545 3 3.99999e-16 -4.12244
1427 1 30.4977 4.03804 9.32545 3 9.99999e-17 -4.12244
1428 1 29.6734 4.03804 6.99409 3 1e-16 -4.12244
1429 1 32.1462 4.03804 6.99409 3 9.99999e-17 -4.12244
1430 1 31.3219 4.03804 4.66273 3 0 -4.12244
1431 1 33.7947 4.03804 4.66273 3 4.00001e-16 -4.12244
1432 1 32.9705 4.03804 2.33136 3 9.99999e-17 -4.12244
1433 1 35.4432 4.03804 2.33136 3 1e-16 -4.12244
1434 1 34.619 4.03804 0 3 4.0507e-16 -4.12244
1435 1 37.0918 4.03804 0 3 5.07001e-18 -4.12244
1436 1 3.29705 2.01902 47.7929 3 4.0507e-16 -4.10627
1437 1 5.76983 2.01902 47.7929 3 5.06996e-18 -4.10627
1438 1 4.94557 2.01902 45.4616 3 1e-16 -4.10627
1439 1 7.41835 2.01902 45.4616 3 1e-16 -4.10627
1440 1 6.59409 2.01902 43.1302 3 6.05845e-28 -4.10627
1441 1 9.06687 2.01902 43.1302 3 4e-16 -4.10627
1442 1 8.24261 2.01902 40.7989 3 9.99999e-17 -4.10627
1443 1 10.7154 2.01902 40.7989 3 1e-16 -4.10627
1444 1 9.89114 2.01902 38.4675 3 4e-16 -4.10627
1445 1 12.3639 2.01902 38.4675 3 0 -4.10627
1446 1 11.5397 2.01902 36.1361 3 1e-16 -4.10627
1447 1 14.0124 2.01902 36.1361 3 1e-16 -4.10627
1448 1 13.1882 2.01902 33.8048 3 0 -4.10627
1449 1 15.661 2.01902 33.8048 3 4e-16 -4.10627
1450 1 14.8367 2.01902 31.4734 3 9.99999e-17 -4.10627
1451 1 17.3095 2.01902 31.4734 3 1e-16 -4.10627
1452 1 16.4852 2.01902 29.142 3 4e-16 -4.10627
1453 1 18.958 2.01902 29.142 3 3.5341e-28 -4.10627
1454 1 18.1337 2.01902 26.8107 3 1e-16 -4.10627
1455 1 20.6065 2.01902 26.8107 3 1e-16 -4.10627
1456 1 19.7823 2.01902 24.4793 3 1e-16 -4.10627
1457 1 22.2551 2.01902 24.4793 3 4e-16 -4.10627
1458 1 21.4308 2.01902 22.1479 3 4e-16 -4.10627
1459 1 23.9036 2.01902 22.1479 3 1e-16 -4.10627
1460 1 23.0793 2.01902 19.8166 3 1e-16 -4.10627
1461 1 25.5521 2.01902 19.8166 3 1.51461e-28 -4.10627
1462 1 24.7278 2.01902 17.4852 3 1.00974e-28 -4.10627
1463 1 27.2006 2.01902 17.4852 3 1e-16 -4.10627
1464 1 26.3764 2.01902 15.1539 3 1e-16 -4.10627
1465 1 28.8491 2.01902 15.1539 3 4e-16 -4.10627
1466 1 28.0249 2.01902 12.8225 3 3.99999e-16 -4.10627
1467 1 30.4977 2.01902 12.8225 3 9.99999e-17 -4.10627
1468 1 29.6734 2.01902 10.4911 3 1e-16 -4.10627
1469 1 32.1462 2.01902 10.4911 3 9.99999e-17 -4.10627
1470 1 31.3219 2.01902 8.15977 3 1.26218e-29 -4.10627
1471 1 33.7947 2.01902 8.15977 3 4.00001e-16 -4.10627
1472 1 32.9705 2.01902 5.82841 3 9.99999e-17 -4.10627
1473 1 35.4432 2.01902 5.82841 3 1e-16 -4.10627
1474 1 34.619 2.01902 3.49704 3 4e-16 -4.10627
1475 1 37.0918 2.01902 3.49704 3 7.88861e-31 -4.10627
1476 1 36.2675 2.01902 1.16568 3 1.0169e-16 -4.10627
1477 1 38.7403 2.01902 1.16568 3 1.0169e-16 -4.10627
1478 1 6.59409 0 46.6273 5 12.2293 -3.54465
1479 1 9.06687 0 46.6273 5 12.2293 -3.54465
1480 1 8.24261 0 44.2959 5 12.2293 -3.54465
1481 1 10.7154 0 44.2959 5 12.2293 -3.54465
1482 1 9.89114 0 41.9645 5 12.2293 -3.54465
1483 1 12.3639 0 41.9645 5 12.2293 -3.54465
1484 1 11.5397 0 39.6332 5 12.2293 -3.54465
1485 1 14.0124 0 39.6332 5 12.2293 -3.54465
1486 1 13.1882 0 37.3018 5 12.2293 -3.54465
1487 1 15.661 0 37.3018 5 12.2293 -3.54465
1488 1 14.8367 0 34.9704 5 12.2293 -3.54465
1489 1 17.3095 0 34.9704 5 12.2293 -3.54465
1490 1 16.4852 0 32.6391 5 12.2293 -3.54465
1491 1 18.958 0 32.6391 5 12.2293 -3.54465
1492 1 18.1337 0 30.3077 5 12.2293 -3.54465
1493 1 20.6065 0 30.3077 5 12.2293 -3.54465
1494 1 19.7823 0 27.9764 5 12.2293 -3.54465
1495 1 22.2551 0 27.9764 5 12.2293 -3.54465
1496 1 21.4308 0 25.645 5 12.2293 -3.54465
1497 1 23.9036 0 25.645 5 12.2293 -3.54465
1498 1 23.0793 0 23.3136 5 12.2293 -3.54465
1499 1 25.5521 0 23.3136 5 12.2293 -3.54465
1500 1 24.7278 0 20.9823 5 12.2293 -3.54465
1501 1 27.2006 0 20.9823 5 12.2293 -3.54465
1502 1 26.3764 0 18.6509 5 12.2293 -3.54465
1503 1 28.8491 0 18.6509 5 12.2293 -3.54465
1504 1 28.0249 0 16.3195 5 12.2293 -3.54465
1505 1 30.4977 0 16.3195 5 12.2293 -3.54465
1506 1 29.6734 0 13.9882 5 12.2293 -3.54465
1507 1 32.1462 0 13.9882 5 12.2293 -3.54465
1508 1 31.3219 0 11.6568 5 12.2293 -3.54465
1509 1 33.7947 0 11.6568 5 12.2293 -3.54465
1510 1 32.9705 0 9.32545 5 12.2293 -3.54465
1511 1 35.4432 0 9.32545 5 12.2293 -3.54465
1512 1 34.619 0 6.99409 5 12.2293 -3.54465
1513 1 37.0918 0 6.99409 5 12.2293 -3.54465
1514 1 36.2675 0 4.66273 5 12.2293 -3.54465
1515 1 38.7403 0 4.66273 5 12.2293 -3.54465
1516 1 37.916 0 2.33136 5 12.2293 -3.54465
1517 1 40.3888 0 2.33136 5 12.2293 -3.54465
1518 1 39.5645 0 0 5 12.2293 -3.54465
1519 1 42.0373 0 0 5 12.2293 -3.54465
1520 1 0.824261 36.3424 2.33136 3 5.776e-17 -4.12244
1521 1 0 36.3424 0 3 2.811e-17 -4.12244
1522 1 2.47278 36.3424 0 3 4.0507e-16 -4.12244
1523 1 0.824261 34.3233 5.82841 3 5.776e-17 -4.12244
1524 1 0 34.3233 3.49704 3 2.304e-17 -4.12244
1525 1 2.47278 34.3233 3.49704 3 4e-16 -4.12244
1526 1 1.64852 34.3233 1.16568 3 5.945e-17 -4.12244
1527 1 4.12131 34.3233 1.16568 3 1.0169e-16 -4.12244
1528 1 0.824261 32.3043 9.32545 3 5.776e-17 -4.12244
1529 1 0 32.3043 6.99409 3 2.304e-17 -4.12244
1530 1 2.47278 32.3043 6.99409 3 4e-16 -4.12244
1531 1 1.64852 32.3043 4.66273 3 5.776e-17 -4.12244
1532 1 4.12131 32.3043 4.66273 3 1e-16 -4.12244
1533 1 3.29705 32.3043 2.33136 3 4e-16 -4.12244
1534 1 5.76983 32.3043 2.33136 3 0 -4.12244
1535 1 4.94557 32.3043 0 3 1.0507e-16 -4.12244
1536 1 7.41835 32.3043 0 3 1.0507e-16 -4.12244
1537 1 0.824261 30.2853 12.8225 3 5.776e-17 -4.12244
1538 1 0 30.2853 10.4911 3 2.304e-17 -4.12244
1539 1 2.47278 30.2853 10.4911 3 4e-16 -4.12244
1540 1 1.64852 30.2853 8.15977 3 5.776e-17 -4.12244
1541 1 4.12131 30.2853 8.15977 3 1e-16 -4.12244
1542 1 3.29705 30.2853 5.82841 3 4e-16 -4.12244
1543 1 5.76983 30.2853 5.82841 3 1.0413e-28 -4.12244
1544 1 4.94557 30.2853 3.49704 3 1e-16 -4.12244
1545 1 7.41835 30.2853 3.49704 3 1e-16 -4.12244
1546 1 6.59409 30.2853 1.16568 3 1.69e-18 -4.12244
1547 1 9.06687 30.2853 1.16568 3 4.0169e-16 -4.12244
1548 1 0.824261 28.2663 16.3195 3 5.776e-17 -4.12244
1549 1 0 28.2663 13.9882 3 2.304e-17 -4.12244
1550 1 2.47278 28.2663 13.9882 3 4e-16 -4.12244
1551 1 1.64852 28.2663 11.6568 3 5.776e-17 -4.12244
1552 1 4.12131 28.2663 11.6568 3 1e-16 -4.12244
1553 1 3.29705 28.2663 9.32545 3 4e-16 -4.12244
1554 1 5.76983 28.2663 9.32545 3 0 -4.12244
1555 1 4.94557 28.2663 6.99409 3 1e-16 -4.12244
1556 1 7.41835 28.2663 6.99409 3 1e-16 -4.12244
1557 1 6.59409 28.2663 4.66273 3 0 -4.12244
1558 1 9.06687 28.2663 4.66273 3 4e-16 -4.12244
1559 1 8.24261 28.2663 2.33136 3 9.99999e-17 -4.12244
1560 1 10.7154 28.2663 2.33136 3 1e-16 -4.12244
1561 1 9.89114 28.2663 0 3 4.0507e-16 -4.12244
1562 1 12.3639 28.2663 0 3 5.07001e-18 -4.12244
1563 1 0.824261 26.2473 19.8166 3 5.776e-17 -4.12244
1564 1 0 26.2473 17.4852 3 2.304e-17 -4.12244
1565 1 2.47278 26.2473 17.4852 3 4e-16 -4.12244
1566 1 1.64852 26.2473 15.1539 3 5.776e-17 -4.12244
1567 1 4.12131 26.2473 15.1539 3 1e-16 -4.12244
1568 1 3.29705 26.2473 12.8225 3 4e-16 -4.12244
1569 1 5.76983 26.2473 12.8225 3 1.3884e-28 -4.12244
1570 1 4.94557 26.2473 10.4911 3 1e-16 -4.12244
1571 1 7.41835 26.2473 10.4911 3 1e-16 -4.12244
1572 1 6.59409 26.2473 8.15977 3 1.13596e-28 -4.12244
1573 1 9.06687 26.2473 8.15977 3 4e-16 -4.12244
1574 1 8.24261 26.2473 5.82841 3 9.99999e-17 -4.12244
1575 1 10.7154 26.2473 5.82841 3 1e-16 -4.12244
1576 1 9.89114 26.2473 3.49704 3 4e-16 -4.12244
1577 1 12.3639 26.2473 3.49704 3 1.01763e-28 -4.12244
1578 1 11.5397 26.2473 1.16568 3 1.0169e-16 -4.12244
1579 1 14.0124 26.2473 1.16568 3 1.0169e-16 -4.12244
1580 1 0.824261 24.2282 23.3136 3 5.776e-17 -4.12244
1581 1 0 24.2282 20.9823 3 2.304e-17 -4.12244
1582 1 2.47278 24.2282 20.9823 3 4e-16 -4.12244
1583 1 1.64852 24.2282 18.6509 3 5.776e-17 -4.12244
1584 1 4.12131 24.2282 18.6509 3 1e-16 -4.12244
1585 1 3.29705 24.2282 16.3195 3 4e-16 -4.12244
1586 1 5.76983 24.2282 16.3195 3 1.00974e-28 -4.12244
1587 1 4.94557 24.2282 13.9882 3 1e-16 -4.12244
1588 1 7.41835 24.2282 13.9882 3 1e-16 -4.12244
1589 1 6.59409 24.2282 11.6568 3 0 -4.12244
1590 1 9.06687 24.2282 11.6568 3 4e-16 -4.12244
1591 1 8.24261 24.2282 9.32545 3 9.99999e-17 -4.12244
1592 1 10.7154 24.2282 9.32545 3 1e-16 -4.12244
1593 1 9.89114 24.2282 6.99409 3 4e-16 -4.12244
1594 1 12.3639 24.2282 6.99409 3 0 -4.12244
1595 1 11.5397 24.2282 4.66273 3 1e-16 -4.12244
1596 1 14.0124 24.2282 4.66273 3 1e-16 -4.12244
1597 1 13.1882 24.2282 2.33136 3 0 -4.12244
1598 1 15.661 24.2282 2.33136 3 4e-16 -4.12244
1599 1 14.8367 24.2282 0 3 1.0507e-16 -4.12244
1600 1 17.3095 24.2282 0 3 1.0507e-16 -4.12244
1601 1 0.824261 22.2092 26.8107 3 5.776e-17 -4.12244
1602 1 0 22.2092 24.4793 3 2.304e-17 -4.12244
1603 1 2.47278 22.2092 24.4793 3 4e-16 -4.12244
1604 1 1.64852 22.2092 22.1479 3 5.776e-17 -4.12244
1605 1 4.12131 22.2092 22.1479 3 1e-16 -4.12244
1606 1 3.29705 22.2092 19.8166 3 4e-16 -4.12244
1607 1 5.76983 22.2092 19.8166 3 0 -4.12244
1608 1 4.94557 22.2092 17.4852 3 1e-16 -4.12244
1609 1 7.41835 22.2092 17.4852 3 1e-16 -4.12244
1610 1 6.59409 22.2092 15.1539 3 0 -4.12244
1611 1 9.06687 22.2092 15.1539 3 4e-16 -4.12244
1612 1 8.24261 22.2092 12.8225 3 9.99999e-17 -4.12244
1613 1 10.7154 22.2092 12.8225 3 1e-16 -4.12244
1614 1 9.89114 22.2092 10.4911 3 4e-16 -4.12244
1615 1 12.3639 22.2092 10.4911 3 0 -4.12244
1616 1 11.5397 22.2092 8.15977 3 1e-16 -4.12244
1617 1 14.0124 22.2092 8.15977 3 1e-16 -4.12244
1618 1 13.1882 22.2092 5.82841 3 3.15544e-30 -4.12244
1619 1 15.661 22.2092 5.82841 3 4e-16 -4.12244
1620 1 14.8367 22.2092 3.49704 3 9.99999e-17 -4.12244
1621 1 17.3095 22.2092 3.49704 3 1e-16 -4.12244
1622 1 16.4852 22.2092 1.16568 3 4.0169e-16 -4.12244
1623 1 18.958 22.2092 1.16568 3 1.69e-18 -4.12244
1624 1 0.824261 20.1902 30.3077 3 5.776e-17 -4.12244
1625 1 0 20.1902 27.9764 3 2.304e-17 -4.12244
1626 1 2.47278 20.1902 27.9764 3 4e-16 -4.12244
1627 1 1.64852 20.1902 25.645 3 5.776e-17 -4.12244
1628 1 4.12131 20.1902 25.645 3 1e-16 -4.12244
1629 1 3.29705 20.1902 23.3136 3 4e-16 -4.12244
1630 1 5.76983 20.1902 23.3136 3 0 -4.12244
1631 1 4.94557 20.1902 20.9823 3 1e-16 -4.12244
1632 1 7.41835 20.1902 20.9823 3 1e-16 -4.12244
1633 1 6.59409 20.1902 18.6509 3 0 -4.12244
1634 1 9.06687 20.1902 18.6509 3 4e-16 -4.12244
1635 1 8.24261 20.1902 16.3195 3 9.99999e-17 -4.12244
1636 1 10.7154 20.1902 16.3195 3 1e-16 -4.12244
1637 1 9.89114 20.1902 13.9882 3 4e-16 -4.12244
1638 1 12.3639 20.1902 13.9882 3 2.52435e-29 -4.12244
1639 1 11.5397 20.1902 11.6568 3 1e-16 -4.12244
1640 1 14.0124 20.1902 11.6568 3 1e-16 -4.12244
1641 1 13.1882 20.1902 9.32545 3 0 -4.12244
1642 1 15.661 20.1902 9.32545 3 4e-16 -4.12244
1643 1 14.8367 20.1902 6.99409 3 9.99999e-17 -4.12244
1644 1 17.3095 20.1902 6.99409 3 1e-16 -4.12244
1645 1 16.4852 20.1902 4.66273 3 4e-16 -4.12244
1646 1 18.958 20.1902 4.66273 3 2.01948e-28 -4.12244
1647 1 18.1337 20.1902 2.33136 3 1e-16 -4.12244
1648 1 20.6065 20.1902 2.33136 3 1e-16 -4.12244
1649 1 19.7823 20.1902 0 3 1.0507e-16 -4.12244
1650 1 22.2551 20.1902 0 3 4.0507e-16 -4.12244
1651 1 0.824261 18.1712 33.8048 3 5.776e-17 -4.12244
1652 1 0 18.1712 31.4734 3 2.304e-17 -4.12244
1653 1 2.47278 18.1712 31.4734 3 4e-16 -4.12244
1654 1 1.64852 18.1712 29.142 3 5.776e-17 -4.12244
1655 1 4.12131 18.1712 29.142 3 1e-16 -4.12244
1656 1 3.29705 18.1712 26.8107 3 4e-16 -4.12244
1657 1 5.76983 18.1712 26.8107 3 1.00974e-28 -4.12244
1658 1 4.94557 18.1712 24.4793 3 1e-16 -4.12244
1659 1 7.41835 18.1712 24.4793 3 1e-16 -4.12244
1660 1 6.59409 18.1712 22.1479 3 1.00974e-28 -4.12244
1661 1 9.06687 18.1712 22.1479 3 4e-16 -4.12244
1662 1 8.24261 18.1712 19.8166 3 9.99999e-17 -4.12244
1663 1 10.7154 18.1712 19.8166 3 1e-16 -4.12244
1664 1 9.89114 18.1712 17.4852 3 4e-16 -4.12244
1665 1 12.3639 18.1712 17.4852 3 2.01948e-28 -4.12244
1666 1 11.5397 18.1712 15.1539 3 1e-16 -4.12244
1667 1 14.0124 18.1712 15.1539 3 1e-16 -4.12244
1668 1 13.1882 18.1712 12.8225 3 1.3884e-28 -4.12244
1669 1 15.661 18.1712 12.8225 3 4e-16 -4.12244
1670 1 14.8367 18.1712 10.4911 3 9.99999e-17 -4.12244
1671 1 17.3095 18.1712 10.4911 3 1e-16 -4.12244
1672 1 16.4852 18.1712 8.15977 3 4e-16 -4.12244
1673 1 18.958 18.1712 8.15977 3 3.15544e-28 -4.12244
1674 1 18.1337 18.1712 5.82841 3 1e-16 -4.12244
1675 1 20.6065 18.1712 5.82841 3 1e-16 -4.12244
1676 1 19.7823 18.1712 3.49704 3 1e-16 -4.12244
1677 1 22.2551 18.1712 3.49704 3 4e-16 -4.12244
1678 1 21.4308 18.1712 1.16568 3 4.0169e-16 -4.12244
1679 1 23.9036 18.1712 1.16568 3 1.0169e-16 -4.12244
1680 1 0.824261 16.1522 37.3018 3 5.776e-17 -4.12244
1681 1 0 16.1522 34.9704 3 2.304e-17 -4.12244
1682 1 2.47278 16.1522 34.9704 3 4e-16 -4.12244
1683 1 1.64852 16.1522 32.6391 3 5.776e-17 -4.12244
1684 1 4.12131 16.1522 32.6391 3 1e-16 -4.12244
1685 1 3.29705 16.1522 30.3077 3 4e-16 -4.12244
1686 1 5.76983 16.1522 30.3077 3 0 -4.12244
1687 1 4.94557 16.1522 27.9764 3 1e-16 -4.12244
1688 1 7.41835 16.1522 27.9764 3 1e-16 -4.12244
1689 1 6.59409 16.1522 25.645 3 1.51461e-28 -4.12244
1690 1 9.06687 16.1522 25.645 3 4e-16 -4.12244
1691 1 8.24261 16.1522 23.3136 3 9.99999e-17 -4.12244
1692 1 10.7154 16.1522 23.3136 3 1e-16 -4.12244
1693 1 9.89114 16.1522 20.9823 3 4e-16 -4.12244
1694 1 12.3639 16.1522 20.9823 3 0 -4.12244
1695 1 11.5397 16.1522 18.6509 3 1e-16 -4.12244
1696 1 14.0124 16.1522 18.6509 3 1e-16 -4.12244
1697 1 13.1882 16.1522 16.3195 3 1.00974e-28 -4.12244
1698 1 15.661 16.1522 16.3195 3 4e-16 -4.12244
1699 1 14.8367 16.1522 13.9882 3 9.99999e-17 -4.12244
1700 1 17.3095 16.1522 13.9882 3 1e-16 -4.12244
1701 1 16.4852 16.1522 11.6568 3 4e-16 -4.12244
1702 1 18.958 16.1522 11.6568 3 2.01948e-28 -4.12244
1703 1 18.1337 16.1522 9.32545 3 1e-16 -4.12244
1704 1 20.6065 16.1522 9.32545 3 1e-16 -4.12244
1705 1 19.7823 16.1522 6.99409 3 1e-16 -4.12244
1706 1 22.2551 16.1522 6.99409 3 4e-16 -4.12244
1707 1 21.4308 16.1522 4.66273 3 4e-16 -4.12244
1708 1 23.9036 16.1522 4.66273 3 1e-16 -4.12244
1709 1 23.0793 16.1522 2.33136 3 1e-16 -4.12244
1710 1 25.5521 16.1522 2.33136 3 1.51461e-28 -4.12244
1711 1 24.7278 16.1522 0 3 5.07001e-18 -4.12244
1712 1 27.2006 16.1522 0 3 1.0507e-16 -4.12244
1713 1 0.824261 14.1331 40.7989 3 5.776e-17 -4.12244
1714 1 0 14.1331 38.4675 3 2.304e-17 -4.12244
1715 1 2.47278 14.1331 38.4675 3 4e-16 -4.12244
1716 1 1.64852 14.1331 36.1361 3 5.776e-17 -4.12244
1717 1 4.12131 14.1331 36.1361 3 1e-16 -4.12244
1718 1 3.29705 14.1331 33.8048 3 4e-16 -4.12244
1719 1 5.76983 14.1331 33.8048 3 0 -4.12244
1720 1 4.94557 14.1331 31.4734 3 1e-16 -4.12244
1721 1 7.41835 14.1331 31.4734 3 1e-16 -4.12244
1722 1 6.59409 14.1331 29.142 3 1.51461e-28 -4.12244
1723 1 9.06687 14.1331 29.142 3 4e-16 -4.12244
1724 1 8.24261 14.1331 26.8107 3 9.99999e-17 -4.12244
1725 1 10.7154 14.1331 26.8107 3 1e-16 -4.12244
1726 1 9.89114 14.1331 24.4793 3 4e-16 -4.12244
1727 1 12.3639 14.1331 24.4793 3 1.00974e-28 -4.12244
1728 1 11.5397 14.1331 22.1479 3 1e-16 -4.12244
1729 1 14.0124 14.1331 22.1479 3 1e-16 -4.12244
1730 1 13.1882 14.1331 19.8166 3 0 -4.12244
1731 1 15.661 14.1331 19.8166 3 4e-16 -4.12244
1732 1 14.8367 14.1331 17.4852 3 9.99999e-17 -4.12244
1733 1 17.3095 14.1331 17.4852 3 1e-16 -4.12244
1734 1 16.4852 14.1331 15.1539 3 4e-16 -4.12244
1735 1 18.958 14.1331 15.1539 3 2.01948e-28 -4.12244
1736 1 18.1337 14.1331 12.8225 3 1e-16 -4.12244
1737 1 20.6065 14.1331 12.8225 3 1e-16 -4.12244
1738 1 19.7823 14.1331 10.4911 3 1e-16 -4.12244
1739 1 22.2551 14.1331 10.4911 3 4e-16 -4.12244
1740 1 21.4308 14.1331 8.15977 3 4e-16 -4.12244
1741 1 23.9036 14.1331 8.15977 3 1e-16 -4.12244
1742 1 23.0793 14.1331 5.82841 3 1e-16 -4.12244
1743 1 25.5521 14.1331 5.82841 3 1.54617e-28 -4.12244
1744 1 24.7278 14.1331 3.49704 3 7.88861e-31 -4.12244
1745 1 27.2006 14.1331 3.49704 3 1e-16 -4.12244
1746 1 26.3764 14.1331 1.16568 3 1.0169e-16 -4.12244
1747 1 28.8491 14.1331 1.16568 3 4.0169e-16 -4.12244
1748 1 0.824261 12.1141 44.2959 3 5.776e-17 -4.12244
1749 1 0 12.1141 41.9645 3 2.304e-17 -4.12244
1750 1 2.47278 12.1141 41.9645 3 4e-16 -4.12244
1751 1 1.64852 12.1141 39.6332 3 5.776e-17 -4.12244
1752 1 4.12131 12.1141 39.6332 3 1e-16 -4.12244
1753 1 3.29705 12.1141 37.3018 3 4e-16 -4.12244
1754 1 5.76983 12.1141 37.3018 3 0 -4.12244
1755 1 4.94557 12.1141 34.9704 3 1e-16 -4.12244
1756 1 7.41835 12.1141 34.9704 3 1e-16 -4.12244
1757 1 6.59409 12.1141 32.6391 3 2.01948e-28 -4.12244
1758 1 9.06687 12.1141 32.6391 3 4e-16 -4.12244
1759 1 8.24261 12.1141 30.3077 3 9.99999e-17 -4.12244
1760 1 10.7154 12.1141 30.3077 3 1e-16 -4.12244
1761 1 9.89114 12.1141 27.9764 3 4e-16 -4.12244
1762 1 12.3639 12.1141 27.9764 3 1.51461e-28 -4.12244
1763 1 11.5397 12.1141 25.645 3 1e-16 -4.12244
1764 1 14.0124 12.1141 25.645 3 1e-16 -4.12244
1765 1 13.1882 12.1141 23.3136 3 0 -4.12244
1766 1 15.661 12.1141 23.3136 3 4e-16 -4.12244
1767 1 14.8367 12.1141 20.9823 3 9.99999e-17 -4.12244
1768 1 17.3095 12.1141 20.9823 3 1e-16 -4.12244
1769 1 16.4852 12.1141 18.6509 3 4e-16 -4.12244
1770 1 18.958 12.1141 18.6509 3 2.01948e-28 -4.12244
1771 1 18.1337 12.1141 16.3195 3 1e-16 -4.12244
1772 1 20.6065 12.1141 16.3195 3 1e-16 -4.12244
1773 1 19.7823 12.1141 13.9882 3 1e-16 -4.12244
1774 1 22.2551 12.1141 13.9882 3 4e-16 -4.12244
1775 1 21.4308 12.1141 11.6568 3 4e-16 -4.12244
1776 1 23.9036 12.1141 11.6568 3 1e-16 -4.12244
1777 1 23.0793 12.1141 9.32545 3 1e-16 -4.12244
1778 1 25.5521 12.1141 9.32545 3 1.51461e-28 -4.12244
1779 1 24.7278 12.1141 6.99409 3 0 -4.12244
1780 1 27.2006 12.1141 6.99409 3 1e-16 -4.12244
1781 1 26.3764 12.1141 4.66273 3 1e-16 -4.12244
1782 1 28.8491 12.1141 4.66273 3 4e-16 -4.12244
1783 1 28.0249 12.1141 2.33136 3 3.99999e-16 -4.12244
1784 1 30.4977 12.1141 2.33136 3 9.99999e-17 -4.12244
1785 1 29.6734 12.1141 0 3 1.0507e-16 -4.12244
1786 1 32.1462 12.1141 0 3 1.0507e-16 -4.12244
1787 1 0.824261 10.0951 47.7929 3 6.28299e-17 -4.12244
1788 1 0 10.0951 45.4616 3 2.304e-17 -4.12244
1789 1 2.47278 10.0951 45.4616 3 4e-16 -4.12244
1790 1 1.64852 10.0951 43.1302 3 5.776e-17 -4.12244
1791 1 4.12131 10.0951 43.1302 3 1e-16 -4.12244
1792 1 3.29705 10.0951 40.7989 3 4e-16 -4.12244
1793 1 5.76983 10.0951 40.7989 3 6.05845e-28 -4.12244
1794 1 4.94557 10.0951 38.4675 3 1e-16 -4.12244
1795 1 7.41835 10.0951 38.4675 3 1e-16 -4.12244
1796 1 6.59409 10.0951 36.1361 3 6.05845e-28 -4.12244
1797 1 9.06687 10.0951 36.1361 3 4e-16 -4.12244
1798 1 8.24261 10.0951 33.8048 3 9.99999e-17 -4.12244
1799 1 10.7154 10.0951 33.8048 3 1e-16 -4.12244
1800 1 9.89114 10.0951 31.4734 3 4e-16 -4.12244
1801 1 12.3639 10.0951 31.4734 3 5.04871e-29 -4.12244
1802 1 11.5397 10.0951 29.142 3 1e-16 -4.12244
1803 1 14.0124 10.0951 29.142 3 1e-16 -4.12244
1804 1 13.1882 10.0951 26.8107 3 0 -4.12244
1805 1 15.661 10.0951 26.8107 3 4e-16 -4.12244
1806 1 14.8367 10.0951 24.4793 3 9.99999e-17 -4.12244
1807 1 17.3095 10.0951 24.4793 3 1e-16 -4.12244
1808 1 16.4852 10.0951 22.1479 3 4e-16 -4.12244
1809 1 18.958 10.0951 22.1479 3 2.01948e-28 -4.12244
1810 1 18.1337 10.0951 19.8166 3 1e-16 -4.12244
1811 1 20.6065 10.0951 19.8166 3 1e-16 -4.12244
1812 1 19.7823 10.0951 17.4852 3 1e-16 -4.12244
1813 1 22.2551 10.0951 17.4852 3 4e-16 -4.12244
1814 1 21.4308 10.0951 15.1539 3 4e-16 -4.12244
1815 1 23.9036 10.0951 15.1539 3 1e-16 -4.12244
1816 1 23.0793 10.0951 12.8225 3 1e-16 -4.12244
1817 1 25.5521 10.0951 12.8225 3 1.89327e-28 -4.12244
1818 1 24.7278 10.0951 10.4911 3 0 -4.12244
1819 1 27.2006 10.0951 10.4911 3 1e-16 -4.12244
1820 1 26.3764 10.0951 8.15977 3 1e-16 -4.12244
1821 1 28.8491 10.0951 8.15977 3 4e-16 -4.12244
1822 1 28.0249 10.0951 5.82841 3 3.99999e-16 -4.12244
1823 1 30.4977 10.0951 5.82841 3 9.99999e-17 -4.12244
1824 1 29.6734 10.0951 3.49704 3 1e-16 -4.12244
1825 1 32.1462 10.0951 3.49704 3 9.99999e-17 -4.12244
1826 1 31.3219 10.0951 1.16568 3 1.69e-18 -4.12244
1827 1 33.7947 10.0951 1.16568 3 4.01691e-16 -4.12244
1828 1 1.64852 8.07608 46.6273 3 5.945e-17 -4.12244
1829 1 4.12131 8.07608 46.6273 3 1.0169e-16 -4.12244
1830 1 3.29705 8.07608 44.2959 3 4e-16 -4.12244
1831 1 5.76983 8.07608 44.2959 3 0 -4.12244
1832 1 4.94557 8.07608 41.9645 3 1e-16 -4.12244
1833 1 7.41835 8.07608 41.9645 3 1e-16 -4.12244
1834 1 6.59409 8.07608 39.6332 3 0 -4.12244
1835 1 9.06687 8.07608 39.6332 3 4e-16 -4.12244
1836 1 8.24261 8.07608 37.3018 3 9.99999e-17 -4.12244
1837 1 10.7154 8.07608 37.3018 3 1e-16 -4.12244
1838 1 9.89114 8.07608 34.9704 3 4e-16 -4.12244
1839 1 12.3639 8.07608 34.9704 3 2.01948e-28 -4.12244
1840 1 11.5397 8.07608 32.6391 3 1e-16 -4.12244
1841 1 14.0124 8.07608 32.6391 3 1e-16 -4.12244
1842 1 13.1882 8.07608 30.3077 3 0 -4.12244
1843 1 15.661 8.07608 30.3077 3 4e-16 -4.12244
1844 1 14.8367 8.07608 27.9764 3 9.99999e-17 -4.12244
1845 1 17.3095 8.07608 27.9764 3 1e-16 -4.12244
1846 1 16.4852 8.07608 25.645 3 4e-16 -4.12244
1847 1 18.958 8.07608 25.645 3 3.5341e-28 -4.12244
1848 1 18.1337 8.07608 23.3136 3 1e-16 -4.12244
1849 1 20.6065 8.07608 23.3136 3 1e-16 -4.12244
1850 1 19.7823 8.07608 20.9823 3 1e-16 -4.12244
1851 1 22.2551 8.07608 20.9823 3 4e-16 -4.12244
1852 1 21.4308 8.07608 18.6509 3 4e-16 -4.12244
1853 1 23.9036 8.07608 18.6509 3 1e-16 -4.12244
1854 1 23.0793 8.07608 16.3195 3 1e-16 -4.12244
1855 1 25.5521 8.07608 16.3195 3 2.52435e-28 -4.12244
1856 1 24.7278 8.07608 13.9882 3 2.52435e-29 -4.12244
1857 1 27.2006 8.07608 13.9882 3 1e-16 -4.12244
1858 1 26.3764 8.07608 11.6568 3 1e-16 -4.12244
1859 1 28.8491 8.07608 11.6568 3 4e-16 -4.12244
1860 1 28.0249 8.07608 9.32545 3 3.99999e-16 -4.12244
1861 1 30.4977 8.07608 9.32545 3 9.99999e-17 -4.12244
1862 1 29.6734 8.07608 6.99409 3 1e-16 -4.12244
1863 1 32.1462 8.07608 6.99409 3 9.99999e-17 -4.12244
1864 1 31.3219 8.07608 4.66273 3 0 -4.12244
1865 1 33.7947 8.07608 4.66273 3 4.00001e-16 -4.12244
1866 1 32.9705 8.07608 2.33136 3 9.99999e-17 -4.12244
1867 1 35.4432 8.07608 2.33136 3 1e-16 -4.12244
1868 1 34.619 8.07608 0 3 4.0507e-16 -4.12244
1869 1 37.0918 8.07608 0 3 5.07001e-18 -4.12244
1870 1 3.29705 6.05706 47.7929 3 4.0507e-16 -4.12244
1871 1 5.76983 6.05706 47.7929 3 5.06996e-18 -4.12244
1872 1 4.94557 6.05706 45.4616 3 1e-16 -4.12244
1873 1 7.41835 6.05706 45.4616 3 1e-16 -4.12244
1874 1 6.59409 6.05706 43.1302 3 6.05845e-28 -4.12244
1875 1 9.06687 6.05706 43.1302 3 4e-16 -4.12244
1876 1 8.24261 6.05706 40.7989 3 9.99999e-17 -4.12244
1877 1 10.7154 6.05706 40.7989 3 1e-16 -4.12244
1878 1 9.89114 6.05706 38.4675 3 4e-16 -4.12244
1879 1 12.3639 6.05706 38.4675 3 0 -4.12244
1880 1 11.5397 6.05706 36.1361 3 1e-16 -4.12244
1881 1 14.0124 6.05706 36.1361 3 1e-16 -4.12244
1882 1 13.1882 6.05706 33.8048 3 0 -4.12244
1883 1 15.661 6.05706 33.8048 3 4e-16 -4.12244
1884 1 14.8367 6.05706 31.4734 3 9.99999e-17 -4.12244
1885 1 17.3095 6.05706 31.4734 3 1e-16 -4.12244
1886 1 16.4852 6.05706 29.142 3 4e-16 -4.12244
1887 1 18.958 6.05706 29.142 3 3.5341e-28 -4.12244
1888 1 18.1337 6.05706 26.8107 3 1e-16 -4.12244
1889 1 20.6065 6.05706 26.8107 3 1e-16 -4.12244
1890 1 19.7823 6.05706 24.4793 3 1e-16 -4.12244
1891 1 22.2551 6.05706 24.4793 3 4e-16 -4.12244
1892 1 21.4308 6.05706 22.1479 3 4e-16 -4.12244
1893 1 23.9036 6.05706 22.1479 3 1e-16 -4.12244
1894 1 23.0793 6.05706 19.8166 3 1e-16 -4.12244
1895 1 25.5521 6.05706 19.8166 3 1.51461e-28 -4.12244
1896 1 24.7278 6.05706 17.4852 3 1.00974e-28 -4.12244
1897 1 27.2006 6.05706 17.4852 3 1e-16 -4.12244
1898 1 26.3764 6.05706 15.1539 3 1e-16 -4.12244
1899 1 28.8491 6.05706 15.1539 3 4e-16 -4.12244
1900 1 28.0249 6.05706 12.8225 3 3.99999e-16 -4.12244
1901 1 30.4977 6.05706 12.8225 3 9.99999e-17 -4.12244
1902 1 29.6734 6.05706 10.4911 3 1e-16 -4.12244
1903 1 32.1462 6.05706 10.4911 3 9.99999e-17 -4.12244
1904 1 31.3219 6.05706 8.15977 3 1.26218e-29 -4.12244
1905 1 33.7947 6.05706 8.15977 3 4.00001e-16 -4.12244
1906 1 32.9705 6.05706 5.82841 3 9.99999e-17 -4.12244
1907 1 35.4432 6.05706 5.82841 3 1e-16 -4.12244
1908 1 34.619 6.05706 3.49704 3 4e-16 -4.12244
1909 1 37.0918 6.05706 3.49704 3 7.88861e-31 -4.12244
1910 1 36.2675 6.05706 1.16568 3 1.0169e-16 -4.12244
1911 1 38.7403 6.05706 1.16568 3 1.0169e-16 -4.12244
1912 1 6.59409 4.03804 46.6273 3 1.69002e-18 -4.12244
1913 1 9.06687 4.03804 46.6273 3 4.0169e-16 -4.12244
1914 1 8.24261 4.03804 44.2959 3 9.99999e-17 -4.12244
1915 1 10.7154 4.03804 44.2959 3 1e-16 -4.12244
1916 1 9.89114 4.03804 41.9645 3 4e-16 -4.12244
1917 1 12.3639 4.03804 41.9645 3 0 -4.12244
1918 1 11.5397 4.03804 39.6332 3 1e-16 -4.12244
1919 1 14.0124 4.03804 39.6332 3 1e-16 -4.12244
1920 1 13.1882 4.03804 37.3018 3 0 -4.12244
1921 1 15.661 4.03804 37.3018 3 4e-16 -4.12244
1922 1 14.8367 4.03804 34.9704 3 9.99999e-17 -4.12244
1923 1 17.3095 4.03804 34.9704 3 1e-16 -4.12244
1924 1 16.4852 4.03804 32.6391 3 4e-16 -4.12244
1925 1 18.958 4.03804 32.6391 3 4.03897e-28 -4.12244
1926 1 18.1337 4.03804 30.3077 3 1e-16 -4.12244
1927 1 20.6065 4.03804 30.3077 3 1e-16 -4.12244
1928 1 19.7823 4.03804 27.9764 3 1e-16 -4.12244
1929 1 22.2551 4.03804 27.9764 3 4e-16 -4.12244
1930 1 21.4308 4.03804 25.645 3 4e-16 -4.12244
1931 1 23.9036 4.03804 25.645 3 1e-16 -4.12244
1932 1 23.0793 4.03804 23.3136 3 1e-16 -4.12244
1933 1 25.5521 4.03804 23.3136 3 1.51461e-28 -4.12244
1934 1 24.7278 4.03804 20.9823 3 0 -4.12244
1935 1 27.2006 4.03804 20.9823 3 1e-16 -4.12244
1936 1 26.3764 4.03804 18.6509 3 1e-16 -4.12244
1937 1 28.8491 4.03804 18.6509 3 4e-16 -4.12244
1938 1 28.0249 4.03804 16.3195 3 3.99999e-16 -4.12244
1939 1 30.4977 4.03804 16.3195 3 9.99999e-17 -4.12244
1940 1 29.6734 4.03804 13.9882 3 1e-16 -4.12244
1941 1 32.1462 4.03804 13.9882 3 9.99999e-17 -4.12244
1942 1 31.3219 4.03804 11.6568 3 0 -4.12244
1943 1 33.7947 4.03804 11.6568 3 4.00001e-16 -4.12244
1944 1 32.9705 4.03804 9.32545 3 9.99999e-17 -4.12244
1945 1 35.4432 4.03804 9.32545 3 1e-16 -4.12244
1946 1 34.619 4.03804 6.99409 3 4e-16 -4.12244
1947 1 37.0918 4.03804 6.99409 3 0 -4.12244
1948 1 36.2675 4.03804 4.66273 3 1e-16 -4.12244
1949 1 38.7403 4.03804 4.66273 3 1e-16 -4.12244
1950 1 37.916 4.03804 2.33136 3 8.07794e-28 -4.12244
1951 1 40.3888 4.03804 2.33136 3 3.99999e-16 -4.12244
1952 1 39.5645 4.03804 0 3 1.0507e-16 -4.12244
1953 1 42.0373 4.03804 0 3 1.0507e-16 -4.12244
1954 1 8.24261 2.01902 47.7929 3 1.0507e-16 -4.10627
1955 1 10.7154 2.01902 47.7929 3 1.0507e-16 -4.10627
1956 1 9.89114 2.01902 45.4616 3 4e-16 -4.10627
1957 1 12.3639 2.01902 45.4616 3 0 -4.10627
1958 1 11.5397 2.01902 43.1302 3 1e-16 -4.10627
1959 1 14.0124 2.01902 43.1302 3 1e-16 -4.10627
1960 1 13.1882 2.01902 40.7989 3 6.05845e-28 -4.10627
1961 1 15.661 2.01902 40.7989 3 4e-16 -4.10627
1962 1 14.8367 2.01902 38.4675 3 9.99999e-17 -4.10627
1963 1 17.3095 2.01902 38.4675 3 1e-16 -4.10627
1964 1 16.4852 2.01902 36.1361 3 4e-16 -4.10627
1965 1 18.958 2.01902 36.1361 3 8.07794e-28 -4.10627
1966 1 18.1337 2.01902 33.8048 3 1e-16 -4.10627
1967 1 20.6065 2.01902 33.8048 3 1e-16 -4.10627
1968 1 19.7823 2.01902 31.4734 3 1e-16 -4.10627
1969 1 22.2551 2.01902 31.4734 3 4e-16 -4.10627
1970 1 21.4308 2.01902 29.142 3 4e-16 -4.10627
1971 1 23.9036 2.01902 29.142 3 1e-16 -4.10627
1972 1 23.0793 2.01902 26.8107 3 1e-16 -4.10627
1973 1 25.5521 2.01902 26.8107 3 1.51461e-28 -4.10627
1974 1 24.7278 2.01902 24.4793 3 1.00974e-28 -4.10627
1975 1 27.2006 2.01902 24.4793 3 1e-16 -4.10627
1976 1 26.3764 2.01902 22.1479 3 1e-16 -4.10627
1977 1 28.8491 2.01902 22.1479 3 4e-16 -4.10627
1978 1 28.0249 2.01902 19.8166 3 3.99999e-16 -4.10627
1979 1 30.4977 2.01902 19.8166 3 9.99999e-17 -4.10627
1980 1 29.6734 2.01902 17.4852 3 1e-16 -4.10627
1981 1 32.1462 2.01902 17.4852 3 9.99999e-17 -4.10627
1982 1 31.3219 2.01902 15.1539 3 0 -4.10627
1983 1 33.7947 2.01902 15.1539 3 4.00001e-16 -4.10627
1984 1 32.9705 2.01902 12.8225 3 9.99999e-17 -4.10627
1985 1 35.4432 2.01902 12.8225 3 1e-16 -4.10627
1986 1 34.619 2.01902 10.4911 3 4e-16 -4.10627
1987 1 37.0918 2.01902 10.4911 3 0 -4.10627
1988 1 36.2675 2.01902 8.15977 3 1e-16 -4.10627
1989 1 38.7403 2.01902 8.15977 3 1e-16 -4.10627
1990 1 37.916 2.01902 5.82841 3 8.10949e-28 -4.10627
1991 1 40.3888 2.01902 5.82841 3 3.99999e-16 -4.10627
1992 1 39.5645 2.01902 3.49704 3 1e-16 -4.10627
1993 1 42.0373 2.01902 3.49704 3 1e-16 -4.10627
1994 1 41.2131 2.01902 1.16568 3 4.01691e-16 -4.10627
1995 1 43.6859 2.01902 1.16568 3 1.69e-18 -4.10627
1996 1 11.5397 0 46.6273 5 12.2293 -3.54465
1997 1 14.0124 0 46.6273 5 12.2293 -3.54465
1998 1 13.1882 0 44.2959 5 12.2293 -3.54465
1999 1 15.661 0 44.2959 5 12.2293 -3.54465
2000 1 14.8367 0 41.9645 5 12.2293 -3.54465
2001 1 17.3095 0 41.9645 5 12.2293 -3.54465
2002 1 16.4852 0 39.6332 5 12.2293 -3.54465
2003 1 18.958 0 39.6332 5 12.2293 -3.54465
2004 1 18.1337 0 37.3018 5 12.2293 -3.54465
2005 1 20.6065 0 37.3018 5 12.2293 -3.54465
2006 1 19.7823 0 34.9704 5 12.2293 -3.54465
2007 1 22.2551 0 34.9704 5 12.2293 -3.54465
2008 1 21.4308 0 32.6391 5 12.2293 -3.54465
2009 1 23.9036 0 32.6391 5 12.2293 -3.54465
2010 1 23.0793 0 30.3077 5 12.2293 -3.54465
2011 1 25.5521 0 30.3077 5 12.2293 -3.54465
2012 1 24.7278 0 27.9764 5 12.2293 -3.54465
2013 1 27.2006 0 27.9764 5 12.2293 -3.54465
2014 1 26.3764 0 25.645 5 12.2293 -3.54465
2015 1 28.8491 0 25.645 5 12.2293 -3.54465
2016 1 28.0249 0 23.3136 5 12.2293 -3.54465
2017 1 30.4977 0 23.3136 5 12.2293 -3.54465
2018 1 29.6734 0 20.9823 5 12.2293 -3.54465
2019 1 32.1462 0 20.9823 5 12.2293 -3.54465
2020 1 31.3219 0 18.6509 5 12.2293 -3.54465
2021 1 33.7947 0 18.6509 5 12.2293 -3.54465
2022 1 32.9705 0 16.3195 5 12.2293 -3.54465
2023 1 35.4432 0 16.3195 5 12.2293 -3.54465
2024 1 34.619 0 13.9882 5 12.2293 -3.54465
2025 1 37.0918 0 13.9882 5 12.2293 -3.54465
2026 1 36.2675 0 11.6568 5 12.2293 -3.54465
2027 1 38.7403 0 11.6568 5 12.2293 -3.54465
2028 1 37.916 0 9.32545 5 12.2293 -3.54465
2029 1 40.3888 0 9.32545 5 12.2293 -3.54465
2030 1 39.5645 0 6.99409 5 12.2293 -3.54465
2031 1 42.0373 0 6.99409 5 12.2293 -3.54465
2032 1 41.2131 0 4.66273 5 12.2293 -3.54465
2033 1 43.6859 0 4.66273 5 12.2293 -3.54465
2034 1 42.8616 0 2.33136 5 12.2293 -3.54465
2035 1 45.3344 0 2.33136 5 12.2293 -3.54465
2036 1 44.5101 0 0 5 12.2293 -3.54465
2037 1 46.9829 0 0 5 12.2293 -3.54465
2038 1 0.824261 40.3804 2.33136 3 5.776e-17 -4.12244
2039 1 0 40.3804 0 3 2.811e-17 -4.12244
2040 1 2.47278 40.3804 0 3 4.0507e-16 -4.12244
2041 1 0.824261 38.3614 5.82841 3 5.776e-17 -4.12244
2042 1 0 38.3614 3.49704 3 2.304e-17 -4.12244
2043 1 2.47278 38.3614 3.49704 3 4e-16 -4.12244
2044 1 1.64852 38.3614 1.16568 3 5.945e-17 -4.12244
2045 1 4.12131 38.3614 1.16568 3 1.0169e-16 -4.12244
2046 1 0.824261 36.3424 9.32545 3 5.776e-17 -4.12244
2047 1 0 36.3424 6.99409 3 2.304e-17 -4.12244
2048 1 2.47278 36.3424 6.99409 3 4e-16 -4.12244
2049 1 1.64852 36.3424 4.66273 3 5.776e-17 -4.12244
2050 1 4.12131 36.3424 4.66273 3 1e-16 -4.12244
2051 1 3.29705 36.3424 2.33136 3 4e-16 -4.12244
2052 1 5.76983 36.3424 2.33136 3 0 -4.12244
2053 1 4.94557 36.3424 0 3 1.0507e-16 -4.12244
2054 1 7.41835 36.3424 0 3 1.0507e-16 -4.12244
2055 1 0.824261 34.3233 12.8225 3 5.776e-17 -4.12244
2056 1 0 34.3233 10.4911 3 2.304e-17 -4.12244
2057 1 2.47278 34.3233 10.4911 3 4e-16 -4.12244
2058 1 1.64852 34.3233 8.15977 3 5.776e-17 -4.12244
2059 1 4.12131 34.3233 8.15977 3 1e-16 -4.12244
2060 1 3.29705 34.3233 5.82841 3 4e-16 -4.12244
2061 1 5.76983 34.3233 5.82841 3 3.15544e-30 -4.12244
2062 1 4.94557 34.3233 3.49704 3 1e-16 -4.12244
2063 1 7.41835 34.3233 3.49704 3 1e-16 -4.12244
2064 1 6.59409 34.3233 1.16568 3 1.69e-18 -4.12244
2065 1 9.06687 34.3233 1.16568 3 4.0169e-16 -4.12244
2066 1 0.824261 32.3043 16.3195 3 5.776e-17 -4.12244
2067 1 0 32.3043 13.9882 3 2.304e-17 -4.12244
2068 1 2.47278 32.3043 13.9882 3 4e-16 -4.12244
2069 1 1.64852 32.3043 11.6568 3 5.776e-17 -4.12244
2070 1 4.12131 32.3043 11.6568 3 1e-16 -4.12244
2071 1 3.29705 32.3043 9.32545 3 4e-16 -4.12244
2072 1 5.76983 32.3043 9.32545 3 0 -4.12244
2073 1 4.94557 32.3043 6.99409 3 1e-16 -4.12244
2074 1 7.41835 32.3043 6.99409 3 1e-16 -4.12244
2075 1 6.59409 32.3043 4.66273 3 0 -4.12244
2076 1 9.06687 32.3043 4.66273 3 4e-16 -4.12244
2077 1 8.24261 32.3043 2.33136 3 9.99999e-17 -4.12244
2078 1 10.7154 32.3043 2.33136 3 1e-16 -4.12244
2079 1 9.89114 32.3043 0 3 4.0507e-16 -4.12244
2080 1 12.3639 32.3043 0 3 5.07001e-18 -4.12244
2081 1 0.824261 30.2853 19.8166 3 5.776e-17 -4.12244
2082 1 0 30.2853 17.4852 3 2.304e-17 -4.12244
2083 1 2.47278 30.2853 17.4852 3 4e-16 -4.12244
2084 1 1.64852 30.2853 15.1539 3 5.776e-17 -4.12244
2085 1 4.12131 30.2853 15.1539 3 1e-16 -4.12244
2086 1 3.29705 30.2853 12.8225 3 4e-16 -4.12244
2087 1 5.76983 30.2853 12.8225 3 1.3884e-28 -4.12244
2088 1 4.94557 30.2853 10.4911 3 1e-16 -4.12244
2089 1 7.41835 30.2853 10.4911 3 1e-16 -4.12244
2090 1 6.59409 30.2853 8.15977 3 1.13596e-28 -4.12244
2091 1 9.06687 30.2853 8.15977 3 4e-16 -4.12244
2092 1 8.24261 30.2853 5.82841 3 9.99999e-17 -4.12244
2093 1 10.7154 30.2853 5.82841 3 1e-16 -4.12244
2094 1 9.89114 30.2853 3.49704 3 4e-16 -4.12244
2095 1 12.3639 30.2853 3.49704 3 1.01763e-28 -4.12244
2096 1 11.5397 30.2853 1.16568 3 1.0169e-16 -4.12244
2097 1 14.0124 30.2853 1.16568 3 1.0169e-16 -4.12244
2098 1 0.824261 28.2663 23.3136 3 5.776e-17 -4.12244
2099 1 0 28.2663 20.9823 3 2.304e-17 -4.12244
2100 1 2.47278 28.2663 20.9823 3 4e-16 -4.12244
2101 1 1.64852 28.2663 18.6509 3 5.776e-17 -4.12244
2102 1 4.12131 28.2663 18.6509 3 1e-16 -4.12244
2103 1 3.29705 28.2663 16.3195 3 4e-16 -4.12244
2104 1 5.76983 28.2663 16.3195 3 1.00974e-28 -4.12244
2105 1 4.94557 28.2663 13.9882 3 1e-16 -4.12244
2106 1 7.41835 28.2663 13.9882 3 1e-16 -4.12244
2107 1 6.59409 28.2663 11.6568 3 0 -4.12244
2108 1 9.06687 28.2663 11.6568 3 4e-16 -4.12244
2109 1 8.24261 28.2663 9.32545 3 9.99999e-17 -4.12244
2110 1 10.7154 28.2663 9.32545 3 1e-16 -4.12244
2111 1 9.89114 28.2663 6.99409 3 4e-16 -4.12244
2112 1 12.3639 28.2663 6.99409 3 0 -4.12244
2113 1 11.5397 28.2663 4.66273 3 1e-16 -4.12244
2114 1 14.0124 28.2663 4.66273 3 1e-16 -4.12244
2115 1 13.1882 28.2663 2.33136 3 0 -4.12244
2116 1 15.661 28.2663 2.33136 3 4e-16 -4.12244
2117 1 14.8367 28.2663 0 3 1.0507e-16 -4.12244
2118 1 17.3095 28.2663 0 3 1.0507e-16 -4.12244
2119 1 0.824261 26.2473 26.8107 3 5.776e-17 -4.12244
2120 1 0 26.2473 24.4793 3 2.304e-17 -4.12244
2121 1 2.47278 26.2473 24.4793 3 4e-16 -4.12244
2122 1 1.64852 26.2473 22.1479 3 5.776e-17 -4.12244
2123 1 4.12131 26.2473 22.1479 3 1e-16 -4.12244
2124 1 3.29705 26.2473 19.8166 3 4e-16 -4.12244
2125 1 5.76983 26.2473 19.8166 3 1.00974e-28 -4.12244
2126 1 4.94557 26.2473 17.4852 3 1e-16 -4.12244
2127 1 7.41835 26.2473 17.4852 3 1e-16 -4.12244
2128 1 6.59409 26.2473 15.1539 3 1.00974e-28 -4.12244
2129 1 9.06687 26.2473 15.1539 3 4e-16 -4.12244
2130 1 8.24261 26.2473 12.8225 3 9.99999e-17 -4.12244
2131 1 10.7154 26.2473 12.8225 3 1e-16 -4.12244
2132 1 9.89114 26.2473 10.4911 3 4e-16 -4.12244
2133 1 12.3639 26.2473 10.4911 3 1.00974e-28 -4.12244
2134 1 11.5397 26.2473 8.15977 3 1e-16 -4.12244
2135 1 14.0124 26.2473 8.15977 3 1e-16 -4.12244
2136 1 13.1882 26.2473 5.82841 3 1.0413e-28 -4.12244
2137 1 15.661 26.2473 5.82841 3 4e-16 -4.12244
2138 1 14.8367 26.2473 3.49704 3 9.99999e-17 -4.12244
2139 1 17.3095 26.2473 3.49704 3 1e-16 -4.12244
2140 1 16.4852 26.2473 1.16568 3 4.0169e-16 -4.12244
2141 1 18.958 26.2473 1.16568 3 1.69e-18 -4.12244
2142 1 0.824261 24.2282 30.3077 3 5.776e-17 -4.12244
2143 1 0 24.2282 27.9764 3 2.304e-17 -4.12244
2144 1 2.47278 24.2282 27.9764 3 4e-16 -4.12244
2145 1 1.64852 24.2282 25.645 3 5.776e-17 -4.12244
2146 1 4.12131 24.2282 25.645 3 1e-16 -4.12244
2147 1 3.29705 24.2282 23.3136 3 4e-16 -4.12244
2148 1 5.76983 24.2282 23.3136 3 0 -4.12244
2149 1 4.94557 24.2282 20.9823 3 1e-16 -4.12244
2150 1 7.41835 24.2282 20.9823 3 1e-16 -4.12244
2151 1 6.59409 24.2282 18.6509 3 0 -4.12244
2152 1 9.06687 24.2282 18.6509 3 4e-16 -4.12244
2153 1 8.24261 24.2282 16.3195 3 9.99999e-17 -4.12244
2154 1 10.7154 24.2282 16.3195 3 1e-16 -4.12244
2155 1 9.89114 24.2282 13.9882 3 4e-16 -4.12244
2156 1 12.3639 24.2282 13.9882 3 2.52435e-29 -4.12244
2157 1 11.5397 24.2282 11.6568 3 1e-16 -4.12244
2158 1 14.0124 24.2282 11.6568 3 1e-16 -4.12244
2159 1 13.1882 24.2282 9.32545 3 0 -4.12244
2160 1 15.661 24.2282 9.32545 3 4e-16 -4.12244
2161 1 14.8367 24.2282 6.99409 3 9.99999e-17 -4.12244
2162 1 17.3095 24.2282 6.99409 3 1e-16 -4.12244
2163 1 16.4852 24.2282 4.66273 3 4e-16 -4.12244
2164 1 18.958 24.2282 4.66273 3 2.01948e-28 -4.12244
2165 1 18.1337 24.2282 2.33136 3 1e-16 -4.12244
2166 1 20.6065 24.2282 2.33136 3 1e-16 -4.12244
2167 1 19.7823 24.2282 0 3 1.0507e-16 -4.12244
2168 1 22.2551 24.2282 0 3 4.0507e-16 -4.12244
2169 1 0.824261 22.2092 33.8048 3 5.776e-17 -4.12244
2170 1 0 22.2092 31.4734 3 2.304e-17 -4.12244
2171 1 2.47278 22.2092 31.4734 3 4e-16 -4.12244
2172 1 1.64852 22.2092 29.142 3 5.776e-17 -4.12244
2173 1 4.12131 22.2092 29.142 3 1e-16 -4.12244
2174 1 3.29705 22.2092 26.8107 3 4e-16 -4.12244
2175 1 5.76983 22.2092 26.8107 3 0 -4.12244
2176 1 4.94557 22.2092 24.4793 3 1e-16 -4.12244
2177 1 7.41835 22.2092 24.4793 3 1e-16 -4.12244
2178 1 6.59409 22.2092 22.1479 3 0 -4.12244
2179 1 9.06687 22.2092 22.1479 3 4e-16 -4.12244
2180 1 8.24261 22.2092 19.8166 3 9.99999e-17 -4.12244
2181 1 10.7154 22.2092 19.8166 3 1e-16 -4.12244
2182 1 9.89114 22.2092 17.4852 3 4e-16 -4.12244
2183 1 12.3639 22.2092 17.4852 3 1.00974e-28 -4.12244
2184 1 11.5397 22.2092 15.1539 3 1e-16 -4.12244
2185 1 14.0124 22.2092 15.1539 3 1e-16 -4.12244
2186 1 13.1882 22.2092 12.8225 3 3.78653e-29 -4.12244
2187 1 15.661 22.2092 12.8225 3 4e-16 -4.12244
2188 1 14.8367 22.2092 10.4911 3 9.99999e-17 -4.12244
2189 1 17.3095 22.2092 10.4911 3 1e-16 -4.12244
2190 1 16.4852 22.2092 8.15977 3 4e-16 -4.12244
2191 1 18.958 22.2092 8.15977 3 2.1457e-28 -4.12244
2192 1 18.1337 22.2092 5.82841 3 1e-16 -4.12244
2193 1 20.6065 22.2092 5.82841 3 1e-16 -4.12244
2194 1 19.7823 22.2092 3.49704 3 1e-16 -4.12244
2195 1 22.2551 22.2092 3.49704 3 4e-16 -4.12244
2196 1 21.4308 22.2092 1.16568 3 4.0169e-16 -4.12244
2197 1 23.9036 22.2092 1.16568 3 1.0169e-16 -4.12244
2198 1 0.824261 20.1902 37.3018 3 5.776e-17 -4.12244
2199 1 0 20.1902 34.9704 3 2.304e-17 -4.12244
2200 1 2.47278 20.1902 34.9704 3 4e-16 -4.12244
2201 1 1.64852 20.1902 32.6391 3 5.776e-17 -4.12244
2202 1 4.12131 20.1902 32.6391 3 1e-16 -4.12244
2203 1 3.29705 20.1902 30.3077 3 4e-16 -4.12244
2204 1 5.76983 20.1902 30.3077 3 0 -4.12244
2205 1 4.94557 20.1902 27.9764 3 1e-16 -4.12244
2206 1 7.41835 20.1902 27.9764 3 1e-16 -4.12244
2207 1 6.59409 20.1902 25.645 3 1.51461e-28 -4.12244
2208 1 9.06687 20.1902 25.645 3 4e-16 -4.12244
2209 1 8.24261 20.1902 23.3136 3 9.99999e-17 -4.12244
2210 1 10.7154 20.1902 23.3136 3 1e-16 -4.12244
2211 1 9.89114 20.1902 20.9823 3 4e-16 -4.12244
2212 1 12.3639 20.1902 20.9823 3 0 -4.12244
2213 1 11.5397 20.1902 18.6509 3 1e-16 -4.12244
2214 1 14.0124 20.1902 18.6509 3 1e-16 -4.12244
2215 1 13.1882 20.1902 16.3195 3 1.00974e-28 -4.12244
2216 1 15.661 20.1902 16.3195 3 4e-16 -4.12244
2217 1 14.8367 20.1902 13.9882 3 9.99999e-17 -4.12244
2218 1 17.3095 20.1902 13.9882 3 1e-16 -4.12244
2219 1 16.4852 20.1902 11.6568 3 4e-16 -4.12244
2220 1 18.958 20.1902 11.6568 3 2.01948e-28 -4.12244
2221 1 18.1337 20.1902 9.32545 3 1e-16 -4.12244
2222 1 20.6065 20.1902 9.32545 3 1e-16 -4.12244
2223 1 19.7823 20.1902 6.99409 3 1e-16 -4.12244
2224 1 22.2551 20.1902 6.99409 3 4e-16 -4.12244
2225 1 21.4308 20.1902 4.66273 3 4e-16 -4.12244
2226 1 23.9036 20.1902 4.66273 3 1e-16 -4.12244
2227 1 23.0793 20.1902 2.33136 3 1e-16 -4.12244
2228 1 25.5521 20.1902 2.33136 3 1.51461e-28 -4.12244
2229 1 24.7278 20.1902 0 3 5.07001e-18 -4.12244
2230 1 27.2006 20.1902 0 3 1.0507e-16 -4.12244
2231 1 0.824261 18.1712 40.7989 3 5.776e-17 -4.12244
2232 1 0 18.1712 38.4675 3 2.304e-17 -4.12244
2233 1 2.47278 18.1712 38.4675 3 4e-16 -4.12244
2234 1 1.64852 18.1712 36.1361 3 5.776e-17 -4.12244
2235 1 4.12131 18.1712 36.1361 3 1e-16 -4.12244
2236 1 3.29705 18.1712 33.8048 3 4e-16 -4.12244
2237 1 5.76983 18.1712 33.8048 3 1.00974e-28 -4.12244
2238 1 4.94557 18.1712 31.4734 3 1e-16 -4.12244
2239 1 7.41835 18.1712 31.4734 3 1e-16 -4.12244
2240 1 6.59409 18.1712 29.142 3 2.52435e-28 -4.12244
2241 1 9.06687 18.1712 29.142 3 4e-16 -4.12244
2242 1 8.24261 18.1712 26.8107 3 9.99999e-17 -4.12244
2243 1 10.7154 18.1712 26.8107 3 1e-16 -4.12244
2244 1 9.89114 18.1712 24.4793 3 4e-16 -4.12244
2245 1 12.3639 18.1712 24.4793 3 2.01948e-28 -4.12244
2246 1 11.5397 18.1712 22.1479 3 1e-16 -4.12244
2247 1 14.0124 18.1712 22.1479 3 1e-16 -4.12244
2248 1 13.1882 18.1712 19.8166 3 1.00974e-28 -4.12244
2249 1 15.661 18.1712 19.8166 3 4e-16 -4.12244
2250 1 14.8367 18.1712 17.4852 3 9.99999e-17 -4.12244
2251 1 17.3095 18.1712 17.4852 3 1e-16 -4.12244
2252 1 16.4852 18.1712 15.1539 3 4e-16 -4.12244
2253 1 18.958 18.1712 15.1539 3 3.02923e-28 -4.12244
2254 1 18.1337 18.1712 12.8225 3 1e-16 -4.12244
2255 1 20.6065 18.1712 12.8225 3 1e-16 -4.12244
2256 1 19.7823 18.1712 10.4911 3 1e-16 -4.12244
2257 1 22.2551 18.1712 10.4911 3 4e-16 -4.12244
2258 1 21.4308 18.1712 8.15977 3 4e-16 -4.12244
2259 1 23.9036 18.1712 8.15977 3 1e-16 -4.12244
2260 1 23.0793 18.1712 5.82841 3 1e-16 -4.12244
2261 1 25.5521 18.1712 5.82841 3 2.55591e-28 -4.12244
2262 1 24.7278 18.1712 3.49704 3 1.01763e-28 -4.12244
2263 1 27.2006 18.1712 3.49704 3 1e-16 -4.12244
2264 1 26.3764 18.1712 1.16568 3 1.0169e-16 -4.12244
2265 1 28.8491 18.1712 1.16568 3 4.0169e-16 -4.12244
2266 1 0.824261 16.1522 44.2959 3 5.776e-17 -4.12244
2267 1 0 16.1522 41.9645 3 2.304e-17 -4.12244
2268 1 2.47278 16.1522 41.9645 3 4e-16 -4.12244
2269 1 1.64852 16.1522 39.6332 3 5.776e-17 -4.12244
2270 1 4.12131 16.1522 39.6332 3 1e-16 -4.12244
2271 1 3.29705 16.1522 37.3018 3 4e-16 -4.12244
2272 1 5.76983 16.1522 37.3018 3 0 -4.12244
2273 1 4.94557 16.1522 34.9704 3 1e-16 -4.12244
2274 1 7.41835 16.1522 34.9704 3 1e-16 -4.12244
2275 1 6.59409 16.1522 32.6391 3 2.01948e-28 -4.12244
2276 1 9.06687 16.1522 32.6391 3 4e-16 -4.12244
2277 1 8.24261 16.1522 30.3077 3 9.99999e-17 -4.12244
2278 1 10.7154 16.1522 30.3077 3 1e-16 -4.12244
2279 1 9.89114 16.1522 27.9764 3 4e-16 -4.12244
2280 1 12.3639 16.1522 27.9764 3 1.51461e-28 -4.12244
2281 1 11.5397 16.1522 25.645 3 1e-16 -4.12244
2282 1 14.0124 16.1522 25.645 3 1e-16 -4.12244
2283 1 13.1882 16.1522 23.3136 3 0 -4.12244
2284 1 15.661 16.1522 23.3136 3 4e-16 -4.12244
2285 1 14.8367 16.1522 20.9823 3 9.99999e-17 -4.12244
2286 1 17.3095 16.1522 20.9823 3 1e-16 -4.12244
2287 1 16.4852 16.1522 18.6509 3 4e-16 -4.12244
2288 1 18.958 16.1522 18.6509 3 2.01948e-28 -4.12244
2289 1 18.1337 16.1522 16.3195 3 1e-16 -4.12244
2290 1 20.6065 16.1522 16.3195 3 1e-16 -4.12244
2291 1 19.7823 16.1522 13.9882 3 1e-16 -4.12244
2292 1 22.2551 16.1522 13.9882 3 4e-16 -4.12244
2293 1 21.4308 16.1522 11.6568 3 4e-16 -4.12244
2294 1 23.9036 16.1522 11.6568 3 1e-16 -4.12244
2295 1 23.0793 16.1522 9.32545 3 1e-16 -4.12244
2296 1 25.5521 16.1522 9.32545 3 1.51461e-28 -4.12244
2297 1 24.7278 16.1522 6.99409 3 0 -4.12244
2298 1 27.2006 16.1522 6.99409 3 1e-16 -4.12244
2299 1 26.3764 16.1522 4.66273 3 1e-16 -4.12244
2300 1 28.8491 16.1522 4.66273 3 4e-16 -4.12244
2301 1 28.0249 16.1522 2.33136 3 3.99999e-16 -4.12244
2302 1 30.4977 16.1522 2.33136 3 9.99999e-17 -4.12244
2303 1 29.6734 16.1522 0 3 1.0507e-16 -4.12244
2304 1 32.1462 16.1522 0 3 1.0507e-16 -4.12244
2305 1 0.824261 14.1331 47.7929 3 6.28299e-17 -4.12244
2306 1 0 14.1331 45.4616 3 2.304e-17 -4.12244
2307 1 2.47278 14.1331 45.4616 3 4e-16 -4.12244
2308 1 1.64852 14.1331 43.1302 3 5.776e-17 -4.12244
2309 1 4.12131 14.1331 43.1302 3 1e-16 -4.12244
2310 1 3.29705 14.1331 40.7989 3 4e-16 -4.12244
2311 1 5.76983 14.1331 40.7989 3 6.05845e-28 -4.12244
2312 1 4.94557 14.1331 38.4675 3 1e-16 -4.12244
2313 1 7.41835 14.1331 38.4675 3 1e-16 -4.12244
2314 1 6.59409 14.1331 36.1361 3 6.05845e-28 -4.12244
2315 1 9.06687 14.1331 36.1361 3 4e-16 -4.12244
2316 1 8.24261 14.1331 33.8048 3 9.99999e-17 -4.12244
2317 1 10.7154 14.1331 33.8048 3 1e-16 -4.12244
2318 1 9.89114 14.1331 31.4734 3 4e-16 -4.12244
2319 1 12.3639 14.1331 31.4734 3 5.04871e-29 -4.12244
2320 1 11.5397 14.1331 29.142 3 1e-16 -4.12244
2321 1 14.0124 14.1331 29.142 3 1e-16 -4.12244
2322 1 13.1882 14.1331 26.8107 3 0 -4.12244
2323 1 15.661 14.1331 26.8107 3 4e-16 -4.12244
2324 1 14.8367 14.1331 24.4793 3 9.99999e-17 -4.12244
2325 1 17.3095 14.1331 24.4793 3 1e-16 -4.12244
2326 1 16.4852 14.1331 22.1479 3 4e-16 -4.12244
2327 1 18.958 14.1331 22.1479 3 2.01948e-28 -4.12244
2328 1 18.1337 14.1331 19.8166 3 1e-16 -4.12244
2329 1 20.6065 14.1331 19.8166 3 1e-16 -4.12244
2330 1 19.7823 14.1331 17.4852 3 1e-16 -4.12244
2331 1 22.2551 14.1331 17.4852 3 4e-16 -4.12244
2332 1 21.4308 14.1331 15.1539 3 4e-16 -4.12244
2333 1 23.9036 14.1331 15.1539 3 1e-16 -4.12244
2334 1 23.0793 14.1331 12.8225 3 1e-16 -4.12244
2335 1 25.5521 14.1331 12.8225 3 1.89327e-28 -4.12244
2336 1 24.7278 14.1331 10.4911 3 0 -4.12244
2337 1 27.2006 14.1331 10.4911 3 1e-16 -4.12244
2338 1 26.3764 14.1331 8.15977 3 1e-16 -4.12244
2339 1 28.8491 14.1331 8.15977 3 4e-16 -4.12244
2340 1 28.0249 14.1331 5.82841 3 3.99999e-16 -4.12244
2341 1 30.4977 14.1331 5.82841 3 9.99999e-17 -4.12244
2342 1 29.6734 14.1331 3.49704 3 1e-16 -4.12244
2343 1 32.1462 14.1331 3.49704 3 9.99999e-17 -4.12244
2344 1 31.3219 14.1331 1.16568 3 1.69e-18 -4.12244
2345 1 33.7947 14.1331 1.16568 3 4.01691e-16 -4.12244
2346 1 1.64852 12.1141 46.6273 3 5.945e-17 -4.12244
2347 1 4.12131 12.1141 46.6273 3 1.0169e-16 -4.12244
2348 1 3.29705 12.1141 44.2959 3 4e-16 -4.12244
2349 1 5.76983 12.1141 44.2959 3 0 -4.12244
2350 1 4.94557 12.1141 41.9645 3 1e-16 -4.12244
2351 1 7.41835 12.1141 41.9645 3 1e-16 -4.12244
2352 1 6.59409 12.1141 39.6332 3 0 -4.12244
2353 1 9.06687 12.1141 39.6332 3 4e-16 -4.12244
2354 1 8.24261 12.1141 37.3018 3 9.99999e-17 -4.12244
2355 1 10.7154 12.1141 37.3018 3 1e-16 -4.12244
2356 1 9.89114 12.1141 34.9704 3 4e-16 -4.12244
2357 1 12.3639 12.1141 34.9704 3 2.01948e-28 -4.12244
2358 1 11.5397 12.1141 32.6391 3 1e-16 -4.12244
2359 1 14.0124 12.1141 32.6391 3 1e-16 -4.12244
2360 1 13.1882 12.1141 30.3077 3 0 -4.12244
2361 1 15.661 12.1141 30.3077 3 4e-16 -4.12244
2362 1 14.8367 12.1141 27.9764 3 9.99999e-17 -4.12244
2363 1 17.3095 12.1141 27.9764 3 1e-16 -4.12244
2364 1 16.4852 12.1141 25.645 3 4e-16 -4.12244
2365 1 18.958 12.1141 25.645 3 3.5341e-28 -4.12244
2366 1 18.1337 12.1141 23.3136 3 1e-16 -4.12244
2367 1 20.6065 12.1141 23.3136 3 1e-16 -4.12244
2368 1 19.7823 12.1141 20.9823 3 1e-16 -4.12244
2369 1 22.2551 12.1141 20.9823 3 4e-16 -4.12244
2370 1 21.4308 12.1141 18.6509 3 4e-16 -4.12244
2371 1 23.9036 12.1141 18.6509 3 1e-16 -4.12244
2372 1 23.0793 12.1141 16.3195 3 1e-16 -4.12244
2373 1 25.5521 12.1141 16.3195 3 2.52435e-28 -4.12244
2374 1 24.7278 12.1141 13.9882 3 2.52435e-29 -4.12244
2375 1 27.2006 12.1141 13.9882 3 1e-16 -4.12244
2376 1 26.3764 12.1141 11.6568 3 1e-16 -4.12244
2377 1 28.8491 12.1141 11.6568 3 4e-16 -4.12244
2378 1 28.0249 12.1141 9.32545 3 3.99999e-16 -4.12244
2379 1 30.4977 12.1141 9.32545 3 9.99999e-17 -4.12244
2380 1 29.6734 12.1141 6.99409 3 1e-16 -4.12244
2381 1 32.1462 12.1141 6.99409 3 9.99999e-17 -4.12244
2382 1 31.3219 12.1141 4.66273 3 0 -4.12244
2383 1 33.7947 12.1141 4.66273 3 4.00001e-16 -4.12244
2384 1 32.9705 12.1141 2.33136 3 9.99999e-17 -4.12244
2385 1 35.4432 12.1141 2.33136 3 1e-16 -4.12244
2386 1 34.619 12.1141 0 3 4.0507e-16 -4.12244
2387 1 37.0918 12.1141 0 3 5.07001e-18 -4.12244
2388 1 3.29705 10.0951 47.7929 3 4.0507e-16 -4.12244
2389 1 5.76983 10.0951 47.7929 3 5.06996e-18 -4.12244
2390 1 4.94557 10.0951 45.4616 3 1e-16 -4.12244
2391 1 7.41835 10.0951 45.4616 3 1e-16 -4.12244
2392 1 6.59409 10.0951 43.1302 3 6.05845e-28 -4.12244
2393 1 9.06687 10.0951 43.1302 3 4e-16 -4.12244
2394 1 8.24261 10.0951 40.7989 3 9.99999e-17 -4.12244
2395 1 10.7154 10.0951 40.7989 3 1e-16 -4.12244
2396 1 9.89114 10.0951 38.4675 3 4e-16 -4.12244
2397 1 12.3639 10.0951 38.4675 3 0 -4.12244
2398 1 11.5397 10.0951 36.1361 3 1e-16 -4.12244
2399 1 14.0124 10.0951 36.1361 3 1e-16 -4.12244
2400 1 13.1882 10.0951 33.8048 3 0 -4.12244
2401 1 15.661 10.0951 33.8048 3 4e-16 -4.12244
2402 1 14.8367 10.0951 31.4734 3 9.99999e-17 -4.12244
2403 1 17.3095 10.0951 31.4734 3 1e-16 -4.12244
2404 1 16.4852 10.0951 29.142 3 4e-16 -4.12244
2405 1 18.958 10.0951 29.142 3 3.5341e-28 -4.12244
2406 1 18.1337 10.0951 26.8107 3 1e-16 -4.12244
2407 1 20.6065 10.0951 26.8107 3 1e-16 -4.12244
2408 1 19.7823 10.0951 24.4793 3 1e-16 -4.12244
2409 1 22.2551 10.0951 24.4793 3 4e-16 -4.12244
2410 1 21.4308 10.0951 22.1479 3 4e-16 -4.12244
2411 1 23.9036 10.0951 22.1479 3 1e-16 -4.12244
2412 1 23.0793 10.0951 19.8166 3 1e-16 -4.12244
2413 1 25.5521 10.0951 19.8166 3 1.51461e-28 -4.12244
2414 1 24.7278 10.0951 17.4852 3 1.00974e-28 -4.12244
2415 1 27.2006 10.0951 17.4852 3 1e-16 -4.12244
2416 1 26.3764 10.0951 15.1539 3 1e-16 -4.12244
2417 1 28.8491 10.0951 15.1539 3 4e-16 -4.12244
2418 1 28.0249 10.0951 12.8225 3 3.99999e-16 -4.12244
2419 1 30.4977 10.0951 12.8225 3 9.99999e-17 -4.12244
2420 1 29.6734 10.0951 10.4911 3 1e-16 -4.12244
2421 1 32.1462 10.0951 10.4911 3 9.99999e-17 -4.12244
2422 1 31.3219 10.0951 8.15977 3 1.26218e-29 -4.12244
2423 1 33.7947 10.0951 8.15977 3 4.00001e-16 -4.12244
2424 1 32.9705 10.0951 5.82841 3 9.99999e-17 -4.12244
2425 1 35.4432 10.0951 5.82841 3 1e-16 -4.12244
2426 1 34.619 10.0951 3.49704 3 4e-16 -4.12244
2427 1 37.0918 10.0951 3.49704 3 7.88861e-31 -4.12244
2428 1 36.2675 10.0951 1.16568 3 1.0169e-16 -4.12244
2429 1 38.7403 10.0951 1.16568 3 1.0169e-16 -4.12244
2430 1 6.59409 8.07608 46.6273 3 1.69002e-18 -4.12244
2431 1 9.06687 8.07608 46.6273 3 4.0169e-16 -4.12244
2432 1 8.24261 8.07608 44.2959 3 9.99999e-17 -4.12244
2433 1 10.7154 8.07608 44.2959 3 1e-16 -4.12244
2434 1 9.89114 8.07608 41.9645 3 4e-16 -4.12244
2435 1 12.3639 8.07608 41.9645 3 0 -4.12244
2436 1 11.5397 8.07608 39.6332 3 1e-16 -4.12244
2437 1 14.0124 8.07608 39.6332 3 1e-16 -4.12244
2438 1 13.1882 8.07608 37.3018 3 0 -4.12244
2439 1 15.661 8.07608 37.3018 3 4e-16 -4.12244
2440 1 14.8367 8.07608 34.9704 3 9.99999e-17 -4.12244
2441 1 17.3095 8.07608 34.9704 3 1e-16 -4.12244
2442 1 16.4852 8.07608 32.6391 3 4e-16 -4.12244
2443 1 18.958 8.07608 32.6391 3 4.03897e-28 -4.12244
2444 1 18.1337 8.07608 30.3077 3 1e-16 -4.12244
2445 1 20.6065 8.07608 30.3077 3 1e-16 -4.12244
2446 1 19.7823 8.07608 27.9764 3 1e-16 -4.12244
2447 1 22.2551 8.07608 27.9764 3 4e-16 -4.12244
2448 1 21.4308 8.07608 25.645 3 4e-16 -4.12244
2449 1 23.9036 8.07608 25.645 3 1e-16 -4.12244
2450 1 23.0793 8.07608 23.3136 3 1e-16 -4.12244
2451 1 25.5521 8.07608 23.3136 3 1.51461e-28 -4.12244
2452 1 24.7278 8.07608 20.9823 3 0 -4.12244
2453 1 27.2006 8.07608 20.9823 3 1e-16 -4.12244
2454 1 26.3764 8.07608 18.6509 3 1e-16 -4.12244
2455 1 28.8491 8.07608 18.6509 3 4e-16 -4.12244
2456 1 28.0249 8.07608 16.3195 3 3.99999e-16 -4.12244
2457 1 30.4977 8.07608 16.3195 3 9.99999e-17 -4.12244
2458 1 29.6734 8.07608 13.9882 3 1e-16 -4.12244
2459 1 32.1462 8.07608 13.9882 3 9.99999e-17 -4.12244
2460 1 31.3219 8.07608 11.6568 3 0 -4.12244
2461 1 33.7947 8.07608 11.6568 3 4.00001e-16 -4.12244
2462 1 32.9705 8.07608 9.32545 3 9.99999e-17 -4.12244
2463 1 35.4432 8.07608 9.32545 3 1e-16 -4.12244
2464 1 34.619 8.07608 6.99409 3 4e-16 -4.12244
2465 1 37.0918 8.07608 6.99409 3 0 -4.12244
2466 1 36.2675 8.07608 4.66273 3 1e-16 -4.12244
2467 1 38.7403 8.07608 4.66273 3 1e-16 -4.12244
2468 1 37.916 8.07608 2.33136 3 8.07794e-28 -4.12244
2469 1 40.3888 8.07608 2.33136 3 3.99999e-16 -4.12244
2470 1 39.5645 8.07608 0 3 1.0507e-16 -4.12244
2471 1 42.0373 8.07608 0 3 1.0507e-16 -4.12244
2472 1 8.24261 6.05706 47.7929 3 1.0507e-16 -4.12244
2473 1 10.7154 6.05706 47.7929 3 1.0507e-16 -4.12244
2474 1 9.89114 6.05706 45.4616 3 4e-16 -4.12244
2475 1 12.3639 6.05706 45.4616 3 0 -4.12244
2476 1 11.5397 6.05706 43.1302 3 1e-16 -4.12244
2477 1 14.0124 6.05706 43.1302 3 1e-16 -4.12244
2478 1 13.1882 6.05706 40.7989 3 6.05845e-28 -4.12244
2479 1 15.661 6.05706 40.7989 3 4e-16 -4.12244
2480 1 14.8367 6.05706 38.4675 3 9.99999e-17 -4.12244
2481 1 17.3095 6.05706 38.4675 3 1e-16 -4.12244
2482 1 16.4852 6.05706 36.1361 3 4e-16 -4.12244
2483 1 18.958 6.05706 36.1361 3 8.07794e-28 -4.12244
2484 1 18.1337 6.05706 33.8048 3 1e-16 -4.12244
2485 1 20.6065 6.05706 33.8048 3 1e-16 -4.12244
2486 1 19.7823 6.05706 31.4734 3 1e-16 -4.12244
2487 1 22.2551 6.05706 31.4734 3 4e-16 -4.12244
2488 1 21.4308 6.05706 29.142 3 4e-16 -4.12244
2489 1 23.9036 6.05706 29.142 3 1e-16 -4.12244
2490 1 23.0793 6.05706 26.8107 3 1e-16 -4.12244
2491 1 25.5521 6.05706 26.8107 3 1.51461e-28 -4.12244
2492 1 24.7278 6.05706 24.4793 3 1.00974e-28 -4.12244
2493 1 27.2006 6.05706 24.4793 3 1e-16 -4.12244
2494 1 26.3764 6.05706 22.1479 3 1e-16 -4.12244
2495 1 28.8491 6.05706 22.1479 3 4e-16 -4.12244
2496 1 28.0249 6.05706 19.8166 3 3.99999e-16 -4.12244
2497 1 30.4977 6.05706 19.8166 3 9.99999e-17 -4.12244
2498 1 29.6734 6.05706 17.4852 3 1e-16 -4.12244
2499 1 32.1462 6.05706 17.4852 3 9.99999e-17 -4.12244
2500 1 31.3219 6.05706 15.1539 3 0 -4.12244
2501 1 33.7947 6.05706 15.1539 3 4.00001e-16 -4.12244
2502 1 32.9705 6.05706 12.8225 3 9.99999e-17 -4.12244
2503 1 35.4432 6.05706 12.8225 3 1e-16 -4.12244
2504 1 34.619 6.05706 10.4911 3 4e-16 -4.12244
2505 1 37.0918 6.05706 10.4911 3 0 -4.12244
2506 1 36.2675 6.05706 8.15977 3 1e-16 -4.12244
2507 1 38.7403 6.05706 8.15977 3 1e-16 -4.12244
2508 1 37.916 6.05706 5.82841 3 8.10949e-28 -4.12244
2509 1 40.3888 6.05706 5.82841 3 3.99999e-16 -4.12244
2510 1 39.5645 6.05706 3.49704 3 1e-16 -4.12244
2511 1 42.0373 6.05706 3.49704 3 1e-16 -4.12244
2512 1 41.2131 6.05706 1.16568 3 4.01691e-16 -4.12244
2513 1 43.6859 6.05706 1.16568 3 1.69e-18 -4.12244
2514 1 11.5397 4.03804 46.6273 3 1.0169e-16 -4.12244
2515 1 14.0124 4.03804 46.6273 3 1.0169e-16 -4.12244
2516 1 13.1882 4.03804 44.2959 3 0 -4.12244
2517 1 15.661 4.03804 44.2959 3 4e-16 -4.12244
2518 1 14.8367 4.03804 41.9645 3 9.99999e-17 -4.12244
2519 1 17.3095 4.03804 41.9645 3 1e-16 -4.12244
2520 1 16.4852 4.03804 39.6332 3 4e-16 -4.12244
2521 1 18.958 4.03804 39.6332 3 2.01948e-28 -4.12244
2522 1 18.1337 4.03804 37.3018 3 1e-16 -4.12244
2523 1 20.6065 4.03804 37.3018 3 1e-16 -4.12244
2524 1 19.7823 4.03804 34.9704 3 1e-16 -4.12244
2525 1 22.2551 4.03804 34.9704 3 4e-16 -4.12244
2526 1 21.4308 4.03804 32.6391 3 4e-16 -4.12244
2527 1 23.9036 4.03804 32.6391 3 1e-16 -4.12244
2528 1 23.0793 4.03804 30.3077 3 1e-16 -4.12244
2529 1 25.5521 4.03804 30.3077 3 1.51461e-28 -4.12244
2530 1 24.7278 4.03804 27.9764 3 1.51461e-28 -4.12244
2531 1 27.2006 4.03804 27.9764 3 1e-16 -4.12244
2532 1 26.3764 4.03804 25.645 3 1e-16 -4.12244
2533 1 28.8491 4.03804 25.645 3 4e-16 -4.12244
2534 1 28.0249 4.03804 23.3136 3 3.99999e-16 -4.12244
2535 1 30.4977 4.03804 23.3136 3 9.99999e-17 -4.12244
2536 1 29.6734 4.03804 20.9823 3 1e-16 -4.12244
2537 1 32.1462 4.03804 20.9823 3 9.99999e-17 -4.12244
2538 1 31.3219 4.03804 18.6509 3 0 -4.12244
2539 1 33.7947 4.03804 18.6509 3 4.00001e-16 -4.12244
2540 1 32.9705 4.03804 16.3195 3 9.99999e-17 -4.12244
2541 1 35.4432 4.03804 16.3195 3 1e-16 -4.12244
2542 1 34.619 4.03804 13.9882 3 4e-16 -4.12244
2543 1 37.0918 4.03804 13.9882 3 2.52435e-29 -4.12244
2544 1 36.2675 4.03804 11.6568 3 1e-16 -4.12244
2545 1 38.7403 4.03804 11.6568 3 1e-16 -4.12244
2546 1 37.916 4.03804 9.32545 3 8.07794e-28 -4.12244
2547 1 40.3888 4.03804 9.32545 3 3.99999e-16 -4.12244
2548 1 39.5645 4.03804 6.99409 3 1e-16 -4.12244
2549 1 42.0373 4.03804 6.99409 3 1e-16 -4.12244
2550 1 41.2131 4.03804 4.66273 3 4.00001e-16 -4.12244
2551 1 43.6859 4.03804 4.66273 3 2.01948e-28 -4.12244
2552 1 42.8616 4.03804 2.33136 3 9.99999e-17 -4.12244
2553 1 45.3344 4.03804 2.33136 3 9.99999e-17 -4.12244
2554 1 44.5101 4.03804 0 3 5.07001e-18 -4.12244
2555 1 46.9829 4.03804 0 3 4.0507e-16 -4.12244
2556 1 13.1882 2.01902 47.7929 3 5.06996e-18 -4.10627
2557 1 15.661 2.01902 47.7929 3 4.0507e-16 -4.10627
2558 1 14.8367 2.01902 45.4616 3 9.99999e-17 -4.10627
2559 1 17.3095 2.01902 45.4616 3 1e-16 -4.10627
2560 1 16.4852 2.01902 43.1302 3 4e-16 -4.10627
2561 1 18.958 2.01902 43.1302 3 8.07794e-28 -4.10627
2562 1 18.1337 2.01902 40.7989 3 1e-16 -4.10627
2563 1 20.6065 2.01902 40.7989 3 1e-16 -4.10627
2564 1 19.7823 2.01902 38.4675 3 1e-16 -4.10627
2565 1 22.2551 2.01902 38.4675 3 4e-16 -4.10627
2566 1 21.4308 2.01902 36.1361 3 4e-16 -4.10627
2567 1 23.9036 2.01902 36.1361 3 1e-16 -4.10627
2568 1 23.0793 2.01902 33.8048 3 1e-16 -4.10627
2569 1 25.5521 2.01902 33.8048 3 1.51461e-28 -4.10627
2570 1 24.7278 2.01902 31.4734 3 5.04871e-29 -4.10627
2571 1 27.2006 2.01902 31.4734 3 1e-16 -4.10627
2572 1 26.3764 2.01902 29.142 3 1e-16 -4.10627
2573 1 28.8491 2.01902 29.142 3 4e-16 -4.10627
2574 1 28.0249 2.01902 26.8107 3 3.99999e-16 -4.10627
2575 1 30.4977 2.01902 26.8107 3 9.99999e-17 -4.10627
2576 1 29.6734 2.01902 24.4793 3 1e-16 -4.10627
2577 1 32.1462 2.01902 24.4793 3 9.99999e-17 -4.10627
2578 1 31.3219 2.01902 22.1479 3 0 -4.10627
2579 1 33.7947 2.01902 22.1479 3 4.00001e-16 -4.10627
2580 1 32.9705 2.01902 19.8166 3 9.99999e-17 -4.10627
2581 1 35.4432 2.01902 19.8166 3 1e-16 -4.10627
2582 1 34.619 2.01902 17.4852 3 4e-16 -4.10627
2583 1 37.0918 2.01902 17.4852 3 1.00974e-28 -4.10627
2584 1 36.2675 2.01902 15.1539 3 1e-16 -4.10627
2585 1 38.7403 2.01902 15.1539 3 1e-16 -4.10627
2586 1 37.916 2.01902 12.8225 3 8.45659e-28 -4.10627
2587 1 40.3888 2.01902 12.8225 3 3.99999e-16 -4.10627
2588 1 39.5645 2.01902 10.4911 3 1e-16 -4.10627
2589 1 42.0373 2.01902 10.4911 3 1e-16 -4.10627
2590 1 41.2131 2.01902 8.15977 3 4.00001e-16 -4.10627
2591 1 43.6859 2.01902 8.15977 3 2.1457e-28 -4.10627
2592 1 42.8616 2.01902 5.82841 3 9.99999e-17 -4.10627
2593 1 45.3344 2.01902 5.82841 3 9.99999e-17 -4.10627
2594 1 44.5101 2.01902 3.49704 3 2.02737e-28 -4.10627
2595 1 46.9829 2.01902 3.49704 3 3.99999e-16 -4.10627
2596 1 46.1586 2.01902 1.16568 3 1.0169e-16 -4.10627
2597 1 48.6314 2.01902 1.16568 3 1.0169e-16 -4.10627
2598 1 16.4852 0 46.6273 5 12.2293 -3.54465
2599 1 18.958 -0 46.6273 5 12.2293 -3.54465
2600 1 18.1337 0 44.2959 5 12.2293 -3.54465
2601 1 20.6065 -0 44.2959 5 12.2293 -3.54465
2602 1 19.7823 0 41.9645 5 12.2293 -3.54465
2603 1 22.2551 -0 41.9645 5 12.2293 -3.54465
2604 1 21.4308 0 39.6332 5 12.2293 -3.54465
2605 1 23.9036 -0 39.6332 5 12.2293 -3.54465
2606 1 23.0793 0 37.3018 5 12.2293 -3.54465
2607 1 25.5521 -0 37.3018 5 12.2293 -3.54465
2608 1 24.7278 0 34.9704 5 12.2293 -3.54465
2609 1 27.2006 -0 34.9704 5 12.2293 -3.54465
2610 1 26.3764 0 32.6391 5 12.2293 -3.54465
2611 1 28.8491 -0 32.6391 5 12.2293 -3.54465
2612 1 28.0249 0 30.3077 5 12.2293 -3.54465
2613 1 30.4977 -0 30.3077 5 12.2293 -3.54465
2614 1 29.6734 0 27.9764 5 12.2293 -3.54465
2615 1 32.1462 -0 27.9764 5 12.2293 -3.54465
2616 1 31.3219 0 25.645 5 12.2293 -3.54465
2617 1 33.7947 -0 25.645 5 12.2293 -3.54465
2618 1 32.9705 0 23.3136 5 12.2293 -3.54465
2619 1 35.4432 -0 23.3136 5 12.2293 -3.54465
2620 1 34.619 0 20.9823 5 12.2293 -3.54465
2621 1 37.0918 -0 20.9823 5 12.2293 -3.54465
2622 1 36.2675 0 18.6509 5 12.2293 -3.54465
2623 1 38.7403 -0 18.6509 5 12.2293 -3.54465
2624 1 37.916 0 16.3195 5 12.2293 -3.54465
2625 1 40.3888 -0 16.3195 5 12.2293 -3.54465
2626 1 39.5645 0 13.9882 5 12.2293 -3.54465
2627 1 42.0373 -0 13.9882 5 12.2293 -3.54465
2628 1 41.2131 0 11.6568 5 12.2293 -3.54465
2629 1 43.6859 -0 11.6568 5 12.2293 -3.54465
2630 1 42.8616 0 9.32545 5 12.2293 -3.54465
2631 1 45.3344 -0 9.32545 5 12.2293 -3.54465
2632 1 44.5101 0 6.99409 5 12.2293 -3.54465
2633 1 46.9829 -0 6.99409 5 12.2293 -3.54465
2634 1 46.1586 0 4.66273 5 12.2293 -3.54465
2635 1 48.6314 -0 4.66273 5 12.2293 -3.54465
2636 1 47.8072 0 2.33136 5 12.2293 -3.54465
2637 1 50.2799 -0 2.33136 5 12.2293 -3.54465
2638 1 49.4557 0 0 5 12.2293 -3.54465
2639 1 51.9285 -0 0 5 12.2293 -3.54465
2640 1 0.824261 44.4184 2.33136 3 5.776e-17 -4.12244
2641 1 0 44.4184 0 3 2.811e-17 -4.12244
2642 1 2.47278 44.4184 0 3 4.0507e-16 -4.12244
2643 1 0.824261 42.3994 5.82841 3 5.776e-17 -4.12244
2644 1 0 42.3994 3.49704 3 2.304e-17 -4.12244
2645 1 2.47278 42.3994 3.49704 3 4e-16 -4.12244
2646 1 1.64852 42.3994 1.16568 3 5.945e-17 -4.12244
2647 1 4.12131 42.3994 1.16568 3 1.0169e-16 -4.12244
2648 1 0.824261 40.3804 9.32545 3 5.776e-17 -4.12244
2649 1 0 40.3804 6.99409 3 2.304e-17 -4.12244
2650 1 2.47278 40.3804 6.99409 3 4e-16 -4.12244
2651 1 1.64852 40.3804 4.66273 3 5.776e-17 -4.12244
2652 1 4.12131 40.3804 4.66273 3 1e-16 -4.12244
2653 1 3.29705 40.3804 2.33136 3 4e-16 -4.12244
2654 1 5.76983 40.3804 2.33136 3 0 -4.12244
2655 1 4.94557 40.3804 0 3 1.0507e-16 -4.12244
2656 1 7.41835 40.3804 0 3 1.0507e-16 -4.12244
2657 1 0.824261 38.3614 12.8225 3 5.776e-17 -4.12244
2658 1 0 38.3614 10.4911 3 2.304e-17 -4.12244
2659 1 2.47278 38.3614 10.4911 3 4e-16 -4.12244
2660 1 1.64852 38.3614 8.15977 3 5.776e-17 -4.12244
2661 1 4.12131 38.3614 8.15977 3 1e-16 -4.12244
2662 1 3.29705 38.3614 5.82841 3 4e-16 -4.12244
2663 1 5.76983 38.3614 5.82841 3 3.15544e-30 -4.12244
2664 1 4.94557 38.3614 3.49704 3 1e-16 -4.12244
2665 1 7.41835 38.3614 3.49704 3 1e-16 -4.12244
2666 1 6.59409 38.3614 1.16568 3 1.69e-18 -4.12244
2667 1 9.06687 38.3614 1.16568 3 4.0169e-16 -4.12244
2668 1 0.824261 36.3424 16.3195 3 5.776e-17 -4.12244
2669 1 0 36.3424 13.9882 3 2.304e-17 -4.12244
2670 1 2.47278 36.3424 13.9882 3 4e-16 -4.12244
2671 1 1.64852 36.3424 11.6568 3 5.776e-17 -4.12244
2672 1 4.12131 36.3424 11.6568 3 1e-16 -4.12244
2673 1 3.29705 36.3424 9.32545 3 4e-16 -4.12244
2674 1 5.76983 36.3424 9.32545 3 0 -4.12244
2675 1 4.94557 36.3424 6.99409 3 1e-16 -4.12244
2676 1 7.41835 36.3424 6.99409 3 1e-16 -4.12244
2677 1 6.59409 36.3424 4.66273 3 0 -4.12244
2678 1 9.06687 36.3424 4.66273 3 4e-16 -4.12244
2679 1 8.24261 36.3424 2.33136 3 9.99999e-17 -4.12244
2680 1 10.7154 36.3424 2.33136 3 1e-16 -4.12244
2681 1 9.89114 36.3424 0 3 4.0507e-16 -4.12244
2682 1 12.3639 36.3424 0 3 5.07001e-18 -4.12244
2683 1 0.824261 34.3233 19.8166 3 5.776e-17 -4.12244
2684 1 0 34.3233 17.4852 3 2.304e-17 -4.12244
2685 1 2.47278 34.3233 17.4852 3 4e-16 -4.12244
2686 1 1.64852 34.3233 15.1539 3 5.776e-17 -4.12244
2687 1 4.12131 34.3233 15.1539 3 1e-16 -4.12244
2688 1 3.29705 34.3233 12.8225 3 4e-16 -4.12244
2689 1 5.76983 34.3233 12.8225 3 3.78653e-29 -4.12244
2690 1 4.94557 34.3233 10.4911 3 1e-16 -4.12244
2691 1 7.41835 34.3233 10.4911 3 1e-16 -4.12244
2692 1 6.59409 34.3233 8.15977 3 1.26218e-29 -4.12244
2693 1 9.06687 34.3233 8.15977 3 4e-16 -4.12244
2694 1 8.24261 34.3233 5.82841 3 9.99999e-17 -4.12244
2695 1 10.7154 34.3233 5.82841 3 1e-16 -4.12244
2696 1 9.89114 34.3233 3.49704 3 4e-16 -4.12244
2697 1 12.3639 34.3233 3.49704 3 7.88861e-31 -4.12244
2698 1 11.5397 34.3233 1.16568 3 1.0169e-16 -4.12244
2699 1 14.0124 34.3233 1.16568 3 1.0169e-16 -4.12244
2700 1 0.824261 32.3043 23.3136 3 5.776e-17 -4.12244
2701 1 0 32.3043 20.9823 3 2.304e-17 -4.12244
2702 1 2.47278 32.3043 20.9823 3 4e-16 -4.12244
2703 1 1.64852 32.3043 18.6509 3 5.776e-17 -4.12244
2704 1 4.12131 32.3043 18.6509 3 1e-16 -4.12244
2705 1 3.29705 32.3043 16.3195 3 4e-16 -4.12244
2706 1 5.76983 32.3043 16.3195 3 1.00974e-28 -4.12244
2707 1 4.94557 32.3043 13.9882 3 1e-16 -4.12244
2708 1 7.41835 32.3043 13.9882 3 1e-16 -4.12244
2709 1 6.59409 32.3043 11.6568 3 0 -4.12244
2710 1 9.06687 32.3043 11.6568 3 4e-16 -4.12244
2711 1 8.24261 32.3043 9.32545 3 9.99999e-17 -4.12244
2712 1 10.7154 32.3043 9.32545 3 1e-16 -4.12244
2713 1 9.89114 32.3043 6.99409 3 4e-16 -4.12244
2714 1 12.3639 32.3043 6.99409 3 0 -4.12244
2715 1 11.5397 32.3043 4.66273 3 1e-16 -4.12244
2716 1 14.0124 32.3043 4.66273 3 1e-16 -4.12244
2717 1 13.1882 32.3043 2.33136 3 0 -4.12244
2718 1 15.661 32.3043 2.33136 3 4e-16 -4.12244
2719 1 14.8367 32.3043 0 3 1.0507e-16 -4.12244
2720 1 17.3095 32.3043 0 3 1.0507e-16 -4.12244
2721 1 0.824261 30.2853 26.8107 3 5.776e-17 -4.12244
2722 1 0 30.2853 24.4793 3 2.304e-17 -4.12244
2723 1 2.47278 30.2853 24.4793 3 4e-16 -4.12244
2724 1 1.64852 30.2853 22.1479 3 5.776e-17 -4.12244
2725 1 4.12131 30.2853 22.1479 3 1e-16 -4.12244
2726 1 3.29705 30.2853 19.8166 3 4e-16 -4.12244
2727 1 5.76983 30.2853 19.8166 3 1.00974e-28 -4.12244
2728 1 4.94557 30.2853 17.4852 3 1e-16 -4.12244
2729 1 7.41835 30.2853 17.4852 3 1e-16 -4.12244
2730 1 6.59409 30.2853 15.1539 3 1.00974e-28 -4.12244
2731 1 9.06687 30.2853 15.1539 3 4e-16 -4.12244
2732 1 8.24261 30.2853 12.8225 3 9.99999e-17 -4.12244
2733 1 10.7154 30.2853 12.8225 3 1e-16 -4.12244
2734 1 9.89114 30.2853 10.4911 3 4e-16 -4.12244
2735 1 12.3639 30.2853 10.4911 3 1.00974e-28 -4.12244
2736 1 11.5397 30.2853 8.15977 3 1e-16 -4.12244
2737 1 14.0124 30.2853 8.15977 3 1e-16 -4.12244
2738 1 13.1882 30.2853 5.82841 3 1.0413e-28 -4.12244
2739 1 15.661 30.2853 5.82841 3 4e-16 -4.12244
2740 1 14.8367 30.2853 3.49704 3 9.99999e-17 -4.12244
2741 1 17.3095 30.2853 3.49704 3 1e-16 -4.12244
2742 1 16.4852 30.2853 1.16568 3 4.0169e-16 -4.12244
2743 1 18.958 30.2853 1.16568 3 1.69e-18 -4.12244
2744 1 0.824261 28.2663 30.3077 3 5.776e-17 -4.12244
2745 1 0 28.2663 27.9764 3 2.304e-17 -4.12244
2746 1 2.47278 28.2663 27.9764 3 4e-16 -4.12244
2747 1 1.64852 28.2663 25.645 3 5.776e-17 -4.12244
2748 1 4.12131 28.2663 25.645 3 1e-16 -4.12244
2749 1 3.29705 28.2663 23.3136 3 4e-16 -4.12244
2750 1 5.76983 28.2663 23.3136 3 0 -4.12244
2751 1 4.94557 28.2663 20.9823 3 1e-16 -4.12244
2752 1 7.41835 28.2663 20.9823 3 1e-16 -4.12244
2753 1 6.59409 28.2663 18.6509 3 0 -4.12244
2754 1 9.06687 28.2663 18.6509 3 4e-16 -4.12244
2755 1 8.24261 28.2663 16.3195 3 9.99999e-17 -4.12244
2756 1 10.7154 28.2663 16.3195 3 1e-16 -4.12244
2757 1 9.89114 28.2663 13.9882 3 4e-16 -4.12244
2758 1 12.3639 28.2663 13.9882 3 2.52435e-29 -4.12244
2759 1 11.5397 28.2663 11.6568 3 1e-16 -4.12244
2760 1 14.0124 28.2663 11.6568 3 1e-16 -4.12244
2761 1 13.1882 28.2663 9.32545 3 0 -4.12244
2762 1 15.661 28.2663 9.32545 3 4e-16 -4.12244
2763 1 14.8367 28.2663 6.99409 3 9.99999e-17 -4.12244
2764 1 17.3095 28.2663 6.99409 3 1e-16 -4.12244
2765 1 16.4852 28.2663 4.66273 3 4e-16 -4.12244
2766 1 18.958 28.2663 4.66273 3 2.01948e-28 -4.12244
2767 1 18.1337 28.2663 2.33136 3 1e-16 -4.12244
2768 1 20.6065 28.2663 2.33136 3 1e-16 -4.12244
2769 1 19.7823 28.2663 0 3 1.0507e-16 -4.12244
2770 1 22.2551 28.2663 0 3 4.0507e-16 -4.12244
2771 1 0.824261 26.2473 33.8048 3 5.776e-17 -4.12244
2772 1 0 26.2473 31.4734 3 2.304e-17 -4.12244
2773 1 2.47278 26.2473 31.4734 3 4e-16 -4.12244
2774 1 1.64852 26.2473 29.142 3 5.776e-17 -4.12244
2775 1 4.12131 26.2473 29.142 3 1e-16 -4.12244
2776 1 3.29705 26.2473 26.8107 3 4e-16 -4.12244
2777 1 5.76983 26.2473 26.8107 3 1.00974e-28 -4.12244
2778 1 4.94557 26.2473 24.4793 3 1e-16 -4.12244
2779 1 7.41835 26.2473 24.4793 3 1e-16 -4.12244
2780 1 6.59409 26.2473 22.1479 3 1.00974e-28 -4.12244
2781 1 9.06687 26.2473 22.1479 3 4e-16 -4.12244
2782 1 8.24261 26.2473 19.8166 3 9.99999e-17 -4.12244
2783 1 10.7154 26.2473 19.8166 3 1e-16 -4.12244
2784 1 9.89114 26.2473 17.4852 3 4e-16 -4.12244
2785 1 12.3639 26.2473 17.4852 3 2.01948e-28 -4.12244
2786 1 11.5397 26.2473 15.1539 3 1e-16 -4.12244
2787 1 14.0124 26.2473 15.1539 3 1e-16 -4.12244
2788 1 13.1882 26.2473 12.8225 3 1.3884e-28 -4.12244
2789 1 15.661 26.2473 12.8225 3 4e-16 -4.12244
2790 1 14.8367 26.2473 10.4911 3 9.99999e-17 -4.12244
2791 1 17.3095 26.2473 10.4911 3 1e-16 -4.12244
2792 1 16.4852 26.2473 8.15977 3 4e-16 -4.12244
2793 1 18.958 26.2473 8.15977 3 3.15544e-28 -4.12244
2794 1 18.1337 26.2473 5.82841 3 1e-16 -4.12244
2795 1 20.6065 26.2473 5.82841 3 1e-16 -4.12244
2796 1 19.7823 26.2473 3.49704 3 1e-16 -4.12244
2797 1 22.2551 26.2473 3.49704 3 4e-16 -4.12244
2798 1 21.4308 26.2473 1.16568 3 4.0169e-16 -4.12244
2799 1 23.9036 26.2473 1.16568 3 1.0169e-16 -4.12244
2800 1 0.824261 24.2282 37.3018 3 5.776e-17 -4.12244
2801 1 0 24.2282 34.9704 3 2.304e-17 -4.12244
2802 1 2.47278 24.2282 34.9704 3 4e-16 -4.12244
2803 1 1.64852 24.2282 32.6391 3 5.776e-17 -4.12244
2804 1 4.12131 24.2282 32.6391 3 1e-16 -4.12244
2805 1 3.29705 24.2282 30.3077 3 4e-16 -4.12244
2806 1 5.76983 24.2282 30.3077 3 0 -4.12244
2807 1 4.94557 24.2282 27.9764 3 1e-16 -4.12244
2808 1 7.41835 24.2282 27.9764 3 1e-16 -4.12244
2809 1 6.59409 24.2282 25.645 3 1.51461e-28 -4.12244
2810 1 9.06687 24.2282 25.645 3 4e-16 -4.12244
2811 1 8.24261 24.2282 23.3136 3 9.99999e-17 -4.12244
2812 1 10.7154 24.2282 23.3136 3 1e-16 -4.12244
2813 1 9.89114 24.2282 20.9823 3 4e-16 -4.12244
2814 1 12.3639 24.2282 20.9823 3 0 -4.12244
2815 1 11.5397 24.2282 18.6509 3 1e-16 -4.12244
2816 1 14.0124 24.2282 18.6509 3 1e-16 -4.12244
2817 1 13.1882 24.2282 16.3195 3 1.00974e-28 -4.12244
2818 1 15.661 24.2282 16.3195 3 4e-16 -4.12244
2819 1 14.8367 24.2282 13.9882 3 9.99999e-17 -4.12244
2820 1 17.3095 24.2282 13.9882 3 1e-16 -4.12244
2821 1 16.4852 24.2282 11.6568 3 4e-16 -4.12244
2822 1 18.958 24.2282 11.6568 3 2.01948e-28 -4.12244
2823 1 18.1337 24.2282 9.32545 3 1e-16 -4.12244
2824 1 20.6065 24.2282 9.32545 3 1e-16 -4.12244
2825 1 19.7823 24.2282 6.99409 3 1e-16 -4.12244
2826 1 22.2551 24.2282 6.99409 3 4e-16 -4.12244
2827 1 21.4308 24.2282 4.66273 3 4e-16 -4.12244
2828 1 23.9036 24.2282 4.66273 3 1e-16 -4.12244
2829 1 23.0793 24.2282 2.33136 3 1e-16 -4.12244
2830 1 25.5521 24.2282 2.33136 3 1.51461e-28 -4.12244
2831 1 24.7278 24.2282 0 3 5.07001e-18 -4.12244
2832 1 27.2006 24.2282 0 3 1.0507e-16 -4.12244
2833 1 0.824261 22.2092 40.7989 3 5.776e-17 -4.12244
2834 1 0 22.2092 38.4675 3 2.304e-17 -4.12244
2835 1 2.47278 22.2092 38.4675 3 4e-16 -4.12244
2836 1 1.64852 22.2092 36.1361 3 5.776e-17 -4.12244
2837 1 4.12131 22.2092 36.1361 3 1e-16 -4.12244
2838 1 3.29705 22.2092 33.8048 3 4e-16 -4.12244
2839 1 5.76983 22.2092 33.8048 3 0 -4.12244
2840 1 4.94557 22.2092 31.4734 3 1e-16 -4.12244
2841 1 7.41835 22.2092 31.4734 3 1e-16 -4.12244
2842 1 6.59409 22.2092 29.142 3 1.51461e-28 -4.12244
2843 1 9.06687 22.2092 29.142 3 4e-16 -4.12244
2844 1 8.24261 22.2092 26.8107 3 9.99999e-17 -4.12244
2845 1 10.7154 22.2092 26.8107 3 1e-16 -4.12244
2846 1 9.89114 22.2092 24.4793 3 4e-16 -4.12244
2847 1 12.3639 22.2092 24.4793 3 1.00974e-28 -4.12244
2848 1 11.5397 22.2092 22.1479 3 1e-16 -4.12244
2849 1 14.0124 22.2092 22.1479 3 1e-16 -4.12244
2850 1 13.1882 22.2092 19.8166 3 0 -4.12244
2851 1 15.661 22.2092 19.8166 3 4e-16 -4.12244
2852 1 14.8367 22.2092 17.4852 3 9.99999e-17 -4.12244
2853 1 17.3095 22.2092 17.4852 3 1e-16 -4.12244
2854 1 16.4852 22.2092 15.1539 3 4e-16 -4.12244
2855 1 18.958 22.2092 15.1539 3 2.01948e-28 -4.12244
2856 1 18.1337 22.2092 12.8225 3 1e-16 -4.12244
2857 1 20.6065 22.2092 12.8225 3 1e-16 -4.12244
2858 1 19.7823 22.2092 10.4911 3 1e-16 -4.12244
2859 1 22.2551 22.2092 10.4911 3 4e-16 -4.12244
2860 1 21.4308 22.2092 8.15977 3 4e-16 -4.12244
2861 1 23.9036 22.2092 8.15977 3 1e-16 -4.12244
2862 1 23.0793 22.2092 5.82841 3 1e-16 -4.12244
2863 1 25.5521 22.2092 5.82841 3 1.54617e-28 -4.12244
2864 1 24.7278 22.2092 3.49704 3 7.88861e-31 -4.12244
2865 1 27.2006 22.2092 3.49704 3 1e-16 -4.12244
2866 1 26.3764 22.2092 1.16568 3 1.0169e-16 -4.12244
2867 1 28.8491 22.2092 1.16568 3 4.0169e-16 -4.12244
2868 1 0.824261 20.1902 44.2959 3 5.776e-17 -4.12244
2869 1 0 20.1902 41.9645 3 2.304e-17 -4.12244
2870 1 2.47278 20.1902 41.9645 3 4e-16 -4.12244
2871 1 1.64852 20.1902 39.6332 3 5.776e-17 -4.12244
2872 1 4.12131 20.1902 39.6332 3 1e-16 -4.12244
2873 1 3.29705 20.1902 37.3018 3 4e-16 -4.12244
2874 1 5.76983 20.1902 37.3018 3 0 -4.12244
2875 1 4.94557 20.1902 34.9704 3 1e-16 -4.12244
2876 1 7.41835 20.1902 34.9704 3 1e-16 -4.12244
2877 1 6.59409 20.1902 32.6391 3 2.01948e-28 -4.12244
2878 1 9.06687 20.1902 32.6391 3 4e-16 -4.12244
2879 1 8.24261 20.1902 30.3077 3 9.99999e-17 -4.12244
2880 1 10.7154 20.1902 30.3077 3 1e-16 -4.12244
2881 1 9.89114 20.1902 27.9764 3 4e-16 -4.12244
2882 1 12.3639 20.1902 27.9764 3 1.51461e-28 -4.12244
2883 1 11.5397 20.1902 25.645 3 1e-16 -4.12244
2884 1 14.0124 20.1902 25.645 3 1e-16 -4.12244
2885 1 13.1882 20.1902 23.3136 3 0 -4.12244
2886 1 15.661 20.1902 23.3136 3 4e-16 -4.12244
2887 1 14.8367 20.1902 20.9823 3 9.99999e-17 -4.12244
2888 1 17.3095 20.1902 20.9823 3 1e-16 -4.12244
2889 1 16.4852 20.1902 18.6509 3 4e-16 -4.12244
2890 1 18.958 20.1902 18.6509 3 2.01948e-28 -4.12244
2891 1 18.1337 20.1902 16.3195 3 1e-16 -4.12244
2892 1 20.6065 20.1902 16.3195 3 1e-16 -4.12244
2893 1 19.7823 20.1902 13.9882 3 1e-16 -4.12244
2894 1 22.2551 20.1902 13.9882 3 4e-16 -4.12244
2895 1 21.4308 20.1902 11.6568 3 4e-16 -4.12244
2896 1 23.9036 20.1902 11.6568 3 1e-16 -4.12244
2897 1 23.0793 20.1902 9.32545 3 1e-16 -4.12244
2898 1 25.5521 20.1902 9.32545 3 1.51461e-28 -4.12244
2899 1 24.7278 20.1902 6.99409 3 0 -4.12244
2900 1 27.2006 20.1902 6.99409 3 1e-16 -4.12244
2901 1 26.3764 20.1902 4.66273 3 1e-16 -4.12244
2902 1 28.8491 20.1902 4.66273 3 4e-16 -4.12244
2903 1 28.0249 20.1902 2.33136 3 3.99999e-16 -4.12244
2904 1 30.4977 20.1902 2.33136 3 9.99999e-17 -4.12244
2905 1 29.6734 20.1902 0 3 1.0507e-16 -4.12244
2906 1 32.1462 20.1902 0 3 1.0507e-16 -4.12244
2907 1 0.824261 18.1712 47.7929 3 6.28299e-17 -4.12244
2908 1 0 18.1712 45.4616 3 2.304e-17 -4.12244
2909 1 2.47278 18.1712 45.4616 3 4e-16 -4.12244
2910 1 1.64852 18.1712 43.1302 3 5.776e-17 -4.12244
2911 1 4.12131 18.1712 43.1302 3 1e-16 -4.12244
2912 1 3.29705 18.1712 40.7989 3 4e-16 -4.12244
2913 1 5.76983 18.1712 40.7989 3 7.06819e-28 -4.12244
2914 1 4.94557 18.1712 38.4675 3 1e-16 -4.12244
2915 1 7.41835 18.1712 38.4675 3 1e-16 -4.12244
2916 1 6.59409 18.1712 36.1361 3 7.06819e-28 -4.12244
2917 1 9.06687 18.1712 36.1361 3 4e-16 -4.12244
2918 1 8.24261 18.1712 33.8048 3 9.99999e-17 -4.12244
2919 1 10.7154 18.1712 33.8048 3 1e-16 -4.12244
2920 1 9.89114 18.1712 31.4734 3 4e-16 -4.12244
2921 1 12.3639 18.1712 31.4734 3 1.51461e-28 -4.12244
2922 1 11.5397 18.1712 29.142 3 1e-16 -4.12244
2923 1 14.0124 18.1712 29.142 3 1e-16 -4.12244
2924 1 13.1882 18.1712 26.8107 3 1.00974e-28 -4.12244
2925 1 15.661 18.1712 26.8107 3 4e-16 -4.12244
2926 1 14.8367 18.1712 24.4793 3 9.99999e-17 -4.12244
2927 1 17.3095 18.1712 24.4793 3 1e-16 -4.12244
2928 1 16.4852 18.1712 22.1479 3 4e-16 -4.12244
2929 1 18.958 18.1712 22.1479 3 3.02923e-28 -4.12244
2930 1 18.1337 18.1712 19.8166 3 1e-16 -4.12244
2931 1 20.6065 18.1712 19.8166 3 1e-16 -4.12244
2932 1 19.7823 18.1712 17.4852 3 1e-16 -4.12244
2933 1 22.2551 18.1712 17.4852 3 4e-16 -4.12244
2934 1 21.4308 18.1712 15.1539 3 4e-16 -4.12244
2935 1 23.9036 18.1712 15.1539 3 1e-16 -4.12244
2936 1 23.0793 18.1712 12.8225 3 1e-16 -4.12244
2937 1 25.5521 18.1712 12.8225 3 2.90301e-28 -4.12244
2938 1 24.7278 18.1712 10.4911 3 1.00974e-28 -4.12244
2939 1 27.2006 18.1712 10.4911 3 1e-16 -4.12244
2940 1 26.3764 18.1712 8.15977 3 1e-16 -4.12244
2941 1 28.8491 18.1712 8.15977 3 4e-16 -4.12244
2942 1 28.0249 18.1712 5.82841 3 3.99999e-16 -4.12244
2943 1 30.4977 18.1712 5.82841 3 9.99999e-17 -4.12244
2944 1 29.6734 18.1712 3.49704 3 1e-16 -4.12244
2945 1 32.1462 18.1712 3.49704 3 9.99999e-17 -4.12244
2946 1 31.3219 18.1712 1.16568 3 1.69e-18 -4.12244
2947 1 33.7947 18.1712 1.16568 3 4.01691e-16 -4.12244
2948 1 1.64852 16.1522 46.6273 3 5.945e-17 -4.12244
2949 1 4.12131 16.1522 46.6273 3 1.0169e-16 -4.12244
2950 1 3.29705 16.1522 44.2959 3 4e-16 -4.12244
2951 1 5.76983 16.1522 44.2959 3 0 -4.12244
2952 1 4.94557 16.1522 41.9645 3 1e-16 -4.12244
2953 1 7.41835 16.1522 41.9645 3 1e-16 -4.12244
2954 1 6.59409 16.1522 39.6332 3 0 -4.12244
2955 1 9.06687 16.1522 39.6332 3 4e-16 -4.12244
2956 1 8.24261 16.1522 37.3018 3 9.99999e-17 -4.12244
2957 1 10.7154 16.1522 37.3018 3 1e-16 -4.12244
2958 1 9.89114 16.1522 34.9704 3 4e-16 -4.12244
2959 1 12.3639 16.1522 34.9704 3 2.01948e-28 -4.12244
2960 1 11.5397 16.1522 32.6391 3 1e-16 -4.12244
2961 1 14.0124 16.1522 32.6391 3 1e-16 -4.12244
2962 1 13.1882 16.1522 30.3077 3 0 -4.12244
2963 1 15.661 16.1522 30.3077 3 4e-16 -4.12244
2964 1 14.8367 16.1522 27.9764 3 9.99999e-17 -4.12244
2965 1 17.3095 16.1522 27.9764 3 1e-16 -4.12244
2966 1 16.4852 16.1522 25.645 3 4e-16 -4.12244
2967 1 18.958 16.1522 25.645 3 3.5341e-28 -4.12244
2968 1 18.1337 16.1522 23.3136 3 1e-16 -4.12244
2969 1 20.6065 16.1522 23.3136 3 1e-16 -4.12244
2970 1 19.7823 16.1522 20.9823 3 1e-16 -4.12244
2971 1 22.2551 16.1522 20.9823 3 4e-16 -4.12244
2972 1 21.4308 16.1522 18.6509 3 4e-16 -4.12244
2973 1 23.9036 16.1522 18.6509 3 1e-16 -4.12244
2974 1 23.0793 16.1522 16.3195 3 1e-16 -4.12244
2975 1 25.5521 16.1522 16.3195 3 2.52435e-28 -4.12244
2976 1 24.7278 16.1522 13.9882 3 2.52435e-29 -4.12244
2977 1 27.2006 16.1522 13.9882 3 1e-16 -4.12244
2978 1 26.3764 16.1522 11.6568 3 1e-16 -4.12244
2979 1 28.8491 16.1522 11.6568 3 4e-16 -4.12244
2980 1 28.0249 16.1522 9.32545 3 3.99999e-16 -4.12244
2981 1 30.4977 16.1522 9.32545 3 9.99999e-17 -4.12244
2982 1 29.6734 16.1522 6.99409 3 1e-16 -4.12244
2983 1 32.1462 16.1522 6.99409 3 9.99999e-17 -4.12244
2984 1 31.3219 16.1522 4.66273 3 0 -4.12244
2985 1 33.7947 16.1522 4.66273 3 4.00001e-16 -4.12244
2986 1 32.9705 16.1522 2.33136 3 9.99999e-17 -4.12244
2987 1 35.4432 16.1522 2.33136 3 1e-16 -4.12244
2988 1 34.619 16.1522 0 3 4.0507e-16 -4.12244
2989 1 37.0918 16.1522 0 3 5.07001e-18 -4.12244
2990 1 3.29705 14.1331 47.7929 3 4.0507e-16 -4.12244
2991 1 5.76983 14.1331 47.7929 3 5.06996e-18 -4.12244
2992 1 4.94557 14.1331 45.4616 3 1e-16 -4.12244
2993 1 7.41835 14.1331 45.4616 3 1e-16 -4.12244
2994 1 6.59409 14.1331 43.1302 3 6.05845e-28 -4.12244
2995 1 9.06687 14.1331 43.1302 3 4e-16 -4.12244
2996 1 8.24261 14.1331 40.7989 3 9.99999e-17 -4.12244
2997 1 10.7154 14.1331 40.7989 3 1e-16 -4.12244
2998 1 9.89114 14.1331 38.4675 3 4e-16 -4.12244
2999 1 12.3639 14.1331 38.4675 3 0 -4.12244
3000 1 11.5397 14.1331 36.1361 3 1e-16 -4.12244
3001 1 14.0124 14.1331 36.1361 3 1e-16 -4.12244
3002 1 13.1882 14.1331 33.8048 3 0 -4.12244
3003 1 15.661 14.1331 33.8048 3 4e-16 -4.12244
3004 1 14.8367 14.1331 31.4734 3 9.99999e-17 -4.12244
3005 1 17.3095 14.1331 31.4734 3 1e-16 -4.12244
3006 1 16.4852 14.1331 29.142 3 4e-16 -4.12244
3007 1 18.958 14.1331 29.142 3 3.5341e-28 -4.12244
3008 1 18.1337 14.1331 26.8107 3 1e-16 -4.12244
3009 1 20.6065 14.1331 26.8107 3 1e-16 -4.12244
3010 1 19.7823 14.1331 24.4793 3 1e-16 -4.12244
3011 1 22.2551 14.1331 24.4793 3 4e-16 -4.12244
3012 1 21.4308 14.1331 22.1479 3 4e-16 -4.12244
3013 1 23.9036 14.1331 22.1479 3 1e-16 -4.12244
3014 1 23.0793 14.1331 19.8166 3 1e-16 -4.12244
3015 1 25.5521 14.1331 19.8166 3 1.51461e-28 -4.12244
3016 1 24.7278 14.1331 17.4852 3 1.00974e-28 -4.12244
3017 1 27.2006 14.1331 17.4852 3 1e-16 -4.12244
3018 1 26.3764 14.1331 15.1539 3 1e-16 -4.12244
3019 1 28.8491 14.1331 15.1539 3 4e-16 -4.12244
3020 1 28.0249 14.1331 12.8225 3 3.99999e-16 -4.12244
3021 1 30.4977 14.1331 12.8225 3 9.99999e-17 -4.12244
3022 1 29.6734 14.1331 10.4911 3 1e-16 -4.12244
3023 1 32.1462 14.1331 10.4911 3 9.99999e-17 -4.12244
3024 1 31.3219 14.1331 8.15977 3 1.26218e-29 -4.12244
3025 1 33.7947 14.1331 8.15977 3 4.00001e-16 -4.12244
3026 1 32.9705 14.1331 5.82841 3 9.99999e-17 -4.12244
3027 1 35.4432 14.1331 5.82841 3 1e-16 -4.12244
3028 1 34.619 14.1331 3.49704 3 4e-16 -4.12244
3029 1 37.0918 14.1331 3.49704 3 7.88861e-31 -4.12244
3030 1 36.2675 14.1331 1.16568 3 1.0169e-16 -4.12244
3031 1 38.7403 14.1331 1.16568 3 1.0169e-16 -4.12244
3032 1 6.59409 12.1141 46.6273 3 1.69002e-18 -4.12244
3033 1 9.06687 12.1141 46.6273 3 4.0169e-16 -4.12244
3034 1 8.24261 12.1141 44.2959 3 9.99999e-17 -4.12244
3035 1 10.7154 12.1141 44.2959 3 1e-16 -4.12244
3036 1 9.89114 12.1141 41.9645 3 4e-16 -4.12244
3037 1 12.3639 12.1141 41.9645 3 0 -4.12244
3038 1 11.5397 12.1141 39.6332 3 1e-16 -4.12244
3039 1 14.0124 12.1141 39.6332 3 1e-16 -4.12244
3040 1 13.1882 12.1141 37.3018 3 0 -4.12244
3041 1 15.661 12.1141 37.3018 3 4e-16 -4.12244
3042 1 14.8367 12.1141 34.9704 3 9.99999e-17 -4.12244
3043 1 17.3095 12.1141 34.9704 3 1e-16 -4.12244
3044 1 16.4852 12.1141 32.6391 3 4e-16 -4.12244
3045 1 18.958 12.1141 32.6391 3 4.03897e-28 -4.12244
3046 1 18.1337 12.1141 30.3077 3 1e-16 -4.12244
3047 1 20.6065 12.1141 30.3077 3 1e-16 -4.12244
3048 1 19.7823 12.1141 27.9764 3 1e-16 -4.12244
3049 1 22.2551 12.1141 27.9764 3 4e-16 -4.12244
3050 1 21.4308 12.1141 25.645 3 4e-16 -4.12244
3051 1 23.9036 12.1141 25.645 3 1e-16 -4.12244
3052 1 23.0793 12.1141 23.3136 3 1e-16 -4.12244
3053 1 25.5521 12.1141 23.3136 3 1.51461e-28 -4.12244
3054 1 24.7278 12.1141 20.9823 3 0 -4.12244
3055 1 27.2006 12.1141 20.9823 3 1e-16 -4.12244
3056 1 26.3764 12.1141 18.6509 3 1e-16 -4.12244
3057 1 28.8491 12.1141 18.6509 3 4e-16 -4.12244
3058 1 28.0249 12.1141 16.3195 3 3.99999e-16 -4.12244
3059 1 30.4977 12.1141 16.3195 3 9.99999e-17 -4.12244
3060 1 29.6734 12.1141 13.9882 3 1e-16 -4.12244
3061 1 32.1462 12.1141 13.9882 3 9.99999e-17 -4.12244
3062 1 31.3219 12.1141 11.6568 3 0 -4.12244
3063 1 33.7947 12.1141 11.6568 3 4.00001e-16 -4.12244
3064 1 32.9705 12.1141 9.32545 3 9.99999e-17 -4.12244
3065 1 35.4432 12.1141 9.32545 3 1e-16 -4.12244
3066 1 34.619 12.1141 6.99409 3 4e-16 -4.12244
3067 1 37.0918 12.1141 6.99409 3 0 -4.12244
3068 1 36.2675 12.1141 4.66273 3 1e-16 -4.12244
3069 1 38.7403 12.1141 4.66273 3 1e-16 -4.12244
3070 1 37.916 12.1141 2.33136 3 8.07794e-28 -4.12244
3071 1 40.3888 12.1141 2.33136 3 3.99999e-16 -4.12244
3072 1 39.5645 12.1141 0 3 1.0507e-16 -4.12244
3073 1 42.0373 12.1141 0 3 1.0507e-16 -4.12244
3074 1 8.24261 10.0951 47.7929 3 1.0507e-16 -4.12244
3075 1 10.7154 10.0951 47.7929 3 1.0507e-16 -4.12244
3076 1 9.89114 10.0951 45.4616 3 4e-16 -4.12244
3077 1 12.3639 10.0951 45.4616 3 0 -4.12244
3078 1 11.5397 10.0951 43.1302 3 1e-16 -4.12244
3079 1 14.0124 10.0951 43.1302 3 1e-16 -4.12244
3080 1 13.1882 10.0951 40.7989 3 6.05845e-28 -4.12244
3081 1 15.661 10.0951 40.7989 3 4e-16 -4.12244
3082 1 14.8367 10.0951 38.4675 3 9.99999e-17 -4.12244
3083 1 17.3095 10.0951 38.4675 3 1e-16 -4.12244
3084 1 16.4852 10.0951 36.1361 3 4e-16 -4.12244
3085 1 18.958 10.0951 36.1361 3 8.07794e-28 -4.12244
3086 1 18.1337 10.0951 33.8048 3 1e-16 -4.12244
3087 1 20.6065 10.0951 33.8048 3 1e-16 -4.12244
3088 1 19.7823 10.0951 31.4734 3 1e-16 -4.12244
3089 1 22.2551 10.0951 31.4734 3 4e-16 -4.12244
3090 1 21.4308 10.0951 29.142 3 4e-16 -4.12244
3091 1 23.9036 10.0951 29.142 3 1e-16 -4.12244
3092 1 23.0793 10.0951 26.8107 3 1e-16 -4.12244
3093 1 25.5521 10.0951 26.8107 3 1.51461e-28 -4.12244
3094 1 24.7278 10.0951 24.4793 3 1.00974e-28 -4.12244
3095 1 27.2006 10.0951 24.4793 3 1e-16 -4.12244
3096 1 26.3764 10.0951 22.1479 3 1e-16 -4.12244
3097 1 28.8491 10.0951 22.1479 3 4e-16 -4.12244
3098 1 28.0249 10.0951 19.8166 3 3.99999e-16 -4.12244
3099 1 30.4977 10.0951 19.8166 3 9.99999e-17 -4.12244
3100 1 29.6734 10.0951 17.4852 3 1e-16 -4.12244
3101 1 32.1462 10.0951 17.4852 3 9.99999e-17 -4.12244
3102 1 31.3219 10.0951 15.1539 3 0 -4.12244
3103 1 33.7947 10.0951 15.1539 3 4.00001e-16 -4.12244
3104 1 32.9705 10.0951 12.8225 3 9.99999e-17 -4.12244
3105 1 35.4432 10.0951 12.8225 3 1e-16 -4.12244
3106 1 34.619 10.0951 10.4911 3 4e-16 -4.12244
3107 1 37.0918 10.0951 10.4911 3 0 -4.12244
3108 1 36.2675 10.0951 8.15977 3 1e-16 -4.12244
3109 1 38.7403 10.0951 8.15977 3 1e-16 -4.12244
3110 1 37.916 10.0951 5.82841 3 8.10949e-28 -4.12244
3111 1 40.3888 10.0951 5.82841 3 3.99999e-16 -4.12244
3112 1 39.5645 10.0951 3.49704 3 1e-16 -4.12244
3113 1 42.0373 10.0951 3.49704 3 1e-16 -4.12244
3114 1 41.2131 10.0951 1.16568 3 4.01691e-16 -4.12244
3115 1 43.6859 10.0951 1.16568 3 1.69e-18 -4.12244
3116 1 11.5397 8.07608 46.6273 3 1.0169e-16 -4.12244
3117 1 14.0124 8.07608 46.6273 3 1.0169e-16 -4.12244
3118 1 13.1882 8.07608 44.2959 3 0 -4.12244
3119 1 15.661 8.07608 44.2959 3 4e-16 -4.12244
3120 1 14.8367 8.07608 41.9645 3 9.99999e-17 -4.12244
3121 1 17.3095 8.07608 41.9645 3 1e-16 -4.12244
3122 1 16.4852 8.07608 39.6332 3 4e-16 -4.12244
3123 1 18.958 8.07608 39.6332 3 2.01948e-28 -4.12244
3124 1 18.1337 8.07608 37.3018 3 1e-16 -4.12244
3125 1 20.6065 8.07608 37.3018 3 1e-16 -4.12244
3126 1 19.7823 8.07608 34.9704 3 1e-16 -4.12244
3127 1 22.2551 8.07608 34.9704 3 4e-16 -4.12244
3128 1 21.4308 8.07608 32.6391 3 4e-16 -4.12244
3129 1 23.9036 8.07608 32.6391 3 1e-16 -4.12244
3130 1 23.0793 8.07608 30.3077 3 1e-16 -4.12244
3131 1 25.5521 8.07608 30.3077 3 1.51461e-28 -4.12244
3132 1 24.7278 8.07608 27.9764 3 1.51461e-28 -4.12244
3133 1 27.2006 8.07608 27.9764 3 1e-16 -4.12244
3134 1 26.3764 8.07608 25.645 3 1e-16 -4.12244
3135 1 28.8491 8.07608 25.645 3 4e-16 -4.12244
3136 1 28.0249 8.07608 23.3136 3 3.99999e-16 -4.12244
3137 1 30.4977 8.07608 23.3136 3 9.99999e-17 -4.12244
3138 1 29.6734 8.07608 20.9823 3 1e-16 -4.12244
3139 1 32.1462 8.07608 20.9823 3 9.99999e-17 -4.12244
3140 1 31.3219 8.07608 18.6509 3 0 -4.12244
3141 1 33.7947 8.07608 18.6509 3 4.00001e-16 -4.12244
3142 1 32.9705 8.07608 16.3195 3 9.99999e-17 -4.12244
3143 1 35.4432 8.07608 16.3195 3 1e-16 -4.12244
3144 1 34.619 8.07608 13.9882 3 4e-16 -4.12244
3145 1 37.0918 8.07608 13.9882 3 2.52435e-29 -4.12244
3146 1 36.2675 8.07608 11.6568 3 1e-16 -4.12244
3147 1 38.7403 8.07608 11.6568 3 1e-16 -4.12244
3148 1 37.916 8.07608 9.32545 3 8.07794e-28 -4.12244
3149 1 40.3888 8.07608 9.32545 3 3.99999e-16 -4.12244
3150 1 39.5645 8.07608 6.99409 3 1e-16 -4.12244
3151 1 42.0373 8.07608 6.99409 3 1e-16 -4.12244
3152 1 41.2131 8.07608 4.66273 3 4.00001e-16 -4.12244
3153 1 43.6859 8.07608 4.66273 3 2.01948e-28 -4.12244
3154 1 42.8616 8.07608 2.33136 3 9.99999e-17 -4.12244
3155 1 45.3344 8.07608 2.33136 3 9.99999e-17 -4.12244
3156 1 44.5101 8.07608 0 3 5.07001e-18 -4.12244
3157 1 46.9829 8.07608 0 3 4.0507e-16 -4.12244
3158 1 13.1882 6.05706 47.7929 3 5.06996e-18 -4.12244
3159 1 15.661 6.05706 47.7929 3 4.0507e-16 -4.12244
3160 1 14.8367 6.05706 45.4616 3 9.99999e-17 -4.12244
3161 1 17.3095 6.05706 45.4616 3 1e-16 -4.12244
3162 1 16.4852 6.05706 43.1302 3 4e-16 -4.12244
3163 1 18.958 6.05706 43.1302 3 8.07794e-28 -4.12244
3164 1 18.1337 6.05706 40.7989 3 1e-16 -4.12244
3165 1 20.6065 6.05706 40.7989 3 1e-16 -4.12244
3166 1 19.7823 6.05706 38.4675 3 1e-16 -4.12244
3167 1 22.2551 6.05706 38.4675 3 4e-16 -4.12244
3168 1 21.4308 6.05706 36.1361 3 4e-16 -4.12244
3169 1 23.9036 6.05706 36.1361 3 1e-16 -4.12244
3170 1 23.0793 6.05706 33.8048 3 1e-16 -4.12244
3171 1 25.5521 6.05706 33.8048 3 1.51461e-28 -4.12244
3172 1 24.7278 6.05706 31.4734 3 5.04871e-29 -4.12244
3173 1 27.2006 6.05706 31.4734 3 1e-16 -4.12244
3174 1 26.3764 6.05706 29.142 3 1e-16 -4.12244
3175 1 28.8491 6.05706 29.142 3 4e-16 -4.12244
3176 1 28.0249 6.05706 26.8107 3 3.99999e-16 -4.12244
3177 1 30.4977 6.05706 26.8107 3 9.99999e-17 -4.12244
3178 1 29.6734 6.05706 24.4793 3 1e-16 -4.12244
3179 1 32.1462 6.05706 24.4793 3 9.99999e-17 -4.12244
3180 1 31.3219 6.05706 22.1479 3 0 -4.12244
3181 1 33.7947 6.05706 22.1479 3 4.00001e-16 -4.12244
3182 1 32.9705 6.05706 19.8166 3 9.99999e-17 -4.12244
3183 1 35.4432 6.05706 19.8166 3 1e-16 -4.12244
3184 1 34.619 6.05706 17.4852 3 4e-16 -4.12244
3185 1 37.0918 6.05706 17.4852 3 1.00974e-28 -4.12244
3186 1 36.2675 6.05706 15.1539 3 1e-16 -4.12244
3187 1 38.7403 6.05706 15.1539 3 1e-16 -4.12244
3188 1 37.916 6.05706 12.8225 3 8.45659e-28 -4.12244
3189 1 40.3888 6.05706 12.8225 3 3.99999e-16 -4.12244
3190 1 39.5645 6.05706 10.4911 3 1e-16 -4.12244
3191 1 42.0373 6.05706 10.4911 3 1e-16 -4.12244
3192 1 41.2131 6.05706 8.15977 3 4.00001e-16 -4.12244
3193 1 43.6859 6.05706 8.15977 3 2.1457e-28 -4.12244
3194 1 42.8616 6.05706 5.82841 3 9.99999e-17 -4.12244
3195 1 45.3344 6.05706 5.82841 3 9.99999e-17 -4.12244
3196 1 44.5101 6.05706 3.49704 3 2.02737e-28 -4.12244
3197 1 46.9829 6.05706 3.49704 3 3.99999e-16 -4.12244
3198 1 46.1586 6.05706 1.16568 3 1.0169e-16 -4.12244
3199 1 48.6314 6.05706 1.16568 3 1.0169e-16 -4.12244
3200 1 16.4852 4.03804 46.6273 3 4.0169e-16 -4.12244
3201 1 18.958 4.03804 46.6273 3 1.69002e-18 -4.12244
3202 1 18.1337 4.03804 44.2959 3 1e-16 -4.12244
3203 1 20.6065 4.03804 44.2959 3 1e-16 -4.12244
3204 1 19.7823 4.03804 41.9645 3 1e-16 -4.12244
3205 1 22.2551 4.03804 41.9645 3 4e-16 -4.12244
3206 1 21.4308 4.03804 39.6332 3 4e-16 -4.12244
3207 1 23.9036 4.03804 39.6332 3 1e-16 -4.12244
3208 1 23.0793 4.03804 37.3018 3 1e-16 -4.12244
3209 1 25.5521 4.03804 37.3018 3 1.51461e-28 -4.12244
3210 1 24.7278 4.03804 34.9704 3 2.01948e-28 -4.12244
3211 1 27.2006 4.03804 34.9704 3 1e-16 -4.12244
3212 1 26.3764 4.03804 32.6391 3 1e-16 -4.12244
3213 1 28.8491 4.03804 32.6391 3 4e-16 -4.12244
3214 1 28.0249 4.03804 30.3077 3 3.99999e-16 -4.12244
3215 1 30.4977 4.03804 30.3077 3 9.99999e-17 -4.12244
3216 1 29.6734 4.03804 27.9764 3 1e-16 -4.12244
3217 1 32.1462 4.03804 27.9764 3 9.99999e-17 -4.12244
3218 1 31.3219 4.03804 25.645 3 1.51461e-28 -4.12244
3219 1 33.7947 4.03804 25.645 3 4.00001e-16 -4.12244
3220 1 32.9705 4.03804 23.3136 3 9.99999e-17 -4.12244
3221 1 35.4432 4.03804 23.3136 3 1e-16 -4.12244
3222 1 34.619 4.03804 20.9823 3 4e-16 -4.12244
3223 1 37.0918 4.03804 20.9823 3 0 -4.12244
3224 1 36.2675 4.03804 18.6509 3 1e-16 -4.12244
3225 1 38.7403 4.03804 18.6509 3 1e-16 -4.12244
3226 1 37.916 4.03804 16.3195 3 9.08768e-28 -4.12244
3227 1 40.3888 4.03804 16.3195 3 3.99999e-16 -4.12244
3228 1 39.5645 4.03804 13.9882 3 1e-16 -4.12244
3229 1 42.0373 4.03804 13.9882 3 1e-16 -4.12244
3230 1 41.2131 4.03804 11.6568 3 4.00001e-16 -4.12244
3231 1 43.6859 4.03804 11.6568 3 2.01948e-28 -4.12244
3232 1 42.8616 4.03804 9.32545 3 9.99999e-17 -4.12244
3233 1 45.3344 4.03804 9.32545 3 9.99999e-17 -4.12244
3234 1 44.5101 4.03804 6.99409 3 2.01948e-28 -4.12244
3235 1 46.9829 4.03804 6.99409 3 3.99999e-16 -4.12244
3236 1 46.1586 4.03804 4.66273 3 9.99999e-17 -4.12244
3237 1 48.6314 4.03804 4.66273 3 9.99999e-17 -4.12244
3238 1 47.8072 4.03804 2.33136 3 3.99999e-16 -4.12244
3239 1 50.2799 4.03804 2.33136 3 2.01948e-28 -4.12244
3240 1 49.4557 4.03804 0 3 1.0507e-16 -4.12244
3241 1 51.9285 4.03804 0 3 1.0507e-16 -4.12244
3242 1 18.1337 2.01902 47.7929 3 1.0507e-16 -4.10627
3243 1 20.6065 2.01902 47.7929 3 1.0507e-16 -4.10627
3244 1 19.7823 2.01902 45.4616 3 1e-16 -4.10627
3245 1 22.2551 2.01902 45.4616 3 4e-16 -4.10627
3246 1 21.4308 2.01902 43.1302 3 4e-16 -4.10627
3247 1 23.9036 2.01902 43.1302 3 1e-16 -4.10627
3248 1 23.0793 2.01902 40.7989 3 1e-16 -4.10627
3249 1 25.5521 2.01902 40.7989 3 7.57306e-28 -4.10627
3250 1 24.7278 2.01902 38.4675 3 0 -4.10627
3251 1 27.2006 2.01902 38.4675 3 1e-16 -4.10627
3252 1 26.3764 2.01902 36.1361 3 1e-16 -4.10627
3253 1 28.8491 2.01902 36.1361 3 4e-16 -4.10627
3254 1 28.0249 2.01902 33.8048 3 3.99999e-16 -4.10627
3255 1 30.4977 2.01902 33.8048 3 9.99999e-17 -4.10627
3256 1 29.6734 2.01902 31.4734 3 1e-16 -4.10627
3257 1 32.1462 2.01902 31.4734 3 9.99999e-17 -4.10627
3258 1 31.3219 2.01902 29.142 3 1.51461e-28 -4.10627
3259 1 33.7947 2.01902 29.142 3 4.00001e-16 -4.10627
3260 1 32.9705 2.01902 26.8107 3 9.99999e-17 -4.10627
3261 1 35.4432 2.01902 26.8107 3 1e-16 -4.10627
3262 1 34.619 2.01902 24.4793 3 4e-16 -4.10627
3263 1 37.0918 2.01902 24.4793 3 1.00974e-28 -4.10627
3264 1 36.2675 2.01902 22.1479 3 1e-16 -4.10627
3265 1 38.7403 2.01902 22.1479 3 1e-16 -4.10627
3266 1 37.916 2.01902 19.8166 3 8.07794e-28 -4.10627
3267 1 40.3888 2.01902 19.8166 3 3.99999e-16 -4.10627
3268 1 39.5645 2.01902 17.4852 3 1e-16 -4.10627
3269 1 42.0373 2.01902 17.4852 3 1e-16 -4.10627
3270 1 41.2131 2.01902 15.1539 3 4.00001e-16 -4.10627
3271 1 43.6859 2.01902 15.1539 3 2.01948e-28 -4.10627
3272 1 42.8616 2.01902 12.8225 3 9.99999e-17 -4.10627
3273 1 45.3344 2.01902 12.8225 3 9.99999e-17 -4.10627
3274 1 44.5101 2.01902 10.4911 3 2.01948e-28 -4.10627
3275 1 46.9829 2.01902 10.4911 3 3.99999e-16 -4.10627
3276 1 46.1586 2.01902 8.15977 3 9.99999e-17 -4.10627
3277 1 48.6314 2.01902 8.15977 3 9.99999e-17 -4.10627
3278 1 47.8072 2.01902 5.82841 3 3.99999e-16 -4.10627
3279 1 50.2799 2.01902 5.82841 3 2.05104e-28 -4.10627
3280 1 49.4557 2.01902 3.49704 3 9.99999e-17 -4.10627
3281 1 51.9285 2.01902 3.49704 3 1e-16 -4.10627
3282 1 51.1042 2.01902 1.16568 3 1.0169e-16 -4.10627
3283 1 53.577 2.01902 1.16568 3 4.01689e-16 -4.10627
3284 1 21.4308 -0 46.6273 5 12.2293 -3.54465
3285 1 23.9036 -0 46.6273 5 12.2293 -3.54465
3286 1 23.0793 -0 44.2959 5 12.2293 -3.54465
3287 1 25.5521 -0 44.2959 5 12.2293 -3.54465
3288 1 24.7278 -0 41.9645 5 12.2293 -3.54465
3289 1 27.2006 -0 41.9645 5 12.2293 -3.54465
3290 1 26.3764 -0 39.6332 5 12.2293 -3.54465
3291 1 28.8491 -0 39.6332 5 12.2293 -3.54465
3292 1 28.0249 -0 37.3018 5 12.2293 -3.54465
3293 1 30.4977 -0 37.3018 5 12.2293 -3.54465
3294 1 29.6734 -0 34.9704 5 12.2293 -3.54465
3295 1 32.1462 -0 34.9704 5 12.2293 -3.54465
3296 1 31.3219 -0 32.6391 5 12.2293 -3.54465
3297 1 33.7947 -0 32.6391 5 12.2293 -3.54465
3298 1 32.9705 -0 30.3077 5 12.2293 -3.54465
3299 1 35.4432 -0 30.3077 5 12.2293 -3.54465
3300 1 34.619 -0 27.9764 5 12.2293 -3.54465
3301 1 37.0918 -0 27.9764 5 12.2293 -3.54465
3302 1 36.2675 -0 25.645 5 12.2293 -3.54465
3303 1 38.7403 -0 25.645 5 12.2293 -3.54465
3304 1 37.916 -0 23.3136 5 12.2293 -3.54465
3305 1 40.3888 -0 23.3136 5 12.2293 -3.54465
3306 1 39.5645 -0 20.9823 5 12.2293 -3.54465
3307 1 42.0373 -0 20.9823 5 12.2293 -3.54465
3308 1 41.2131 -0 18.6509 5 12.2293 -3.54465
3309 1 43.6859 -0 18.6509 5 12.2293 -3.54465
3310 1 42.8616 -0 16.3195 5 12.2293 -3.54465
3311 1 45.3344 -0 16.3195 5 12.2293 -3.54465
3312 1 44.5101 -0 13.9882 5 12.2293 -3.54465
3313 1 46.9829 -0 13.9882 5 12.2293 -3.54465
3314 1 46.1586 -0 11.6568 5 12.2293 -3.54465
3315 1 48.6314 -0 11.6568 5 12.2293 -3.54465
3316 1 47.8072 -0 9.32545 5 12.2293 -3.54465
3317 1 50.2799 -0 9.32545 5 12.2293 -3.54465
3318 1 49.4557 -0 6.99409 5 12.2293 -3.54465
3319 1 51.9285 -0 6.99409 5 12.2293 -3.54465
3320 1 51.1042 -0 4.66273 5 12.2293 -3.54465
3321 1 53.577 -0 4.66273 5 12.2293 -3.54465
3322 1 52.7527 -0 2.33136 5 12.2293 -3.54465
3323 1 55.2255 -0 2.33136 5 12.2293 -3.54465
3324 1 54.4012 -0 0 5 12.2293 -3.54465
3325 1 56.874 -0 0 5 12.2293 -3.54465
3326 1 0.824261 48.4565 2.33136 3 5.776e-17 -4.12244
3327 1 0 48.4565 0 3 2.811e-17 -4.12244
3328 1 2.47278 48.4565 0 3 4.0507e-16 -4.12244
3329 1 0.824261 46.4375 5.82841 3 5.776e-17 -4.12244
3330 1 0 46.4375 3.49704 3 2.304e-17 -4.12244
3331 1 2.47278 46.4375 3.49704 3 4e-16 -4.12244
3332 1 1.64852 46.4375 1.16568 3 5.945e-17 -4.12244
3333 1 4.12131 46.4375 1.16568 3 1.0169e-16 -4.12244
3334 1 0.824261 44.4184 9.32545 3 5.776e-17 -4.12244
3335 1 0 44.4184 6.99409 3 2.304e-17 -4.12244
3336 1 2.47278 44.4184 6.99409 3 4e-16 -4.12244
3337 1 1.64852 44.4184 4.66273 3 5.776e-17 -4.12244
3338 1 4.12131 44.4184 4.66273 3 1e-16 -4.12244
3339 1 3.29705 44.4184 2.33136 3 4e-16 -4.12244
3340 1 5.76983 44.4184 2.33136 3 0 -4.12244
3341 1 4.94557 44.4184 0 3 1.0507e-16 -4.12244
3342 1 7.41835 44.4184 0 3 1.0507e-16 -4.12244
3343 1 0.824261 42.3994 12.8225 3 5.776e-17 -4.12244
3344 1 0 42.3994 10.4911 3 2.304e-17 -4.12244
3345 1 2.47278 42.3994 10.4911 3 4e-16 -4.12244
3346 1 1.64852 42.3994 8.15977 3 5.776e-17 -4.12244
3347 1 4.12131 42.3994 8.15977 3 1e-16 -4.12244
3348 1 3.29705 42.3994 5.82841 3 4e-16 -4.12244
3349 1 5.76983 42.3994 5.82841 3 3.15544e-30 -4.12244
3350 1 4.94557 42.3994 3.49704 3 1e-16 -4.12244
3351 1 7.41835 42.3994 3.49704 3 1e-16 -4.12244
3352 1 6.59409 42.3994 1.16568 3 1.69e-18 -4.12244
3353 1 9.06687 42.3994 1.16568 3 4.0169e-16 -4.12244
3354 1 0.824261 40.3804 16.3195 3 5.776e-17 -4.12244
3355 1 0 40.3804 13.9882 3 2.304e-17 -4.12244
3356 1 2.47278 40.3804 13.9882 3 4e-16 -4.12244
3357 1 1.64852 40.3804 11.6568 3 5.776e-17 -4.12244
3358 1 4.12131 40.3804 11.6568 3 1e-16 -4.12244
3359 1 3.29705 40.3804 9.32545 3 4e-16 -4.12244
3360 1 5.76983 40.3804 9.32545 3 0 -4.12244
3361 1 4.94557 40.3804 6.99409 3 1e-16 -4.12244
3362 1 7.41835 40.3804 6.99409 3 1e-16 -4.12244
3363 1 6.59409 40.3804 4.66273 3 0 -4.12244
3364 1 9.06687 40.3804 4.66273 3 4e-16 -4.12244
3365 1 8.24261 40.3804 2.33136 3 9.99999e-17 -4.12244
3366 1 10.7154 40.3804 2.33136 3 1e-16 -4.12244
3367 1 9.89114 40.3804 0 3 4.0507e-16 -4.12244
3368 1 12.3639 40.3804 0 3 5.07001e-18 -4.12244
3369 1 0.824261 38.3614 19.8166 3 5.776e-17 -4.12244
3370 1 0 38.3614 17.4852 3 2.304e-17 -4.12244
3371 1 2.47278 38.3614 17.4852 3 4e-16 -4.12244
3372 1 1.64852 38.3614 15.1539 3 5.776e-17 -4.12244
3373 1 4.12131 38.3614 15.1539 3 1e-16 -4.12244
3374 1 3.29705 38.3614 12.8225 3 4e-16 -4.12244
3375 1 5.76983 38.3614 12.8225 3 3.78653e-29 -4.12244
3376 1 4.94557 38.3614 10.4911 3 1e-16 -4.12244
3377 1 7.41835 38.3614 10.4911 3 1e-16 -4.12244
3378 1 6.59409 38.3614 8.15977 3 1.26218e-29 -4.12244
3379 1 9.06687 38.3614 8.15977 3 4e-16 -4.12244
3380 1 8.24261 38.3614 5.82841 3 9.99999e-17 -4.12244
3381 1 10.7154 38.3614 5.82841 3 1e-16 -4.12244
3382 1 9.89114 38.3614 3.49704 3 4e-16 -4.12244
3383 1 12.3639 38.3614 3.49704 3 7.88861e-31 -4.12244
3384 1 11.5397 38.3614 1.16568 3 1.0169e-16 -4.12244
3385 1 14.0124 38.3614 1.16568 3 1.0169e-16 -4.12244
3386 1 0.824261 36.3424 23.3136 3 5.776e-17 -4.12244
3387 1 0 36.3424 20.9823 3 2.304e-17 -4.12244
3388 1 2.47278 36.3424 20.9823 3 4e-16 -4.12244
3389 1 1.64852 36.3424 18.6509 3 5.776e-17 -4.12244
3390 1 4.12131 36.3424 18.6509 3 1e-16 -4.12244
3391 1 3.29705 36.3424 16.3195 3 4e-16 -4.12244
3392 1 5.76983 36.3424 16.3195 3 1.00974e-28 -4.12244
3393 1 4.94557 36.3424 13.9882 3 1e-16 -4.12244
3394 1 7.41835 36.3424 13.9882 3 1e-16 -4.12244
3395 1 6.59409 36.3424 11.6568 3 0 -4.12244
3396 1 9.06687 36.3424 11.6568 3 4e-16 -4.12244
3397 1 8.24261 36.3424 9.32545 3 9.99999e-17 -4.12244
3398 1 10.7154 36.3424 9.32545 3 1e-16 -4.12244
3399 1 9.89114 36.3424 6.99409 3 4e-16 -4.12244
3400 1 12.3639 36.3424 6.99409 3 0 -4.12244
3401 1 11.5397 36.3424 4.66273 3 1e-16 -4.12244
3402 1 14.0124 36.3424 4.66273 3 1e-16 -4.12244
3403 1 13.1882 36.3424 2.33136 3 0 -4.12244
3404 1 15.661 36.3424 2.33136 3 4e-16 -4.12244
3405 1 14.8367 36.3424 0 3 1.0507e-16 -4.12244
3406 1 17.3095 36.3424 0 3 1.0507e-16 -4.12244
3407 1 0.824261 34.3233 26.8107 3 5.776e-17 -4.12244
3408 1 0 34.3233 24.4793 3 2.304e-17 -4.12244
3409 1 2.47278 34.3233 24.4793 3 4e-16 -4.12244
3410 1 1.64852 34.3233 22.1479 3 5.776e-17 -4.12244
3411 1 4.12131 34.3233 22.1479 3 1e-16 -4.12244
3412 1 3.29705 34.3233 19.8166 3 4e-16 -4.12244
3413 1 5.76983 34.3233 19.8166 3 0 -4.12244
3414 1 4.94557 34.3233 17.4852 3 1e-16 -4.12244
3415 1 7.41835 34.3233 17.4852 3 1e-16 -4.12244
3416 1 6.59409 34.3233 15.1539 3 0 -4.12244
3417 1 9.06687 34.3233 15.1539 3 4e-16 -4.12244
3418 1 8.24261 34.3233 12.8225 3 9.99999e-17 -4.12244
3419 1 10.7154 34.3233 12.8225 3 1e-16 -4.12244
3420 1 9.89114 34.3233 10.4911 3 4e-16 -4.12244
3421 1 12.3639 34.3233 10.4911 3 0 -4.12244
3422 1 11.5397 34.3233 8.15977 3 1e-16 -4.12244
3423 1 14.0124 34.3233 8.15977 3 1e-16 -4.12244
3424 1 13.1882 34.3233 5.82841 3 3.15544e-30 -4.12244
3425 1 15.661 34.3233 5.82841 3 4e-16 -4.12244
3426 1 14.8367 34.3233 3.49704 3 9.99999e-17 -4.12244
3427 1 17.3095 34.3233 3.49704 3 1e-16 -4.12244
3428 1 16.4852 34.3233 1.16568 3 4.0169e-16 -4.12244
3429 1 18.958 34.3233 1.16568 3 1.69e-18 -4.12244
3430 1 0.824261 32.3043 30.3077 3 5.776e-17 -4.12244
3431 1 0 32.3043 27.9764 3 2.304e-17 -4.12244
3432 1 2.47278 32.3043 27.9764 3 4e-16 -4.12244
3433 1 1.64852 32.3043 25.645 3 5.776e-17 -4.12244
3434 1 4.12131 32.3043 25.645 3 1e-16 -4.12244
3435 1 3.29705 32.3043 23.3136 3 4e-16 -4.12244
3436 1 5.76983 32.3043 23.3136 3 0 -4.12244
3437 1 4.94557 32.3043 20.9823 3 1e-16 -4.12244
3438 1 7.41835 32.3043 20.9823 3 1e-16 -4.12244
3439 1 6.59409 32.3043 18.6509 3 0 -4.12244
3440 1 9.06687 32.3043 18.6509 3 4e-16 -4.12244
3441 1 8.24261 32.3043 16.3195 3 9.99999e-17 -4.12244
3442 1 10.7154 32.3043 16.3195 3 1e-16 -4.12244
3443 1 9.89114 32.3043 13.9882 3 4e-16 -4.12244
3444 1 12.3639 32.3043 13.9882 3 2.52435e-29 -4.12244
3445 1 11.5397 32.3043 11.6568 3 1e-16 -4.12244
3446 1 14.0124 32.3043 11.6568 3 1e-16 -4.12244
3447 1 13.1882 32.3043 9.32545 3 0 -4.12244
3448 1 15.661 32.3043 9.32545 3 4e-16 -4.12244
3449 1 14.8367 32.3043 6.99409 3 9.99999e-17 -4.12244
3450 1 17.3095 32.3043 6.99409 3 1e-16 -4.12244
3451 1 16.4852 32.3043 4.66273 3 4e-16 -4.12244
3452 1 18.958 32.3043 4.66273 3 2.01948e-28 -4.12244
3453 1 18.1337 32.3043 2.33136 3 1e-16 -4.12244
3454 1 20.6065 32.3043 2.33136 3 1e-16 -4.12244
3455 1 19.7823 32.3043 0 3 1.0507e-16 -4.12244
3456 1 22.2551 32.3043 0 3 4.0507e-16 -4.12244
3457 1 0.824261 30.2853 33.8048 3 5.776e-17 -4.12244
3458 1 0 30.2853 31.4734 3 2.304e-17 -4.12244
3459 1 2.47278 30.2853 31.4734 3 4e-16 -4.12244
3460 1 1.64852 30.2853 29.142 3 5.776e-17 -4.12244
3461 1 4.12131 30.2853 29.142 3 1e-16 -4.12244
3462 1 3.29705 30.2853 26.8107 3 4e-16 -4.12244
3463 1 5.76983 30.2853 26.8107 3 1.00974e-28 -4.12244
3464 1 4.94557 30.2853 24.4793 3 1e-16 -4.12244
3465 1 7.41835 30.2853 24.4793 3 1e-16 -4.12244
3466 1 6.59409 30.2853 22.1479 3 1.00974e-28 -4.12244
3467 1 9.06687 30.2853 22.1479 3 4e-16 -4.12244
3468 1 8.24261 30.2853 19.8166 3 9.99999e-17 -4.12244
3469 1 10.7154 30.2853 19.8166 3 1e-16 -4.12244
3470 1 9.89114 30.2853 17.4852 3 4e-16 -4.12244
3471 1 12.3639 30.2853 17.4852 3 2.01948e-28 -4.12244
3472 1 11.5397 30.2853 15.1539 3 1e-16 -4.12244
3473 1 14.0124 30.2853 15.1539 3 1e-16 -4.12244
3474 1 13.1882 30.2853 12.8225 3 1.3884e-28 -4.12244
3475 1 15.661 30.2853 12.8225 3 4e-16 -4.12244
3476 1 14.8367 30.2853 10.4911 3 9.99999e-17 -4.12244
3477 1 17.3095 30.2853 10.4911 3 1e-16 -4.12244
3478 1 16.4852 30.2853 8.15977 3 4e-16 -4.12244
3479 1 18.958 30.2853 8.15977 3 3.15544e-28 -4.12244
3480 1 18.1337 30.2853 5.82841 3 1e-16 -4.12244
3481 1 20.6065 30.2853 5.82841 3 1e-16 -4.12244
3482 1 19.7823 30.2853 3.49704 3 1e-16 -4.12244
3483 1 22.2551 30.2853 3.49704 3 4e-16 -4.12244
3484 1 21.4308 30.2853 1.16568 3 4.0169e-16 -4.12244
3485 1 23.9036 30.2853 1.16568 3 1.0169e-16 -4.12244
3486 1 0.824261 28.2663 37.3018 3 5.776e-17 -4.12244
3487 1 0 28.2663 34.9704 3 2.304e-17 -4.12244
3488 1 2.47278 28.2663 34.9704 3 4e-16 -4.12244
3489 1 1.64852 28.2663 32.6391 3 5.776e-17 -4.12244
3490 1 4.12131 28.2663 32.6391 3 1e-16 -4.12244
3491 1 3.29705 28.2663 30.3077 3 4e-16 -4.12244
3492 1 5.76983 28.2663 30.3077 3 0 -4.12244
3493 1 4.94557 28.2663 27.9764 3 1e-16 -4.12244
3494 1 7.41835 28.2663 27.9764 3 1e-16 -4.12244
3495 1 6.59409 28.2663 25.645 3 1.51461e-28 -4.12244
3496 1 9.06687 28.2663 25.645 3 4e-16 -4.12244
3497 1 8.24261 28.2663 23.3136 3 9.99999e-17 -4.12244
3498 1 10.7154 28.2663 23.3136 3 1e-16 -4.12244
3499 1 9.89114 28.2663 20.9823 3 4e-16 -4.12244
3500 1 12.3639 28.2663 20.9823 3 0 -4.12244
3501 1 11.5397 28.2663 18.6509 3 1e-16 -4.12244
3502 1 14.0124 28.2663 18.6509 3 1e-16 -4.12244
3503 1 13.1882 28.2663 16.3195 3 1.00974e-28 -4.12244
3504 1 15.661 28.2663 16.3195 3 4e-16 -4.12244
3505 1 14.8367 28.2663 13.9882 3 9.99999e-17 -4.12244
3506 1 17.3095 28.2663 13.9882 3 1e-16 -4.12244
3507 1 16.4852 28.2663 11.6568 3 4e-16 -4.12244
3508 1 18.958 28.2663 11.6568 3 2.01948e-28 -4.12244
3509 1 18.1337 28.2663 9.32545 3 1e-16 -4.12244
3510 1 20.6065 28.2663 9.32545 3 1e-16 -4.12244
3511 1 19.7823 28.2663 6.99409 3 1e-16 -4.12244
3512 1 22.2551 28.2663 6.99409 3 4e-16 -4.12244
3513 1 21.4308 28.2663 4.66273 3 4e-16 -4.12244
3514 1 23.9036 28.2663 4.66273 3 1e-16 -4.12244
3515 1 23.0793 28.2663 2.33136 3 1e-16 -4.12244
3516 1 25.5521 28.2663 2.33136 3 1.51461e-28 -4.12244
3517 1 24.7278 28.2663 0 3 5.07001e-18 -4.12244
3518 1 27.2006 28.2663 0 3 1.0507e-16 -4.12244
3519 1 0.824261 26.2473 40.7989 3 5.776e-17 -4.12244
3520 1 0 26.2473 38.4675 3 2.304e-17 -4.12244
3521 1 2.47278 26.2473 38.4675 3 4e-16 -4.12244
3522 1 1.64852 26.2473 36.1361 3 5.776e-17 -4.12244
3523 1 4.12131 26.2473 36.1361 3 1e-16 -4.12244
3524 1 3.29705 26.2473 33.8048 3 4e-16 -4.12244
3525 1 5.76983 26.2473 33.8048 3 1.00974e-28 -4.12244
3526 1 4.94557 26.2473 31.4734 3 1e-16 -4.12244
3527 1 7.41835 26.2473 31.4734 3 1e-16 -4.12244
3528 1 6.59409 26.2473 29.142 3 2.52435e-28 -4.12244
3529 1 9.06687 26.2473 29.142 3 4e-16 -4.12244
3530 1 8.24261 26.2473 26.8107 3 9.99999e-17 -4.12244
3531 1 10.7154 26.2473 26.8107 3 1e-16 -4.12244
3532 1 9.89114 26.2473 24.4793 3 4e-16 -4.12244
3533 1 12.3639 26.2473 24.4793 3 2.01948e-28 -4.12244
3534 1 11.5397 26.2473 22.1479 3 1e-16 -4.12244
3535 1 14.0124 26.2473 22.1479 3 1e-16 -4.12244
3536 1 13.1882 26.2473 19.8166 3 1.00974e-28 -4.12244
3537 1 15.661 26.2473 19.8166 3 4e-16 -4.12244
3538 1 14.8367 26.2473 17.4852 3 9.99999e-17 -4.12244
3539 1 17.3095 26.2473 17.4852 3 1e-16 -4.12244
3540 1 16.4852 26.2473 15.1539 3 4e-16 -4.12244
3541 1 18.958 26.2473 15.1539 3 3.02923e-28 -4.12244
3542 1 18.1337 26.2473 12.8225 3 1e-16 -4.12244
3543 1 20.6065 26.2473 12.8225 3 1e-16 -4.12244
3544 1 19.7823 26.2473 10.4911 3 1e-16 -4.12244
3545 1 22.2551 26.2473 10.4911 3 4e-16 -4.12244
3546 1 21.4308 26.2473 8.15977 3 4e-16 -4.12244
3547 1 23.9036 26.2473 8.15977 3 1e-16 -4.12244
3548 1 23.0793 26.2473 5.82841 3 1e-16 -4.12244
3549 1 25.5521 26.2473 5.82841 3 2.55591e-28 -4.12244
3550 1 24.7278 26.2473 3.49704 3 1.01763e-28 -4.12244
3551 1 27.2006 26.2473 3.49704 3 1e-16 -4.12244
3552 1 26.3764 26.2473 1.16568 3 1.0169e-16 -4.12244
3553 1 28.8491 26.2473 1.16568 3 4.0169e-16 -4.12244
3554 1 0.824261 24.2282 44.2959 3 5.776e-17 -4.12244
3555 1 0 24.2282 41.9645 3 2.304e-17 -4.12244
3556 1 2.47278 24.2282 41.9645 3 4e-16 -4.12244
3557 1 1.64852 24.2282 39.6332 3 5.776e-17 -4.12244
3558 1 4.12131 24.2282 39.6332 3 1e-16 -4.12244
3559 1 3.29705 24.2282 37.3018 3 4e-16 -4.12244
3560 1 5.76983 24.2282 37.3018 3 0 -4.12244
3561 1 4.94557 24.2282 34.9704 3 1e-16 -4.12244
3562 1 7.41835 24.2282 34.9704 3 1e-16 -4.12244
3563 1 6.59409 24.2282 32.6391 3 2.01948e-28 -4.12244
3564 1 9.06687 24.2282 32.6391 3 4e-16 -4.12244
3565 1 8.24261 24.2282 30.3077 3 9.99999e-17 -4.12244
3566 1 10.7154 24.2282 30.3077 3 1e-16 -4.12244
3567 1 9.89114 24.2282 27.9764 3 4e-16 -4.12244
3568 1 12.3639 24.2282 27.9764 3 1.51461e-28 -4.12244
3569 1 11.5397 24.2282 25.645 3 1e-16 -4.12244
3570 1 14.0124 24.2282 25.645 3 1e-16 -4.12244
3571 1 13.1882 24.2282 23.3136 3 0 -4.12244
3572 1 15.661 24.2282 23.3136 3 4e-16 -4.12244
3573 1 14.8367 24.2282 20.9823 3 9.99999e-17 -4.12244
3574 1 17.3095 24.2282 20.9823 3 1e-16 -4.12244
3575 1 16.4852 24.2282 18.6509 3 4e-16 -4.12244
3576 1 18.958 24.2282 18.6509 3 2.01948e-28 -4.12244
3577 1 18.1337 24.2282 16.3195 3 1e-16 -4.12244
3578 1 20.6065 24.2282 16.3195 3 1e-16 -4.12244
3579 1 19.7823 24.2282 13.9882 3 1e-16 -4.12244
3580 1 22.2551 24.2282 13.9882 3 4e-16 -4.12244
3581 1 21.4308 24.2282 11.6568 3 4e-16 -4.12244
3582 1 23.9036 24.2282 11.6568 3 1e-16 -4.12244
3583 1 23.0793 24.2282 9.32545 3 1e-16 -4.12244
3584 1 25.5521 24.2282 9.32545 3 1.51461e-28 -4.12244
3585 1 24.7278 24.2282 6.99409 3 0 -4.12244
3586 1 27.2006 24.2282 6.99409 3 1e-16 -4.12244
3587 1 26.3764 24.2282 4.66273 3 1e-16 -4.12244
3588 1 28.8491 24.2282 4.66273 3 4e-16 -4.12244
3589 1 28.0249 24.2282 2.33136 3 3.99999e-16 -4.12244
3590 1 30.4977 24.2282 2.33136 3 9.99999e-17 -4.12244
3591 1 29.6734 24.2282 0 3 1.0507e-16 -4.12244
3592 1 32.1462 24.2282 0 3 1.0507e-16 -4.12244
3593 1 0.824261 22.2092 47.7929 3 6.28299e-17 -4.12244
3594 1 0 22.2092 45.4616 3 2.304e-17 -4.12244
3595 1 2.47278 22.2092 45.4616 3 4e-16 -4.12244
3596 1 1.64852 22.2092 43.1302 3 5.776e-17 -4.12244
3597 1 4.12131 22.2092 43.1302 3 1e-16 -4.12244
3598 1 3.29705 22.2092 40.7989 3 4e-16 -4.12244
3599 1 5.76983 22.2092 40.7989 3 6.05845e-28 -4.12244
3600 1 4.94557 22.2092 38.4675 3 1e-16 -4.12244
3601 1 7.41835 22.2092 38.4675 3 1e-16 -4.12244
3602 1 6.59409 22.2092 36.1361 3 6.05845e-28 -4.12244
3603 1 9.06687 22.2092 36.1361 3 4e-16 -4.12244
3604 1 8.24261 22.2092 33.8048 3 9.99999e-17 -4.12244
3605 1 10.7154 22.2092 33.8048 3 1e-16 -4.12244
3606 1 9.89114 22.2092 31.4734 3 4e-16 -4.12244
3607 1 12.3639 22.2092 31.4734 3 5.04871e-29 -4.12244
3608 1 11.5397 22.2092 29.142 3 1e-16 -4.12244
3609 1 14.0124 22.2092 29.142 3 1e-16 -4.12244
3610 1 13.1882 22.2092 26.8107 3 0 -4.12244
3611 1 15.661 22.2092 26.8107 3 4e-16 -4.12244
3612 1 14.8367 22.2092 24.4793 3 9.99999e-17 -4.12244
3613 1 17.3095 22.2092 24.4793 3 1e-16 -4.12244
3614 1 16.4852 22.2092 22.1479 3 4e-16 -4.12244
3615 1 18.958 22.2092 22.1479 3 2.01948e-28 -4.12244
3616 1 18.1337 22.2092 19.8166 3 1e-16 -4.12244
3617 1 20.6065 22.2092 19.8166 3 1e-16 -4.12244
3618 1 19.7823 22.2092 17.4852 3 1e-16 -4.12244
3619 1 22.2551 22.2092 17.4852 3 4e-16 -4.12244
3620 1 21.4308 22.2092 15.1539 3 4e-16 -4.12244
3621 1 23.9036 22.2092 15.1539 3 1e-16 -4.12244
3622 1 23.0793 22.2092 12.8225 3 1e-16 -4.12244
3623 1 25.5521 22.2092 12.8225 3 1.89327e-28 -4.12244
3624 1 24.7278 22.2092 10.4911 3 0 -4.12244
3625 1 27.2006 22.2092 10.4911 3 1e-16 -4.12244
3626 1 26.3764 22.2092 8.15977 3 1e-16 -4.12244
3627 1 28.8491 22.2092 8.15977 3 4e-16 -4.12244
3628 1 28.0249 22.2092 5.82841 3 3.99999e-16 -4.12244
3629 1 30.4977 22.2092 5.82841 3 9.99999e-17 -4.12244
3630 1 29.6734 22.2092 3.49704 3 1e-16 -4.12244
3631 1 32.1462 22.2092 3.49704 3 9.99999e-17 -4.12244
3632 1 31.3219 22.2092 1.16568 3 1.69e-18 -4.12244
3633 1 33.7947 22.2092 1.16568 3 4.01691e-16 -4.12244
3634 1 1.64852 20.1902 46.6273 3 5.945e-17 -4.12244
3635 1 4.12131 20.1902 46.6273 3 1.0169e-16 -4.12244
3636 1 3.29705 20.1902 44.2959 3 4e-16 -4.12244
3637 1 5.76983 20.1902 44.2959 3 0 -4.12244
3638 1 4.94557 20.1902 41.9645 3 1e-16 -4.12244
3639 1 7.41835 20.1902 41.9645 3 1e-16 -4.12244
3640 1 6.59409 20.1902 39.6332 3 0 -4.12244
3641 1 9.06687 20.1902 39.6332 3 4e-16 -4.12244
3642 1 8.24261 20.1902 37.3018 3 9.99999e-17 -4.12244
3643 1 10.7154 20.1902 37.3018 3 1e-16 -4.12244
3644 1 9.89114 20.1902 34.9704 3 4e-16 -4.12244
3645 1 12.3639 20.1902 34.9704 3 2.01948e-28 -4.12244
3646 1 11.5397 20.1902 32.6391 3 1e-16 -4.12244
3647 1 14.0124 20.1902 32.6391 3 1e-16 -4.12244
3648 1 13.1882 20.1902 30.3077 3 0 -4.12244
3649 1 15.661 20.1902 30.3077 3 4e-16 -4.12244
3650 1 14.8367 20.1902 27.9764 3 9.99999e-17 -4.12244
3651 1 17.3095 20.1902 27.9764 3 1e-16 -4.12244
3652 1 16.4852 20.1902 25.645 3 4e-16 -4.12244
3653 1 18.958 20.1902 25.645 3 3.5341e-28 -4.12244
3654 1 18.1337 20.1902 23.3136 3 1e-16 -4.12244
3655 1 20.6065 20.1902 23.3136 3 1e-16 -4.12244
3656 1 19.7823 20.1902 20.9823 3 1e-16 -4.12244
3657 1 22.2551 20.1902 20.9823 3 4e-16 -4.12244
3658 1 21.4308 20.1902 18.6509 3 4e-16 -4.12244
3659 1 23.9036 20.1902 18.6509 3 1e-16 -4.12244
3660 1 23.0793 20.1902 16.3195 3 1e-16 -4.12244
3661 1 25.5521 20.1902 16.3195 3 2.52435e-28 -4.12244
3662 1 24.7278 20.1902 13.9882 3 2.52435e-29 -4.12244
3663 1 27.2006 20.1902 13.9882 3 1e-16 -4.12244
3664 1 26.3764 20.1902 11.6568 3 1e-16 -4.12244
3665 1 28.8491 20.1902 11.6568 3 4e-16 -4.12244
3666 1 28.0249 20.1902 9.32545 3 3.99999e-16 -4.12244
3667 1 30.4977 20.1902 9.32545 3 9.99999e-17 -4.12244
3668 1 29.6734 20.1902 6.99409 3 1e-16 -4.12244
3669 1 32.1462 20.1902 6.99409 3 9.99999e-17 -4.12244
3670 1 31.3219 20.1902 4.66273 3 0 -4.12244
3671 1 33.7947 20.1902 4.66273 3 4.00001e-16 -4.12244
3672 1 32.9705 20.1902 2.33136 3 9.99999e-17 -4.12244
3673 1 35.4432 20.1902 2.33136 3 1e-16 -4.12244
3674 1 34.619 20.1902 0 3 4.0507e-16 -4.12244
3675 1 37.0918 20.1902 0 3 5.07001e-18 -4.12244
3676 1 3.29705 18.1712 47.7929 3 4.0507e-16 -4.12244
3677 1 5.76983 18.1712 47.7929 3 5.06996e-18 -4.12244
3678 1 4.94557 18.1712 45.4616 3 1e-16 -4.12244
3679 1 7.41835 18.1712 45.4616 3 1e-16 -4.12244
3680 1 6.59409 18.1712 43.1302 3 7.06819e-28 -4.12244
3681 1 9.06687 18.1712 43.1302 3 4e-16 -4.12244
3682 1 8.24261 18.1712 40.7989 3 9.99999e-17 -4.12244
3683 1 10.7154 18.1712 40.7989 3 1e-16 -4.12244
3684 1 9.89114 18.1712 38.4675 3 4e-16 -4.12244
3685 1 12.3639 18.1712 38.4675 3 1.00974e-28 -4.12244
3686 1 11.5397 18.1712 36.1361 3 1e-16 -4.12244
3687 1 14.0124 18.1712 36.1361 3 1e-16 -4.12244
3688 1 13.1882 18.1712 33.8048 3 1.00974e-28 -4.12244
3689 1 15.661 18.1712 33.8048 3 4e-16 -4.12244
3690 1 14.8367 18.1712 31.4734 3 9.99999e-17 -4.12244
3691 1 17.3095 18.1712 31.4734 3 1e-16 -4.12244
3692 1 16.4852 18.1712 29.142 3 4e-16 -4.12244
3693 1 18.958 18.1712 29.142 3 4.54384e-28 -4.12244
3694 1 18.1337 18.1712 26.8107 3 1e-16 -4.12244
3695 1 20.6065 18.1712 26.8107 3 1e-16 -4.12244
3696 1 19.7823 18.1712 24.4793 3 1e-16 -4.12244
3697 1 22.2551 18.1712 24.4793 3 4e-16 -4.12244
3698 1 21.4308 18.1712 22.1479 3 4e-16 -4.12244
3699 1 23.9036 18.1712 22.1479 3 1e-16 -4.12244
3700 1 23.0793 18.1712 19.8166 3 1e-16 -4.12244
3701 1 25.5521 18.1712 19.8166 3 2.52435e-28 -4.12244
3702 1 24.7278 18.1712 17.4852 3 2.01948e-28 -4.12244
3703 1 27.2006 18.1712 17.4852 3 1e-16 -4.12244
3704 1 26.3764 18.1712 15.1539 3 1e-16 -4.12244
3705 1 28.8491 18.1712 15.1539 3 4e-16 -4.12244
3706 1 28.0249 18.1712 12.8225 3 3.99999e-16 -4.12244
3707 1 30.4977 18.1712 12.8225 3 9.99999e-17 -4.12244
3708 1 29.6734 18.1712 10.4911 3 1e-16 -4.12244
3709 1 32.1462 18.1712 10.4911 3 9.99999e-17 -4.12244
3710 1 31.3219 18.1712 8.15977 3 1.13596e-28 -4.12244
3711 1 33.7947 18.1712 8.15977 3 4.00001e-16 -4.12244
3712 1 32.9705 18.1712 5.82841 3 9.99999e-17 -4.12244
3713 1 35.4432 18.1712 5.82841 3 1e-16 -4.12244
3714 1 34.619 18.1712 3.49704 3 4e-16 -4.12244
3715 1 37.0918 18.1712 3.49704 3 1.01763e-28 -4.12244
3716 1 36.2675 18.1712 1.16568 3 1.0169e-16 -4.12244
3717 1 38.7403 18.1712 1.16568 3 1.0169e-16 -4.12244
3718 1 6.59409 16.1522 46.6273 3 1.69002e-18 -4.12244
3719 1 9.06687 16.1522 46.6273 3 4.0169e-16 -4.12244
3720 1 8.24261 16.1522 44.2959 3 9.99999e-17 -4.12244
3721 1 10.7154 16.1522 44.2959 3 1e-16 -4.12244
3722 1 9.89114 16.1522 41.9645 3 4e-16 -4.12244
3723 1 12.3639 16.1522 41.9645 3 0 -4.12244
3724 1 11.5397 16.1522 39.6332 3 1e-16 -4.12244
3725 1 14.0124 16.1522 39.6332 3 1e-16 -4.12244
3726 1 13.1882 16.1522 37.3018 3 0 -4.12244
3727 1 15.661 16.1522 37.3018 3 4e-16 -4.12244
3728 1 14.8367 16.1522 34.9704 3 9.99999e-17 -4.12244
3729 1 17.3095 16.1522 34.9704 3 1e-16 -4.12244
3730 1 16.4852 16.1522 32.6391 3 4e-16 -4.12244
3731 1 18.958 16.1522 32.6391 3 4.03897e-28 -4.12244
3732 1 18.1337 16.1522 30.3077 3 1e-16 -4.12244
3733 1 20.6065 16.1522 30.3077 3 1e-16 -4.12244
3734 1 19.7823 16.1522 27.9764 3 1e-16 -4.12244
3735 1 22.2551 16.1522 27.9764 3 4e-16 -4.12244
3736 1 21.4308 16.1522 25.645 3 4e-16 -4.12244
3737 1 23.9036 16.1522 25.645 3 1e-16 -4.12244
3738 1 23.0793 16.1522 23.3136 3 1e-16 -4.12244
3739 1 25.5521 16.1522 23.3136 3 1.51461e-28 -4.12244
3740 1 24.7278 16.1522 20.9823 3 0 -4.12244
3741 1 27.2006 16.1522 20.9823 3 1e-16 -4.12244
3742 1 26.3764 16.1522 18.6509 3 1e-16 -4.12244
3743 1 28.8491 16.1522 18.6509 3 4e-16 -4.12244
3744 1 28.0249 16.1522 16.3195 3 3.99999e-16 -4.12244
3745 1 30.4977 16.1522 16.3195 3 9.99999e-17 -4.12244
3746 1 29.6734 16.1522 13.9882 3 1e-16 -4.12244
3747 1 32.1462 16.1522 13.9882 3 9.99999e-17 -4.12244
3748 1 31.3219 16.1522 11.6568 3 0 -4.12244
3749 1 33.7947 16.1522 11.6568 3 4.00001e-16 -4.12244
3750 1 32.9705 16.1522 9.32545 3 9.99999e-17 -4.12244
3751 1 35.4432 16.1522 9.32545 3 1e-16 -4.12244
3752 1 34.619 16.1522 6.99409 3 4e-16 -4.12244
3753 1 37.0918 16.1522 6.99409 3 0 -4.12244
3754 1 36.2675 16.1522 4.66273 3 1e-16 -4.12244
3755 1 38.7403 16.1522 4.66273 3 1e-16 -4.12244
3756 1 37.916 16.1522 2.33136 3 8.07794e-28 -4.12244
3757 1 40.3888 16.1522 2.33136 3 3.99999e-16 -4.12244
3758 1 39.5645 16.1522 0 3 1.0507e-16 -4.12244
3759 1 42.0373 16.1522 0 3 1.0507e-16 -4.12244
3760 1 8.24261 14.1331 47.7929 3 1.0507e-16 -4.12244
3761 1 10.7154 14.1331 47.7929 3 1.0507e-16 -4.12244
3762 1 9.89114 14.1331 45.4616 3 4e-16 -4.12244
3763 1 12.3639 14.1331 45.4616 3 0 -4.12244
3764 1 11.5397 14.1331 43.1302 3 1e-16 -4.12244
3765 1 14.0124 14.1331 43.1302 3 1e-16 -4.12244
3766 1 13.1882 14.1331 40.7989 3 6.05845e-28 -4.12244
3767 1 15.661 14.1331 40.7989 3 4e-16 -4.12244
3768 1 14.8367 14.1331 38.4675 3 9.99999e-17 -4.12244
3769 1 17.3095 14.1331 38.4675 3 1e-16 -4.12244
3770 1 16.4852 14.1331 36.1361 3 4e-16 -4.12244
3771 1 18.958 14.1331 36.1361 3 8.07794e-28 -4.12244
3772 1 18.1337 14.1331 33.8048 3 1e-16 -4.12244
3773 1 20.6065 14.1331 33.8048 3 1e-16 -4.12244
3774 1 19.7823 14.1331 31.4734 3 1e-16 -4.12244
3775 1 22.2551 14.1331 31.4734 3 4e-16 -4.12244
3776 1 21.4308 14.1331 29.142 3 4e-16 -4.12244
3777 1 23.9036 14.1331 29.142 3 1e-16 -4.12244
3778 1 23.0793 14.1331 26.8107 3 1e-16 -4.12244
3779 1 25.5521 14.1331 26.8107 3 1.51461e-28 -4.12244
3780 1 24.7278 14.1331 24.4793 3 1.00974e-28 -4.12244
3781 1 27.2006 14.1331 24.4793 3 1e-16 -4.12244
3782 1 26.3764 14.1331 22.1479 3 1e-16 -4.12244
3783 1 28.8491 14.1331 22.1479 3 4e-16 -4.12244
3784 1 28.0249 14.1331 19.8166 3 3.99999e-16 -4.12244
3785 1 30.4977 14.1331 19.8166 3 9.99999e-17 -4.12244
3786 1 29.6734 14.1331 17.4852 3 1e-16 -4.12244
3787 1 32.1462 14.1331 17.4852 3 9.99999e-17 -4.12244
3788 1 31.3219 14.1331 15.1539 3 0 -4.12244
3789 1 33.7947 14.1331 15.1539 3 4.00001e-16 -4.12244
3790 1 32.9705 14.1331 12.8225 3 9.99999e-17 -4.12244
3791 1 35.4432 14.1331 12.8225 3 1e-16 -4.12244
3792 1 34.619 14.1331 10.4911 3 4e-16 -4.12244
3793 1 37.0918 14.1331 10.4911 3 0 -4.12244
3794 1 36.2675 14.1331 8.15977 3 1e-16 -4.12244
3795 1 38.7403 14.1331 8.15977 3 1e-16 -4.12244
3796 1 37.916 14.1331 5.82841 3 8.10949e-28 -4.12244
3797 1 40.3888 14.1331 5.82841 3 3.99999e-16 -4.12244
3798 1 39.5645 14.1331 3.49704 3 1e-16 -4.12244
3799 1 42.0373 14.1331 3.49704 3 1e-16 -4.12244
3800 1 41.2131 14.1331 1.16568 3 4.01691e-16 -4.12244
3801 1 43.6859 14.1331 1.16568 3 1.69e-18 -4.12244
3802 1 11.5397 12.1141 46.6273 3 1.0169e-16 -4.12244
3803 1 14.0124 12.1141 46.6273 3 1.0169e-16 -4.12244
3804 1 13.1882 12.1141 44.2959 3 0 -4.12244
3805 1 15.661 12.1141 44.2959 3 4e-16 -4.12244
3806 1 14.8367 12.1141 41.9645 3 9.99999e-17 -4.12244
3807 1 17.3095 12.1141 41.9645 3 1e-16 -4.12244
3808 1 16.4852 12.1141 39.6332 3 4e-16 -4.12244
3809 1 18.958 12.1141 39.6332 3 2.01948e-28 -4.12244
3810 1 18.1337 12.1141 37.3018 3 1e-16 -4.12244
3811 1 20.6065 12.1141 37.3018 3 1e-16 -4.12244
3812 1 19.7823 12.1141 34.9704 3 1e-16 -4.12244
3813 1 22.2551 12.1141 34.9704 3 4e-16 -4.12244
3814 1 21.4308 12.1141 32.6391 3 4e-16 -4.12244
3815 1 23.9036 12.1141 32.6391 3 1e-16 -4.12244
3816 1 23.0793 12.1141 30.3077 3 1e-16 -4.12244
3817 1 25.5521 12.1141 30.3077 3 1.51461e-28 -4.12244
3818 1 24.7278 12.1141 27.9764 3 1.51461e-28 -4.12244
3819 1 27.2006 12.1141 27.9764 3 1e-16 -4.12244
3820 1 26.3764 12.1141 25.645 3 1e-16 -4.12244
3821 1 28.8491 12.1141 25.645 3 4e-16 -4.12244
3822 1 28.0249 12.1141 23.3136 3 3.99999e-16 -4.12244
3823 1 30.4977 12.1141 23.3136 3 9.99999e-17 -4.12244
3824 1 29.6734 12.1141 20.9823 3 1e-16 -4.12244
3825 1 32.1462 12.1141 20.9823 3 9.99999e-17 -4.12244
3826 1 31.3219 12.1141 18.6509 3 0 -4.12244
3827 1 33.7947 12.1141 18.6509 3 4.00001e-16 -4.12244
3828 1 32.9705 12.1141 16.3195 3 9.99999e-17 -4.12244
3829 1 35.4432 12.1141 16.3195 3 1e-16 -4.12244
3830 1 34.619 12.1141 13.9882 3 4e-16 -4.12244
3831 1 37.0918 12.1141 13.9882 3 2.52435e-29 -4.12244
3832 1 36.2675 12.1141 11.6568 3 1e-16 -4.12244
3833 1 38.7403 12.1141 11.6568 3 1e-16 -4.12244
3834 1 37.916 12.1141 9.32545 3 8.07794e-28 -4.12244
3835 1 40.3888 12.1141 9.32545 3 3.99999e-16 -4.12244
3836 1 39.5645 12.1141 6.99409 3 1e-16 -4.12244
3837 1 42.0373 12.1141 6.99409 3 1e-16 -4.12244
3838 1 41.2131 12.1141 4.66273 3 4.00001e-16 -4.12244
3839 1 43.6859 12.1141 4.66273 3 2.01948e-28 -4.12244
3840 1 42.8616 12.1141 2.33136 3 9.99999e-17 -4.12244
3841 1 45.3344 12.1141 2.33136 3 9.99999e-17 -4.12244
3842 1 44.5101 12.1141 0 3 5.07001e-18 -4.12244
3843 1 46.9829 12.1141 0 3 4.0507e-16 -4.12244
3844 1 13.1882 10.0951 47.7929 3 5.06996e-18 -4.12244
3845 1 15.661 10.0951 47.7929 3 4.0507e-16 -4.12244
3846 1 14.8367 10.0951 45.4616 3 9.99999e-17 -4.12244
3847 1 17.3095 10.0951 45.4616 3 1e-16 -4.12244
3848 1 16.4852 10.0951 43.1302 3 4e-16 -4.12244
3849 1 18.958 10.0951 43.1302 3 8.07794e-28 -4.12244
3850 1 18.1337 10.0951 40.7989 3 1e-16 -4.12244
3851 1 20.6065 10.0951 40.7989 3 1e-16 -4.12244
3852 1 19.7823 10.0951 38.4675 3 1e-16 -4.12244
3853 1 22.2551 10.0951 38.4675 3 4e-16 -4.12244
3854 1 21.4308 10.0951 36.1361 3 4e-16 -4.12244
3855 1 23.9036 10.0951 36.1361 3 1e-16 -4.12244
3856 1 23.0793 10.0951 33.8048 3 1e-16 -4.12244
3857 1 25.5521 10.0951 33.8048 3 1.51461e-28 -4.12244
3858 1 24.7278 10.0951 31.4734 3 5.04871e-29 -4.12244
3859 1 27.2006 10.0951 31.4734 3 1e-16 -4.12244
3860 1 26.3764 10.0951 29.142 3 1e-16 -4.12244
3861 1 28.8491 10.0951 29.142 3 4e-16 -4.12244
3862 1 28.0249 10.0951 26.8107 3 3.99999e-16 -4.12244
3863 1 30.4977 10.0951 26.8107 3 9.99999e-17 -4.12244
3864 1 29.6734 10.0951 24.4793 3 1e-16 -4.12244
3865 1 32.1462 10.0951 24.4793 3 9.99999e-17 -4.12244
3866 1 31.3219 10.0951 22.1479 3 0 -4.12244
3867 1 33.7947 10.0951 22.1479 3 4.00001e-16 -4.12244
3868 1 32.9705 10.0951 19.8166 3 9.99999e-17 -4.12244
3869 1 35.4432 10.0951 19.8166 3 1e-16 -4.12244
3870 1 34.619 10.0951 17.4852 3 4e-16 -4.12244
3871 1 37.0918 10.0951 17.4852 3 1.00974e-28 -4.12244
3872 1 36.2675 10.0951 15.1539 3 1e-16 -4.12244
3873 1 38.7403 10.0951 15.1539 3 1e-16 -4.12244
3874 1 37.916 10.0951 12.8225 3 8.45659e-28 -4.12244
3875 1 40.3888 10.0951 12.8225 3 3.99999e-16 -4.12244
3876 1 39.5645 10.0951 10.4911 3 1e-16 -4.12244
3877 1 42.0373 10.0951 10.4911 3 1e-16 -4.12244
3878 1 41.2131 10.0951 8.15977 3 4.00001e-16 -4.12244
3879 1 43.6859 10.0951 8.15977 3 2.1457e-28 -4.12244
3880 1 42.8616 10.0951 5.82841 3 9.99999e-17 -4.12244
3881 1 45.3344 10.0951 5.82841 3 9.99999e-17 -4.12244
3882 1 44.5101 10.0951 3.49704 3 2.02737e-28 -4.12244
3883 1 46.9829 10.0951 3.49704 3 3.99999e-16 -4.12244
3884 1 46.1586 10.0951 1.16568 3 1.0169e-16 -4.12244
3885 1 48.6314 10.0951 1.16568 3 1.0169e-16 -4.12244
3886 1 16.4852 8.07608 46.6273 3 4.0169e-16 -4.12244
3887 1 18.958 8.07608 46.6273 3 1.69002e-18 -4.12244
3888 1 18.1337 8.07608 44.2959 3 1e-16 -4.12244
3889 1 20.6065 8.07608 44.2959 3 1e-16 -4.12244
3890 1 19.7823 8.07608 41.9645 3 1e-16 -4.12244
3891 1 22.2551 8.07608 41.9645 3 4e-16 -4.12244
3892 1 21.4308 8.07608 39.6332 3 4e-16 -4.12244
3893 1 23.9036 8.07608 39.6332 3 1e-16 -4.12244
3894 1 23.0793 8.07608 37.3018 3 1e-16 -4.12244
3895 1 25.5521 8.07608 37.3018 3 1.51461e-28 -4.12244
3896 1 24.7278 8.07608 34.9704 3 2.01948e-28 -4.12244
3897 1 27.2006 8.07608 34.9704 3 1e-16 -4.12244
3898 1 26.3764 8.07608 32.6391 3 1e-16 -4.12244
3899 1 28.8491 8.07608 32.6391 3 4e-16 -4.12244
3900 1 28.0249 8.07608 30.3077 3 3.99999e-16 -4.12244
3901 1 30.4977 8.07608 30.3077 3 9.99999e-17 -4.12244
3902 1 29.6734 8.07608 27.9764 3 1e-16 -4.12244
3903 1 32.1462 8.07608 27.9764 3 9.99999e-17 -4.12244
3904 1 31.3219 8.07608 25.645 3 1.51461e-28 -4.12244
3905 1 33.7947 8.07608 25.645 3 4.00001e-16 -4.12244
3906 1 32.9705 8.07608 23.3136 3 9.99999e-17 -4.12244
3907 1 35.4432 8.07608 23.3136 3 1e-16 -4.12244
3908 1 34.619 8.07608 20.9823 3 4e-16 -4.12244
3909 1 37.0918 8.07608 20.9823 3 0 -4.12244
3910 1 36.2675 8.07608 18.6509 3 1e-16 -4.12244
3911 1 38.7403 8.07608 18.6509 3 1e-16 -4.12244
3912 1 37.916 8.07608 16.3195 3 9.08768e-28 -4.12244
3913 1 40.3888 8.07608 16.3195 3 3.99999e-16 -4.12244
3914 1 39.5645 8.07608 13.9882 3 1e-16 -4.12244
3915 1 42.0373 8.07608 13.9882 3 1e-16 -4.12244
3916 1 41.2131 8.07608 11.6568 3 4.00001e-16 -4.12244
3917 1 43.6859 8.07608 11.6568 3 2.01948e-28 -4.12244
3918 1 42.8616 8.07608 9.32545 3 9.99999e-17 -4.12244
3919 1 45.3344 8.07608 9.32545 3 9.99999e-17 -4.12244
3920 1 44.5101 8.07608 6.99409 3 2.01948e-28 -4.12244
3921 1 46.9829 8.07608 6.99409 3 3.99999e-16 -4.12244
3922 1 46.1586 8.07608 4.66273 3 9.99999e-17 -4.12244
3923 1 48.6314 8.07608 4.66273 3 9.99999e-17 -4.12244
3924 1 47.8072 8.07608 2.33136 3 3.99999e-16 -4.12244
3925 1 50.2799 8.07608 2.33136 3 2.01948e-28 -4.12244
3926 1 49.4557 8.07608 0 3 1.0507e-16 -4.12244
3927 1 51.9285 8.07608 0 3 1.0507e-16 -4.12244
3928 1 18.1337 6.05706 47.7929 3 1.0507e-16 -4.12244
3929 1 20.6065 6.05706 47.7929 3 1.0507e-16 -4.12244
3930 1 19.7823 6.05706 45.4616 3 1e-16 -4.12244
3931 1 22.2551 6.05706 45.4616 3 4e-16 -4.12244
3932 1 21.4308 6.05706 43.1302 3 4e-16 -4.12244
3933 1 23.9036 6.05706 43.1302 3 1e-16 -4.12244
3934 1 23.0793 6.05706 40.7989 3 1e-16 -4.12244
3935 1 25.5521 6.05706 40.7989 3 7.57306e-28 -4.12244
3936 1 24.7278 6.05706 38.4675 3 0 -4.12244
3937 1 27.2006 6.05706 38.4675 3 1e-16 -4.12244
3938 1 26.3764 6.05706 36.1361 3 1e-16 -4.12244
3939 1 28.8491 6.05706 36.1361 3 4e-16 -4.12244
3940 1 28.0249 6.05706 33.8048 3 3.99999e-16 -4.12244
3941 1 30.4977 6.05706 33.8048 3 9.99999e-17 -4.12244
3942 1 29.6734 6.05706 31.4734 3 1e-16 -4.12244
3943 1 32.1462 6.05706 31.4734 3 9.99999e-17 -4.12244
3944 1 31.3219 6.05706 29.142 3 1.51461e-28 -4.12244
3945 1 33.7947 6.05706 29.142 3 4.00001e-16 -4.12244
3946 1 32.9705 6.05706 26.8107 3 9.99999e-17 -4.12244
3947 1 35.4432 6.05706 26.8107 3 1e-16 -4.12244
3948 1 34.619 6.05706 24.4793 3 4e-16 -4.12244
3949 1 37.0918 6.05706 24.4793 3 1.00974e-28 -4.12244
3950 1 36.2675 6.05706 22.1479 3 1e-16 -4.12244
3951 1 38.7403 6.05706 22.1479 3 1e-16 -4.12244
3952 1 37.916 6.05706 19.8166 3 8.07794e-28 -4.12244
3953 1 40.3888 6.05706 19.8166 3 3.99999e-16 -4.12244
3954 1 39.5645 6.05706 17.4852 3 1e-16 -4.12244
3955 1 42.0373 6.05706 17.4852 3 1e-16 -4.12244
3956 1 41.2131 6.05706 15.1539 3 4.00001e-16 -4.12244
3957 1 43.6859 6.05706 15.1539 3 2.01948e-28 -4.12244
3958 1 42.8616 6.05706 12.8225 3 9.99999e-17 -4.12244
3959 1 45.3344 6.05706 12.8225 3 9.99999e-17 -4.12244
3960 1 44.5101 6.05706 10.4911 3 2.01948e-28 -4.12244
3961 1 46.9829 6.05706 10.4911 3 3.99999e-16 -4.12244
3962 1 46.1586 6.05706 8.15977 3 9.99999e-17 -4.12244
3963 1 48.6314 6.05706 8.15977 3 9.99999e-17 -4.12244
3964 1 47.8072 6.05706 5.82841 3 3.99999e-16 -4.12244
3965 1 50.2799 6.05706 5.82841 3 2.05104e-28 -4.12244
3966 1 49.4557 6.05706 3.49704 3 9.99999e-17 -4.12244
3967 1 51.9285 6.05706 3.49704 3 1e-16 -4.12244
3968 1 51.1042 6.05706 1.16568 3 1.0169e-16 -4.12244
3969 1 53.577 6.05706 1.16568 3 4.01689e-16 -4.12244
3970 1 21.4308 4.03804 46.6273 3 4.01691e-16 -4.12244
3971 1 23.9036 4.03804 46.6273 3 1.0169e-16 -4.12244
3972 1 23.0793 4.03804 44.2959 3 1e-16 -4.12244
3973 1 25.5521 4.03804 44.2959 3 1.51461e-28 -4.12244
3974 1 24.7278 4.03804 41.9645 3 0 -4.12244
3975 1 27.2006 4.03804 41.9645 3 1e-16 -4.12244
3976 1 26.3764 4.03804 39.6332 3 1e-16 -4.12244
3977 1 28.8491 4.03804 39.6332 3 4e-16 -4.12244
3978 1 28.0249 4.03804 37.3018 3 3.99999e-16 -4.12244
3979 1 30.4977 4.03804 37.3018 3 9.99999e-17 -4.12244
3980 1 29.6734 4.03804 34.9704 3 1e-16 -4.12244
3981 1 32.1462 4.03804 34.9704 3 9.99999e-17 -4.12244
3982 1 31.3219 4.03804 32.6391 3 2.01948e-28 -4.12244
3983 1 33.7947 4.03804 32.6391 3 4.00001e-16 -4.12244
3984 1 32.9705 4.03804 30.3077 3 9.99999e-17 -4.12244
3985 1 35.4432 4.03804 30.3077 3 1e-16 -4.12244
3986 1 34.619 4.03804 27.9764 3 4e-16 -4.12244
3987 1 37.0918 4.03804 27.9764 3 1.51461e-28 -4.12244
3988 1 36.2675 4.03804 25.645 3 1e-16 -4.12244
3989 1 38.7403 4.03804 25.645 3 1e-16 -4.12244
3990 1 37.916 4.03804 23.3136 3 8.07794e-28 -4.12244
3991 1 40.3888 4.03804 23.3136 3 3.99999e-16 -4.12244
3992 1 39.5645 4.03804 20.9823 3 1e-16 -4.12244
3993 1 42.0373 4.03804 20.9823 3 1e-16 -4.12244
3994 1 41.2131 4.03804 18.6509 3 4.00001e-16 -4.12244
3995 1 43.6859 4.03804 18.6509 3 2.01948e-28 -4.12244
3996 1 42.8616 4.03804 16.3195 3 9.99999e-17 -4.12244
3997 1 45.3344 4.03804 16.3195 3 9.99999e-17 -4.12244
3998 1 44.5101 4.03804 13.9882 3 2.27192e-28 -4.12244
3999 1 46.9829 4.03804 13.9882 3 3.99999e-16 -4.12244
4000 1 46.1586 4.03804 11.6568 3 9.99999e-17 -4.12244
4001 1 48.6314 4.03804 11.6568 3 9.99999e-17 -4.12244
4002 1 47.8072 4.03804 9.32545 3 3.99999e-16 -4.12244
4003 1 50.2799 4.03804 9.32545 3 2.01948e-28 -4.12244
4004 1 49.4557 4.03804 6.99409 3 9.99999e-17 -4.12244
4005 1 51.9285 4.03804 6.99409 3 1e-16 -4.12244
4006 1 51.1042 4.03804 4.66273 3 9.99999e-17 -4.12244
4007 1 53.577 4.03804 4.66273 3 3.99999e-16 -4.12244
4008 1 52.7527 4.03804 2.33136 3 4.00001e-16 -4.12244
4009 1 55.2255 4.03804 2.33136 3 1e-16 -4.12244
4010 1 54.4012 4.03804 0 3 1.0507e-16 -4.12244
4011 1 56.874 4.03804 0 3 5.07001e-18 -4.12244
4012 1 23.0793 2.01902 47.7929 3 1.0507e-16 -4.10627
4013 1 25.5521 2.01902 47.7929 3 5.06996e-18 -4.10627
4014 1 24.7278 2.01902 45.4616 3 0 -4.10627
4015 1 27.2006 2.01902 45.4616 3 1e-16 -4.10627
4016 1 26.3764 2.01902 43.1302 3 1e-16 -4.10627
4017 1 28.8491 2.01902 43.1302 3 4e-16 -4.10627
4018 1 28.0249 2.01902 40.7989 3 3.99999e-16 -4.10627
4019 1 30.4977 2.01902 40.7989 3 9.99999e-17 -4.10627
4020 1 29.6734 2.01902 38.4675 3 1e-16 -4.10627
4021 1 32.1462 2.01902 38.4675 3 9.99999e-17 -4.10627
4022 1 31.3219 2.01902 36.1361 3 6.05845e-28 -4.10627
4023 1 33.7947 2.01902 36.1361 3 4.00001e-16 -4.10627
4024 1 32.9705 2.01902 33.8048 3 9.99999e-17 -4.10627
4025 1 35.4432 2.01902 33.8048 3 1e-16 -4.10627
4026 1 34.619 2.01902 31.4734 3 4e-16 -4.10627
4027 1 37.0918 2.01902 31.4734 3 5.04871e-29 -4.10627
4028 1 36.2675 2.01902 29.142 3 1e-16 -4.10627
4029 1 38.7403 2.01902 29.142 3 1e-16 -4.10627
4030 1 37.916 2.01902 26.8107 3 8.07794e-28 -4.10627
4031 1 40.3888 2.01902 26.8107 3 3.99999e-16 -4.10627
4032 1 39.5645 2.01902 24.4793 3 1e-16 -4.10627
4033 1 42.0373 2.01902 24.4793 3 1e-16 -4.10627
4034 1 41.2131 2.01902 22.1479 3 4.00001e-16 -4.10627
4035 1 43.6859 2.01902 22.1479 3 2.01948e-28 -4.10627
4036 1 42.8616 2.01902 19.8166 3 9.99999e-17 -4.10627
4037 1 45.3344 2.01902 19.8166 3 9.99999e-17 -4.10627
4038 1 44.5101 2.01902 17.4852 3 3.02923e-28 -4.10627
4039 1 46.9829 2.01902 17.4852 3 3.99999e-16 -4.10627
4040 1 46.1586 2.01902 15.1539 3 9.99999e-17 -4.10627
4041 1 48.6314 2.01902 15.1539 3 9.99999e-17 -4.10627
4042 1 47.8072 2.01902 12.8225 3 3.99999e-16 -4.10627
4043 1 50.2799 2.01902 12.8225 3 2.39814e-28 -4.10627
4044 1 49.4557 2.01902 10.4911 3 9.99999e-17 -4.10627
4045 1 51.9285 2.01902 10.4911 3 1e-16 -4.10627
4046 1 51.1042 2.01902 8.15977 3 9.99999e-17 -4.10627
4047 1 53.577 2.01902 8.15977 3 3.99999e-16 -4.10627
4048 1 52.7527 2.01902 5.82841 3 4.00001e-16 -4.10627
4049 1 55.2255 2.01902 5.82841 3 1e-16 -4.10627
4050 1 54.4012 2.01902 3.49704 3 1e-16 -4.10627
4051 1 56.874 2.01902 3.49704 3 7.88861e-31 -4.10627
4052 1 56.0498 2.01902 1.16568 3 1.69e-18 -4.10627
4053 1 58.5226 2.01902 1.16568 3 1.0169e-16 -4.10627
4054 1 26.3764 0 46.6273 5 12.2293 -3.54465
4055 1 28.8491 0 46.6273 5 12.2293 -3.54465
4056 1 28.0249 0 44.2959 5 12.2293 -3.54465
4057 1 30.4977 0 44.2959 5 12.2293 -3.54465
4058 1 29.6734 0 41.9645 5 12.2293 -3.54465
4059 1 32.1462 0 41.9645 5 12.2293 -3.54465
4060 1 31.3219 0 39.6332 5 12.2293 -3.54465
4061 1 33.7947 0 39.6332 5 12.2293 -3.54465
4062 1 32.9705 0 37.3018 5 12.2293 -3.54465
4063 1 35.4432 0 37.3018 5 12.2293 -3.54465
4064 1 34.619 0 34.9704 5 12.2293 -3.54465
4065 1 37.0918 0 34.9704 5 12.2293 -3.54465
4066 1 36.2675 0 32.6391 5 12.2293 -3.54465
4067 1 38.7403 0 32.6391 5 12.2293 -3.54465
4068 1 37.916 0 30.3077 5 12.2293 -3.54465
4069 1 40.3888 0 30.3077 5 12.2293 -3.54465
4070 1 39.5645 0 27.9764 5 12.2293 -3.54465
4071 1 42.0373 0 27.9764 5 12.2293 -3.54465
4072 1 41.2131 0 25.645 5 12.2293 -3.54465
4073 1 43.6859 0 25.645 5 12.2293 -3.54465
4074 1 42.8616 0 23.3136 5 12.2293 -3.54465
4075 1 45.3344 0 23.3136 5 12.2293 -3.54465
4076 1 44.5101 0 20.9823 5 12.2293 -3.54465
4077 1 46.9829 0 20.9823 5 12.2293 -3.54465
4078 1 46.1586 0 18.6509 5 12.2293 -3.54465
4079 1 48.6314 0 18.6509 5 12.2293 -3.54465
4080 1 47.8072 0 16.3195 5 12.2293 -3.54465
4081 1 50.2799 0 16.3195 5 12.2293 -3.54465
4082 1 49.4557 0 13.9882 5 12.2293 -3.54465
4083 1 51.9285 0 13.9882 5 12.2293 -3.54465
4084 1 51.1042 0 11.6568 5 12.2293 -3.54465
4085 1 53.577 0 11.6568 5 12.2293 -3.54465
4086 1 52.7527 0 9.32545 5 12.2293 -3.54465
4087 1 55.2255 0 9.32545 5 12.2293 -3.54465
4088 1 54.4012 0 6.99409 5 12.2293 -3.54465
4089 1 56.874 0 6.99409 5 12.2293 -3.54465
4090 1 56.0498 0 4.66273 5 12.2293 -3.54465
4091 1 58.5226 0 4.66273 5 12.2293 -3.54465
4092 1 57.6983 0 2.33136 5 12.2293 -3.54465
4093 1 60.1711 0 2.33136 5 12.2293 -3.54465
4094 1 59.3468 0 0 5 12.2293 -3.54465
4095 1 61.8196 0 0 5 12.2293 -3.54465
4096 1 0.824261 52.4945 2.33136 3 5.776e-17 -4.12244
4097 1 0 52.4945 0 3 2.811e-17 -4.12244
4098 1 2.47278 52.4945 0 3 4.0507e-16 -4.12244
4099 1 0.824261 50.4755 5.82841 3 5.776e-17 -4.12244
4100 1 0 50.4755 3.49704 3 2.304e-17 -4.12244
4101 1 2.47278 50.4755 3.49704 3 4e-16 -4.12244
4102 1 1.64852 50.4755 1.16568 3 5.945e-17 -4.12244
4103 1 4.12131 50.4755 1.16568 3 1.0169e-16 -4.12244
4104 1 0.824261 48.4565 9.32545 3 5.776e-17 -4.12244
4105 1 0 48.4565 6.99409 3 2.304e-17 -4.12244
4106 1 2.47278 48.4565 6.99409 3 4e-16 -4.12244
4107 1 1.64852 48.4565 4.66273 3 5.776e-17 -4.12244
4108 1 4.12131 48.4565 4.66273 3 1e-16 -4.12244
4109 1 3.29705 48.4565 2.33136 3 4e-16 -4.12244
4110 1 5.76983 48.4565 2.33136 3 0 -4.12244
4111 1 4.94557 48.4565 0 3 1.0507e-16 -4.12244
4112 1 7.41835 48.4565 0 3 1.0507e-16 -4.12244
4113 1 0.824261 46.4375 12.8225 3 5.776e-17 -4.12244
4114 1 0 46.4375 10.4911 3 2.304e-17 -4.12244
4115 1 2.47278 46.4375 10.4911 3 4e-16 -4.12244
4116 1 1.64852 46.4375 8.15977 3 5.776e-17 -4.12244
4117 1 4.12131 46.4375 8.15977 3 1e-16 -4.12244
4118 1 3.29705 46.4375 5.82841 3 4e-16 -4.12244
4119 1 5.76983 46.4375 5.82841 3 3.15544e-30 -4.12244
4120 1 4.94557 46.4375 3.49704 3 1e-16 -4.12244
4121 1 7.41835 46.4375 3.49704 3 1e-16 -4.12244
4122 1 6.59409 46.4375 1.16568 3 1.69e-18 -4.12244
4123 1 9.06687 46.4375 1.16568 3 4.0169e-16 -4.12244
4124 1 0.824261 44.4184 16.3195 3 5.776e-17 -4.12244
4125 1 0 44.4184 13.9882 3 2.304e-17 -4.12244
4126 1 2.47278 44.4184 13.9882 3 4e-16 -4.12244
4127 1 1.64852 44.4184 11.6568 3 5.776e-17 -4.12244
4128 1 4.12131 44.4184 11.6568 3 1e-16 -4.12244
4129 1 3.29705 44.4184 9.32545 3 4e-16 -4.12244
4130 1 5.76983 44.4184 9.32545 3 0 -4.12244
4131 1 4.94557 44.4184 6.99409 3 1e-16 -4.12244
4132 1 7.41835 44.4184 6.99409 3 1e-16 -4.12244
4133 1 6.59409 44.4184 4.66273 3 0 -4.12244
4134 1 9.06687 44.4184 4.66273 3 4e-16 -4.12244
4135 1 8.24261 44.4184 2.33136 3 9.99999e-17 -4.12244
4136 1 10.7154 44.4184 2.33136 3 1e-16 -4.12244
4137 1 9.89114 44.4184 0 3 4.0507e-16 -4.12244
4138 1 12.3639 44.4184 0 3 5.07001e-18 -4.12244
4139 1 0.824261 42.3994 19.8166 3 5.776e-17 -4.12244
4140 1 0 42.3994 17.4852 3 2.304e-17 -4.12244
4141 1 2.47278 42.3994 17.4852 3 4e-16 -4.12244
4142 1 1.64852 42.3994 15.1539 3 5.776e-17 -4.12244
4143 1 4.12131 42.3994 15.1539 3 1e-16 -4.12244
4144 1 3.29705 42.3994 12.8225 3 4e-16 -4.12244
4145 1 5.76983 42.3994 12.8225 3 3.78653e-29 -4.12244
4146 1 4.94557 42.3994 10.4911 3 1e-16 -4.12244
4147 1 7.41835 42.3994 10.4911 3 1e-16 -4.12244
4148 1 6.59409 42.3994 8.15977 3 1.26218e-29 -4.12244
4149 1 9.06687 42.3994 8.15977 3 4e-16 -4.12244
4150 1 8.24261 42.3994 5.82841 3 9.99999e-17 -4.12244
4151 1 10.7154 42.3994 5.82841 3 1e-16 -4.12244
4152 1 9.89114 42.3994 3.49704 3 4e-16 -4.12244
4153 1 12.3639 42.3994 3.49704 3 7.88861e-31 -4.12244
4154 1 11.5397 42.3994 1.16568 3 1.0169e-16 -4.12244
4155 1 14.0124 42.3994 1.16568 3 1.0169e-16 -4.12244
4156 1 0.824261 40.3804 23.3136 3 5.776e-17 -4.12244
4157 1 0 40.3804 20.9823 3 2.304e-17 -4.12244
4158 1 2.47278 40.3804 20.9823 3 4e-16 -4.12244
4159 1 1.64852 40.3804 18.6509 3 5.776e-17 -4.12244
4160 1 4.12131 40.3804 18.6509 3 1e-16 -4.12244
4161 1 3.29705 40.3804 16.3195 3 4e-16 -4.12244
4162 1 5.76983 40.3804 16.3195 3 1.00974e-28 -4.12244
4163 1 4.94557 40.3804 13.9882 3 1e-16 -4.12244
4164 1 7.41835 40.3804 13.9882 3 1e-16 -4.12244
4165 1 6.59409 40.3804 11.6568 3 0 -4.12244
4166 1 9.06687 40.3804 11.6568 3 4e-16 -4.12244
4167 1 8.24261 40.3804 9.32545 3 9.99999e-17 -4.12244
4168 1 10.7154 40.3804 9.32545 3 1e-16 -4.12244
4169 1 9.89114 40.3804 6.99409 3 4e-16 -4.12244
4170 1 12.3639 40.3804 6.99409 3 0 -4.12244
4171 1 11.5397 40.3804 4.66273 3 1e-16 -4.12244
4172 1 14.0124 40.3804 4.66273 3 1e-16 -4.12244
4173 1 13.1882 40.3804 2.33136 3 0 -4.12244
4174 1 15.661 40.3804 2.33136 3 4e-16 -4.12244
4175 1 14.8367 40.3804 0 3 1.0507e-16 -4.12244
4176 1 17.3095 40.3804 0 3 1.0507e-16 -4.12244
4177 1 0.824261 38.3614 26.8107 3 5.776e-17 -4.12244
4178 1 0 38.3614 24.4793 3 2.304e-17 -4.12244
4179 1 2.47278 38.3614 24.4793 3 4e-16 -4.12244
4180 1 1.64852 38.3614 22.1479 3 5.776e-17 -4.12244
4181 1 4.12131 38.3614 22.1479 3 1e-16 -4.12244
4182 1 3.29705 38.3614 19.8166 3 4e-16 -4.12244
4183 1 5.76983 38.3614 19.8166 3 0 -4.12244
4184 1 4.94557 38.3614 17.4852 3 1e-16 -4.12244
4185 1 7.41835 38.3614 17.4852 3 1e-16 -4.12244
4186 1 6.59409 38.3614 15.1539 3 0 -4.12244
4187 1 9.06687 38.3614 15.1539 3 4e-16 -4.12244
4188 1 8.24261 38.3614 12.8225 3 9.99999e-17 -4.12244
4189 1 10.7154 38.3614 12.8225 3 1e-16 -4.12244
4190 1 9.89114 38.3614 10.4911 3 4e-16 -4.12244
4191 1 12.3639 38.3614 10.4911 3 0 -4.12244
4192 1 11.5397 38.3614 8.15977 3 1e-16 -4.12244
4193 1 14.0124 38.3614 8.15977 3 1e-16 -4.12244
4194 1 13.1882 38.3614 5.82841 3 3.15544e-30 -4.12244
4195 1 15.661 38.3614 5.82841 3 4e-16 -4.12244
4196 1 14.8367 38.3614 3.49704 3 9.99999e-17 -4.12244
4197 1 17.3095 38.3614 3.49704 3 1e-16 -4.12244
4198 1 16.4852 38.3614 1.16568 3 4.0169e-16 -4.12244
4199 1 18.958 38.3614 1.16568 3 1.69e-18 -4.12244
4200 1 0.824261 36.3424 30.3077 3 5.776e-17 -4.12244
4201 1 0 36.3424 27.9764 3 2.304e-17 -4.12244
4202 1 2.47278 36.3424 27.9764 3 4e-16 -4.12244
4203 1 1.64852 36.3424 25.645 3 5.776e-17 -4.12244
4204 1 4.12131 36.3424 25.645 3 1e-16 -4.12244
4205 1 3.29705 36.3424 23.3136 3 4e-16 -4.12244
4206 1 5.76983 36.3424 23.3136 3 0 -4.12244
4207 1 4.94557 36.3424 20.9823 3 1e-16 -4.12244
4208 1 7.41835 36.3424 20.9823 3 1e-16 -4.12244
4209 1 6.59409 36.3424 18.6509 3 0 -4.12244
4210 1 9.06687 36.3424 18.6509 3 4e-16 -4.12244
4211 1 8.24261 36.3424 16.3195 3 9.99999e-17 -4.12244
4212 1 10.7154 36.3424 16.3195 3 1e-16 -4.12244
4213 1 9.89114 36.3424 13.9882 3 4e-16 -4.12244
4214 1 12.3639 36.3424 13.9882 3 2.52435e-29 -4.12244
4215 1 11.5397 36.3424 11.6568 3 1e-16 -4.12244
4216 1 14.0124 36.3424 11.6568 3 1e-16 -4.12244
4217 1 13.1882 36.3424 9.32545 3 0 -4.12244
4218 1 15.661 36.3424 9.32545 3 4e-16 -4.12244
4219 1 14.8367 36.3424 6.99409 3 9.99999e-17 -4.12244
4220 1 17.3095 36.3424 6.99409 3 1e-16 -4.12244
4221 1 16.4852 36.3424 4.66273 3 4e-16 -4.12244
4222 1 18.958 36.3424 4.66273 3 2.01948e-28 -4.12244
4223 1 18.1337 36.3424 2.33136 3 1e-16 -4.12244
4224 1 20.6065 36.3424 2.33136 3 1e-16 -4.12244
4225 1 19.7823 36.3424 0 3 1.0507e-16 -4.12244
4226 1 22.2551 36.3424 0 3 4.0507e-16 -4.12244
4227 1 0.824261 34.3233 33.8048 3 5.776e-17 -4.12244
4228 1 0 34.3233 31.4734 3 2.304e-17 -4.12244
4229 1 2.47278 34.3233 31.4734 3 4e-16 -4.12244
4230 1 1.64852 34.3233 29.142 3 5.776e-17 -4.12244
4231 1 4.12131 34.3233 29.142 3 1e-16 -4.12244
4232 1 3.29705 34.3233 26.8107 3 4e-16 -4.12244
4233 1 5.76983 34.3233 26.8107 3 0 -4.12244
4234 1 4.94557 34.3233 24.4793 3 1e-16 -4.12244
4235 1 7.41835 34.3233 24.4793 3 1e-16 -4.12244
4236 1 6.59409 34.3233 22.1479 3 0 -4.12244
4237 1 9.06687 34.3233 22.1479 3 4e-16 -4.12244
4238 1 8.24261 34.3233 19.8166 3 9.99999e-17 -4.12244
4239 1 10.7154 34.3233 19.8166 3 1e-16 -4.12244
4240 1 9.89114 34.3233 17.4852 3 4e-16 -4.12244
4241 1 12.3639 34.3233 17.4852 3 1.00974e-28 -4.12244
4242 1 11.5397 34.3233 15.1539 3 1e-16 -4.12244
4243 1 14.0124 34.3233 15.1539 3 1e-16 -4.12244
4244 1 13.1882 34.3233 12.8225 3 3.78653e-29 -4.12244
4245 1 15.661 34.3233 12.8225 3 4e-16 -4.12244
4246 1 14.8367 34.3233 10.4911 3 9.99999e-17 -4.12244
4247 1 17.3095 34.3233 10.4911 3 1e-16 -4.12244
4248 1 16.4852 34.3233 8.15977 3 4e-16 -4.12244
4249 1 18.958 34.3233 8.15977 3 2.1457e-28 -4.12244
4250 1 18.1337 34.3233 5.82841 3 1e-16 -4.12244
4251 1 20.6065 34.3233 5.82841 3 1e-16 -4.12244
4252 1 19.7823 34.3233 3.49704 3 1e-16 -4.12244
4253 1 22.2551 34.3233 3.49704 3 4e-16 -4.12244
4254 1 21.4308 34.3233 1.16568 3 4.0169e-16 -4.12244
4255 1 23.9036 34.3233 1.16568 3 1.0169e-16 -4.12244
4256 1 0.824261 32.3043 37.3018 3 5.776e-17 -4.12244
4257 1 0 32.3043 34.9704 3 2.304e-17 -4.12244
4258 1 2.47278 32.3043 34.9704 3 4e-16 -4.12244
4259 1 1.64852 32.3043 32.6391 3 5.776e-17 -4.12244
4260 1 4.12131 32.3043 32.6391 3 1e-16 -4.12244
4261 1 3.29705 32.3043 30.3077 3 4e-16 -4.12244
4262 1 5.76983 32.3043 30.3077 3 0 -4.12244
4263 1 4.94557 32.3043 27.9764 3 1e-16 -4.12244
4264 1 7.41835 32.3043 27.9764 3 1e-16 -4.12244
4265 1 6.59409 32.3043 25.645 3 1.51461e-28 -4.12244
4266 1 9.06687 32.3043 25.645 3 4e-16 -4.12244
4267 1 8.24261 32.3043 23.3136 3 9.99999e-17 -4.12244
4268 1 10.7154 32.3043 23.3136 3 1e-16 -4.12244
4269 1 9.89114 32.3043 20.9823 3 4e-16 -4.12244
4270 1 12.3639 32.3043 20.9823 3 0 -4.12244
4271 1 11.5397 32.3043 18.6509 3 1e-16 -4.12244
4272 1 14.0124 32.3043 18.6509 3 1e-16 -4.12244
4273 1 13.1882 32.3043 16.3195 3 1.00974e-28 -4.12244
4274 1 15.661 32.3043 16.3195 3 4e-16 -4.12244
4275 1 14.8367 32.3043 13.9882 3 9.99999e-17 -4.12244
4276 1 17.3095 32.3043 13.9882 3 1e-16 -4.12244
4277 1 16.4852 32.3043 11.6568 3 4e-16 -4.12244
4278 1 18.958 32.3043 11.6568 3 2.01948e-28 -4.12244
4279 1 18.1337 32.3043 9.32545 3 1e-16 -4.12244
4280 1 20.6065 32.3043 9.32545 3 1e-16 -4.12244
4281 1 19.7823 32.3043 6.99409 3 1e-16 -4.12244
4282 1 22.2551 32.3043 6.99409 3 4e-16 -4.12244
4283 1 21.4308 32.3043 4.66273 3 4e-16 -4.12244
4284 1 23.9036 32.3043 4.66273 3 1e-16 -4.12244
4285 1 23.0793 32.3043 2.33136 3 1e-16 -4.12244
4286 1 25.5521 32.3043 2.33136 3 1.51461e-28 -4.12244
4287 1 24.7278 32.3043 0 3 5.07001e-18 -4.12244
4288 1 27.2006 32.3043 0 3 1.0507e-16 -4.12244
4289 1 0.824261 30.2853 40.7989 3 5.776e-17 -4.12244
4290 1 0 30.2853 38.4675 3 2.304e-17 -4.12244
4291 1 2.47278 30.2853 38.4675 3 4e-16 -4.12244
4292 1 1.64852 30.2853 36.1361 3 5.776e-17 -4.12244
4293 1 4.12131 30.2853 36.1361 3 1e-16 -4.12244
4294 1 3.29705 30.2853 33.8048 3 4e-16 -4.12244
4295 1 5.76983 30.2853 33.8048 3 1.00974e-28 -4.12244
4296 1 4.94557 30.2853 31.4734 3 1e-16 -4.12244
4297 1 7.41835 30.2853 31.4734 3 1e-16 -4.12244
4298 1 6.59409 30.2853 29.142 3 2.52435e-28 -4.12244
4299 1 9.06687 30.2853 29.142 3 4e-16 -4.12244
4300 1 8.24261 30.2853 26.8107 3 9.99999e-17 -4.12244
4301 1 10.7154 30.2853 26.8107 3 1e-16 -4.12244
4302 1 9.89114 30.2853 24.4793 3 4e-16 -4.12244
4303 1 12.3639 30.2853 24.4793 3 2.01948e-28 -4.12244
4304 1 11.5397 30.2853 22.1479 3 1e-16 -4.12244
4305 1 14.0124 30.2853 22.1479 3 1e-16 -4.12244
4306 1 13.1882 30.2853 19.8166 3 1.00974e-28 -4.12244
4307 1 15.661 30.2853 19.8166 3 4e-16 -4.12244
4308 1 14.8367 30.2853 17.4852 3 9.99999e-17 -4.12244
4309 1 17.3095 30.2853 17.4852 3 1e-16 -4.12244
4310 1 16.4852 30.2853 15.1539 3 4e-16 -4.12244
4311 1 18.958 30.2853 15.1539 3 3.02923e-28 -4.12244
4312 1 18.1337 30.2853 12.8225 3 1e-16 -4.12244
4313 1 20.6065 30.2853 12.8225 3 1e-16 -4.12244
4314 1 19.7823 30.2853 10.4911 3 1e-16 -4.12244
4315 1 22.2551 30.2853 10.4911 3 4e-16 -4.12244
4316 1 21.4308 30.2853 8.15977 3 4e-16 -4.12244
4317 1 23.9036 30.2853 8.15977 3 1e-16 -4.12244
4318 1 23.0793 30.2853 5.82841 3 1e-16 -4.12244
4319 1 25.5521 30.2853 5.82841 3 2.55591e-28 -4.12244
4320 1 24.7278 30.2853 3.49704 3 1.01763e-28 -4.12244
4321 1 27.2006 30.2853 3.49704 3 1e-16 -4.12244
4322 1 26.3764 30.2853 1.16568 3 1.0169e-16 -4.12244
4323 1 28.8491 30.2853 1.16568 3 4.0169e-16 -4.12244
4324 1 0.824261 28.2663 44.2959 3 5.776e-17 -4.12244
4325 1 0 28.2663 41.9645 3 2.304e-17 -4.12244
4326 1 2.47278 28.2663 41.9645 3 4e-16 -4.12244
4327 1 1.64852 28.2663 39.6332 3 5.776e-17 -4.12244
4328 1 4.12131 28.2663 39.6332 3 1e-16 -4.12244
4329 1 3.29705 28.2663 37.3018 3 4e-16 -4.12244
4330 1 5.76983 28.2663 37.3018 3 0 -4.12244
4331 1 4.94557 28.2663 34.9704 3 1e-16 -4.12244
4332 1 7.41835 28.2663 34.9704 3 1e-16 -4.12244
4333 1 6.59409 28.2663 32.6391 3 2.01948e-28 -4.12244
4334 1 9.06687 28.2663 32.6391 3 4e-16 -4.12244
4335 1 8.24261 28.2663 30.3077 3 9.99999e-17 -4.12244
4336 1 10.7154 28.2663 30.3077 3 1e-16 -4.12244
4337 1 9.89114 28.2663 27.9764 3 4e-16 -4.12244
4338 1 12.3639 28.2663 27.9764 3 1.51461e-28 -4.12244
4339 1 11.5397 28.2663 25.645 3 1e-16 -4.12244
4340 1 14.0124 28.2663 25.645 3 1e-16 -4.12244
4341 1 13.1882 28.2663 23.3136 3 0 -4.12244
4342 1 15.661 28.2663 23.3136 3 4e-16 -4.12244
4343 1 14.8367 28.2663 20.9823 3 9.99999e-17 -4.12244
4344 1 17.3095 28.2663 20.9823 3 1e-16 -4.12244
4345 1 16.4852 28.2663 18.6509 3 4e-16 -4.12244
4346 1 18.958 28.2663 18.6509 3 2.01948e-28 -4.12244
4347 1 18.1337 28.2663 16.3195 3 1e-16 -4.12244
4348 1 20.6065 28.2663 16.3195 3 1e-16 -4.12244
4349 1 19.7823 28.2663 13.9882 3 1e-16 -4.12244
4350 1 22.2551 28.2663 13.9882 3 4e-16 -4.12244
4351 1 21.4308 28.2663 11.6568 3 4e-16 -4.12244
4352 1 23.9036 28.2663 11.6568 3 1e-16 -4.12244
4353 1 23.0793 28.2663 9.32545 3 1e-16 -4.12244
4354 1 25.5521 28.2663 9.32545 3 1.51461e-28 -4.12244
4355 1 24.7278 28.2663 6.99409 3 0 -4.12244
4356 1 27.2006 28.2663 6.99409 3 1e-16 -4.12244
4357 1 26.3764 28.2663 4.66273 3 1e-16 -4.12244
4358 1 28.8491 28.2663 4.66273 3 4e-16 -4.12244
4359 1 28.0249 28.2663 2.33136 3 3.99999e-16 -4.12244
4360 1 30.4977 28.2663 2.33136 3 9.99999e-17 -4.12244
4361 1 29.6734 28.2663 0 3 1.0507e-16 -4.12244
4362 1 32.1462 28.2663 0 3 1.0507e-16 -4.12244
4363 1 0.824261 26.2473 47.7929 3 6.28299e-17 -4.12244
4364 1 0 26.2473 45.4616 3 2.304e-17 -4.12244
4365 1 2.47278 26.2473 45.4616 3 4e-16 -4.12244
4366 1 1.64852 26.2473 43.1302 3 5.776e-17 -4.12244
4367 1 4.12131 26.2473 43.1302 3 1e-16 -4.12244
4368 1 3.29705 26.2473 40.7989 3 4e-16 -4.12244
4369 1 5.76983 26.2473 40.7989 3 7.06819e-28 -4.12244
4370 1 4.94557 26.2473 38.4675 3 1e-16 -4.12244
4371 1 7.41835 26.2473 38.4675 3 1e-16 -4.12244
4372 1 6.59409 26.2473 36.1361 3 7.06819e-28 -4.12244
4373 1 9.06687 26.2473 36.1361 3 4e-16 -4.12244
4374 1 8.24261 26.2473 33.8048 3 9.99999e-17 -4.12244
4375 1 10.7154 26.2473 33.8048 3 1e-16 -4.12244
4376 1 9.89114 26.2473 31.4734 3 4e-16 -4.12244
4377 1 12.3639 26.2473 31.4734 3 1.51461e-28 -4.12244
4378 1 11.5397 26.2473 29.142 3 1e-16 -4.12244
4379 1 14.0124 26.2473 29.142 3 1e-16 -4.12244
4380 1 13.1882 26.2473 26.8107 3 1.00974e-28 -4.12244
4381 1 15.661 26.2473 26.8107 3 4e-16 -4.12244
4382 1 14.8367 26.2473 24.4793 3 9.99999e-17 -4.12244
4383 1 17.3095 26.2473 24.4793 3 1e-16 -4.12244
4384 1 16.4852 26.2473 22.1479 3 4e-16 -4.12244
4385 1 18.958 26.2473 22.1479 3 3.02923e-28 -4.12244
4386 1 18.1337 26.2473 19.8166 3 1e-16 -4.12244
4387 1 20.6065 26.2473 19.8166 3 1e-16 -4.12244
4388 1 19.7823 26.2473 17.4852 3 1e-16 -4.12244
4389 1 22.2551 26.2473 17.4852 3 4e-16 -4.12244
4390 1 21.4308 26.2473 15.1539 3 4e-16 -4.12244
4391 1 23.9036 26.2473 15.1539 3 1e-16 -4.12244
4392 1 23.0793 26.2473 12.8225 3 1e-16 -4.12244
4393 1 25.5521 26.2473 12.8225 3 2.90301e-28 -4.12244
4394 1 24.7278 26.2473 10.4911 3 1.00974e-28 -4.12244
4395 1 27.2006 26.2473 10.4911 3 1e-16 -4.12244
4396 1 26.3764 26.2473 8.15977 3 1e-16 -4.12244
4397 1 28.8491 26.2473 8.15977 3 4e-16 -4.12244
4398 1 28.0249 26.2473 5.82841 3 3.99999e-16 -4.12244
4399 1 30.4977 26.2473 5.82841 3 9.99999e-17 -4.12244
4400 1 29.6734 26.2473 3.49704 3 1e-16 -4.12244
4401 1 32.1462 26.2473 3.49704 3 9.99999e-17 -4.12244
4402 1 31.3219 26.2473 1.16568 3 1.69e-18 -4.12244
4403 1 33.7947 26.2473 1.16568 3 4.01691e-16 -4.12244
4404 1 1.64852 24.2282 46.6273 3 5.945e-17 -4.12244
4405 1 4.12131 24.2282 46.6273 3 1.0169e-16 -4.12244
4406 1 3.29705 24.2282 44.2959 3 4e-16 -4.12244
4407 1 5.76983 24.2282 44.2959 3 0 -4.12244
4408 1 4.94557 24.2282 41.9645 3 1e-16 -4.12244
4409 1 7.41835 24.2282 41.9645 3 1e-16 -4.12244
4410 1 6.59409 24.2282 39.6332 3 0 -4.12244
4411 1 9.06687 24.2282 39.6332 3 4e-16 -4.12244
4412 1 8.24261 24.2282 37.3018 3 9.99999e-17 -4.12244
4413 1 10.7154 24.2282 37.3018 3 1e-16 -4.12244
4414 1 9.89114 24.2282 34.9704 3 4e-16 -4.12244
4415 1 12.3639 24.2282 34.9704 3 2.01948e-28 -4.12244
4416 1 11.5397 24.2282 32.6391 3 1e-16 -4.12244
4417 1 14.0124 24.2282 32.6391 3 1e-16 -4.12244
4418 1 13.1882 24.2282 30.3077 3 0 -4.12244
4419 1 15.661 24.2282 30.3077 3 4e-16 -4.12244
4420 1 14.8367 24.2282 27.9764 3 9.99999e-17 -4.12244
4421 1 17.3095 24.2282 27.9764 3 1e-16 -4.12244
4422 1 16.4852 24.2282 25.645 3 4e-16 -4.12244
4423 1 18.958 24.2282 25.645 3 3.5341e-28 -4.12244
4424 1 18.1337 24.2282 23.3136 3 1e-16 -4.12244
4425 1 20.6065 24.2282 23.3136 3 1e-16 -4.12244
4426 1 19.7823 24.2282 20.9823 3 1e-16 -4.12244
4427 1 22.2551 24.2282 20.9823 3 4e-16 -4.12244
4428 1 21.4308 24.2282 18.6509 3 4e-16 -4.12244
4429 1 23.9036 24.2282 18.6509 3 1e-16 -4.12244
4430 1 23.0793 24.2282 16.3195 3 1e-16 -4.12244
4431 1 25.5521 24.2282 16.3195 3 2.52435e-28 -4.12244
4432 1 24.7278 24.2282 13.9882 3 2.52435e-29 -4.12244
4433 1 27.2006 24.2282 13.9882 3 1e-16 -4.12244
4434 1 26.3764 24.2282 11.6568 3 1e-16 -4.12244
4435 1 28.8491 24.2282 11.6568 3 4e-16 -4.12244
4436 1 28.0249 24.2282 9.32545 3 3.99999e-16 -4.12244
4437 1 30.4977 24.2282 9.32545 3 9.99999e-17 -4.12244
4438 1 29.6734 24.2282 6.99409 3 1e-16 -4.12244
4439 1 32.1462 24.2282 6.99409 3 9.99999e-17 -4.12244
4440 1 31.3219 24.2282 4.66273 3 0 -4.12244
4441 1 33.7947 24.2282 4.66273 3 4.00001e-16 -4.12244
4442 1 32.9705 24.2282 2.33136 3 9.99999e-17 -4.12244
4443 1 35.4432 24.2282 2.33136 3 1e-16 -4.12244
4444 1 34.619 24.2282 0 3 4.0507e-16 -4.12244
4445 1 37.0918 24.2282 0 3 5.07001e-18 -4.12244
4446 1 3.29705 22.2092 47.7929 3 4.0507e-16 -4.12244
4447 1 5.76983 22.2092 47.7929 3 5.06996e-18 -4.12244
4448 1 4.94557 22.2092 45.4616 3 1e-16 -4.12244
4449 1 7.41835 22.2092 45.4616 3 1e-16 -4.12244
4450 1 6.59409 22.2092 43.1302 3 6.05845e-28 -4.12244
4451 1 9.06687 22.2092 43.1302 3 4e-16 -4.12244
4452 1 8.24261 22.2092 40.7989 3 9.99999e-17 -4.12244
4453 1 10.7154 22.2092 40.7989 3 1e-16 -4.12244
4454 1 9.89114 22.2092 38.4675 3 4e-16 -4.12244
4455 1 12.3639 22.2092 38.4675 3 0 -4.12244
4456 1 11.5397 22.2092 36.1361 3 1e-16 -4.12244
4457 1 14.0124 22.2092 36.1361 3 1e-16 -4.12244
4458 1 13.1882 22.2092 33.8048 3 0 -4.12244
4459 1 15.661 22.2092 33.8048 3 4e-16 -4.12244
4460 1 14.8367 22.2092 31.4734 3 9.99999e-17 -4.12244
4461 1 17.3095 22.2092 31.4734 3 1e-16 -4.12244
4462 1 16.4852 22.2092 29.142 3 4e-16 -4.12244
4463 1 18.958 22.2092 29.142 3 3.5341e-28 -4.12244
4464 1 18.1337 22.2092 26.8107 3 1e-16 -4.12244
4465 1 20.6065 22.2092 26.8107 3 1e-16 -4.12244
4466 1 19.7823 22.2092 24.4793 3 1e-16 -4.12244
4467 1 22.2551 22.2092 24.4793 3 4e-16 -4.12244
4468 1 21.4308 22.2092 22.1479 3 4e-16 -4.12244
4469 1 23.9036 22.2092 22.1479 3 1e-16 -4.12244
4470 1 23.0793 22.2092 19.8166 3 1e-16 -4.12244
4471 1 25.5521 22.2092 19.8166 3 1.51461e-28 -4.12244
4472 1 24.7278 22.2092 17.4852 3 1.00974e-28 -4.12244
4473 1 27.2006 22.2092 17.4852 3 1e-16 -4.12244
4474 1 26.3764 22.2092 15.1539 3 1e-16 -4.12244
4475 1 28.8491 22.2092 15.1539 3 4e-16 -4.12244
4476 1 28.0249 22.2092 12.8225 3 3.99999e-16 -4.12244
4477 1 30.4977 22.2092 12.8225 3 9.99999e-17 -4.12244
4478 1 29.6734 22.2092 10.4911 3 1e-16 -4.12244
4479 1 32.1462 22.2092 10.4911 3 9.99999e-17 -4.12244
4480 1 31.3219 22.2092 8.15977 3 1.26218e-29 -4.12244
4481 1 33.7947 22.2092 8.15977 3 4.00001e-16 -4.12244
4482 1 32.9705 22.2092 5.82841 3 9.99999e-17 -4.12244
4483 1 35.4432 22.2092 5.82841 3 1e-16 -4.12244
4484 1 34.619 22.2092 3.49704 3 4e-16 -4.12244
4485 1 37.0918 22.2092 3.49704 3 7.88861e-31 -4.12244
4486 1 36.2675 22.2092 1.16568 3 1.0169e-16 -4.12244
4487 1 38.7403 22.2092 1.16568 3 1.0169e-16 -4.12244
4488 1 6.59409 20.1902 46.6273 3 1.69002e-18 -4.12244
4489 1 9.06687 20.1902 46.6273 3 4.0169e-16 -4.12244
4490 1 8.24261 20.1902 44.2959 3 9.99999e-17 -4.12244
4491 1 10.7154 20.1902 44.2959 3 1e-16 -4.12244
4492 1 9.89114 20.1902 41.9645 3 4e-16 -4.12244
4493 1 12.3639 20.1902 41.9645 3 0 -4.12244
4494 1 11.5397 20.1902 39.6332 3 1e-16 -4.12244
4495 1 14.0124 20.1902 39.6332 3 1e-16 -4.12244
4496 1 13.1882 20.1902 37.3018 3 0 -4.12244
4497 1 15.661 20.1902 37.3018 3 4e-16 -4.12244
4498 1 14.8367 20.1902 34.9704 3 9.99999e-17 -4.12244
4499 1 17.3095 20.1902 34.9704 3 1e-16 -4.12244
4500 1 16.4852 20.1902 32.6391 3 4e-16 -4.12244
4501 1 18.958 20.1902 32.6391 3 4.03897e-28 -4.12244
4502 1 18.1337 20.1902 30.3077 3 1e-16 -4.12244
4503 1 20.6065 20.1902 30.3077 3 1e-16 -4.12244
4504 1 19.7823 20.1902 27.9764 3 1e-16 -4.12244
4505 1 22.2551 20.1902 27.9764 3 4e-16 -4.12244
4506 1 21.4308 20.1902 25.645 3 4e-16 -4.12244
4507 1 23.9036 20.1902 25.645 3 1e-16 -4.12244
4508 1 23.0793 20.1902 23.3136 3 1e-16 -4.12244
4509 1 25.5521 20.1902 23.3136 3 1.51461e-28 -4.12244
4510 1 24.7278 20.1902 20.9823 3 0 -4.12244
4511 1 27.2006 20.1902 20.9823 3 1e-16 -4.12244
4512 1 26.3764 20.1902 18.6509 3 1e-16 -4.12244
4513 1 28.8491 20.1902 18.6509 3 4e-16 -4.12244
4514 1 28.0249 20.1902 16.3195 3 3.99999e-16 -4.12244
4515 1 30.4977 20.1902 16.3195 3 9.99999e-17 -4.12244
4516 1 29.6734 20.1902 13.9882 3 1e-16 -4.12244
4517 1 32.1462 20.1902 13.9882 3 9.99999e-17 -4.12244
4518 1 31.3219 20.1902 11.6568 3 0 -4.12244
4519 1 33.7947 20.1902 11.6568 3 4.00001e-16 -4.12244
4520 1 32.9705 20.1902 9.32545 3 9.99999e-17 -4.12244
4521 1 35.4432 20.1902 9.32545 3 1e-16 -4.12244
4522 1 34.619 20.1902 6.99409 3 4e-16 -4.12244
4523 1 37.0918 20.1902 6.99409 3 0 -4.12244
4524 1 36.2675 20.1902 4.66273 3 1e-16 -4.12244
4525 1 38.7403 20.1902 4.66273 3 1e-16 -4.12244
4526 1 37.916 20.1902 2.33136 3 8.07794e-28 -4.12244
4527 1 40.3888 20.1902 2.33136 3 3.99999e-16 -4.12244
4528 1 39.5645 20.1902 0 3 1.0507e-16 -4.12244
4529 1 42.0373 20.1902 0 3 1.0507e-16 -4.12244
4530 1 8.24261 18.1712 47.7929 3 1.0507e-16 -4.12244
4531 1 10.7154 18.1712 47.7929 3 1.0507e-16 -4.12244
4532 1 9.89114 18.1712 45.4616 3 4e-16 -4.12244
4533 1 12.3639 18.1712 45.4616 3 1.00974e-28 -4.12244
4534 1 11.5397 18.1712 43.1302 3 1e-16 -4.12244
4535 1 14.0124 18.1712 43.1302 3 1e-16 -4.12244
4536 1 13.1882 18.1712 40.7989 3 7.06819e-28 -4.12244
4537 1 15.661 18.1712 40.7989 3 4e-16 -4.12244
4538 1 14.8367 18.1712 38.4675 3 9.99999e-17 -4.12244
4539 1 17.3095 18.1712 38.4675 3 1e-16 -4.12244
4540 1 16.4852 18.1712 36.1361 3 4e-16 -4.12244
4541 1 18.958 18.1712 36.1361 3 9.08768e-28 -4.12244
4542 1 18.1337 18.1712 33.8048 3 1e-16 -4.12244
4543 1 20.6065 18.1712 33.8048 3 1e-16 -4.12244
4544 1 19.7823 18.1712 31.4734 3 1e-16 -4.12244
4545 1 22.2551 18.1712 31.4734 3 4e-16 -4.12244
4546 1 21.4308 18.1712 29.142 3 4e-16 -4.12244
4547 1 23.9036 18.1712 29.142 3 1e-16 -4.12244
4548 1 23.0793 18.1712 26.8107 3 1e-16 -4.12244
4549 1 25.5521 18.1712 26.8107 3 2.52435e-28 -4.12244
4550 1 24.7278 18.1712 24.4793 3 2.01948e-28 -4.12244
4551 1 27.2006 18.1712 24.4793 3 1e-16 -4.12244
4552 1 26.3764 18.1712 22.1479 3 1e-16 -4.12244
4553 1 28.8491 18.1712 22.1479 3 4e-16 -4.12244
4554 1 28.0249 18.1712 19.8166 3 3.99999e-16 -4.12244
4555 1 30.4977 18.1712 19.8166 3 9.99999e-17 -4.12244
4556 1 29.6734 18.1712 17.4852 3 1e-16 -4.12244
4557 1 32.1462 18.1712 17.4852 3 9.99999e-17 -4.12244
4558 1 31.3219 18.1712 15.1539 3 1.00974e-28 -4.12244
4559 1 33.7947 18.1712 15.1539 3 4.00001e-16 -4.12244
4560 1 32.9705 18.1712 12.8225 3 9.99999e-17 -4.12244
4561 1 35.4432 18.1712 12.8225 3 1e-16 -4.12244
4562 1 34.619 18.1712 10.4911 3 4e-16 -4.12244
4563 1 37.0918 18.1712 10.4911 3 1.00974e-28 -4.12244
4564 1 36.2675 18.1712 8.15977 3 1e-16 -4.12244
4565 1 38.7403 18.1712 8.15977 3 1e-16 -4.12244
4566 1 37.916 18.1712 5.82841 3 9.11923e-28 -4.12244
4567 1 40.3888 18.1712 5.82841 3 3.99999e-16 -4.12244
4568 1 39.5645 18.1712 3.49704 3 1e-16 -4.12244
4569 1 42.0373 18.1712 3.49704 3 1e-16 -4.12244
4570 1 41.2131 18.1712 1.16568 3 4.01691e-16 -4.12244
4571 1 43.6859 18.1712 1.16568 3 1.69e-18 -4.12244
4572 1 11.5397 16.1522 46.6273 3 1.0169e-16 -4.12244
4573 1 14.0124 16.1522 46.6273 3 1.0169e-16 -4.12244
4574 1 13.1882 16.1522 44.2959 3 0 -4.12244
4575 1 15.661 16.1522 44.2959 3 4e-16 -4.12244
4576 1 14.8367 16.1522 41.9645 3 9.99999e-17 -4.12244
4577 1 17.3095 16.1522 41.9645 3 1e-16 -4.12244
4578 1 16.4852 16.1522 39.6332 3 4e-16 -4.12244
4579 1 18.958 16.1522 39.6332 3 2.01948e-28 -4.12244
4580 1 18.1337 16.1522 37.3018 3 1e-16 -4.12244
4581 1 20.6065 16.1522 37.3018 3 1e-16 -4.12244
4582 1 19.7823 16.1522 34.9704 3 1e-16 -4.12244
4583 1 22.2551 16.1522 34.9704 3 4e-16 -4.12244
4584 1 21.4308 16.1522 32.6391 3 4e-16 -4.12244
4585 1 23.9036 16.1522 32.6391 3 1e-16 -4.12244
4586 1 23.0793 16.1522 30.3077 3 1e-16 -4.12244
4587 1 25.5521 16.1522 30.3077 3 1.51461e-28 -4.12244
4588 1 24.7278 16.1522 27.9764 3 1.51461e-28 -4.12244
4589 1 27.2006 16.1522 27.9764 3 1e-16 -4.12244
4590 1 26.3764 16.1522 25.645 3 1e-16 -4.12244
4591 1 28.8491 16.1522 25.645 3 4e-16 -4.12244
4592 1 28.0249 16.1522 23.3136 3 3.99999e-16 -4.12244
4593 1 30.4977 16.1522 23.3136 3 9.99999e-17 -4.12244
4594 1 29.6734 16.1522 20.9823 3 1e-16 -4.12244
4595 1 32.1462 16.1522 20.9823 3 9.99999e-17 -4.12244
4596 1 31.3219 16.1522 18.6509 3 0 -4.12244
4597 1 33.7947 16.1522 18.6509 3 4.00001e-16 -4.12244
4598 1 32.9705 16.1522 16.3195 3 9.99999e-17 -4.12244
4599 1 35.4432 16.1522 16.3195 3 1e-16 -4.12244
4600 1 34.619 16.1522 13.9882 3 4e-16 -4.12244
4601 1 37.0918 16.1522 13.9882 3 2.52435e-29 -4.12244
4602 1 36.2675 16.1522 11.6568 3 1e-16 -4.12244
4603 1 38.7403 16.1522 11.6568 3 1e-16 -4.12244
4604 1 37.916 16.1522 9.32545 3 8.07794e-28 -4.12244
4605 1 40.3888 16.1522 9.32545 3 3.99999e-16 -4.12244
4606 1 39.5645 16.1522 6.99409 3 1e-16 -4.12244
4607 1 42.0373 16.1522 6.99409 3 1e-16 -4.12244
4608 1 41.2131 16.1522 4.66273 3 4.00001e-16 -4.12244
4609 1 43.6859 16.1522 4.66273 3 2.01948e-28 -4.12244
4610 1 42.8616 16.1522 2.33136 3 9.99999e-17 -4.12244
4611 1 45.3344 16.1522 2.33136 3 9.99999e-17 -4.12244
4612 1 44.5101 16.1522 0 3 5.07001e-18 -4.12244
4613 1 46.9829 16.1522 0 3 4.0507e-16 -4.12244
4614 1 13.1882 14.1331 47.7929 3 5.06996e-18 -4.12244
4615 1 15.661 14.1331 47.7929 3 4.0507e-16 -4.12244
4616 1 14.8367 14.1331 45.4616 3 9.99999e-17 -4.12244
4617 1 17.3095 14.1331 45.4616 3 1e-16 -4.12244
4618 1 16.4852 14.1331 43.1302 3 4e-16 -4.12244
4619 1 18.958 14.1331 43.1302 3 8.07794e-28 -4.12244
4620 1 18.1337 14.1331 40.7989 3 1e-16 -4.12244
4621 1 20.6065 14.1331 40.7989 3 1e-16 -4.12244
4622 1 19.7823 14.1331 38.4675 3 1e-16 -4.12244
4623 1 22.2551 14.1331 38.4675 3 4e-16 -4.12244
4624 1 21.4308 14.1331 36.1361 3 4e-16 -4.12244
4625 1 23.9036 14.1331 36.1361 3 1e-16 -4.12244
4626 1 23.0793 14.1331 33.8048 3 1e-16 -4.12244
4627 1 25.5521 14.1331 33.8048 3 1.51461e-28 -4.12244
4628 1 24.7278 14.1331 31.4734 3 5.04871e-29 -4.12244
4629 1 27.2006 14.1331 31.4734 3 1e-16 -4.12244
4630 1 26.3764 14.1331 29.142 3 1e-16 -4.12244
4631 1 28.8491 14.1331 29.142 3 4e-16 -4.12244
4632 1 28.0249 14.1331 26.8107 3 3.99999e-16 -4.12244
4633 1 30.4977 14.1331 26.8107 3 9.99999e-17 -4.12244
4634 1 29.6734 14.1331 24.4793 3 1e-16 -4.12244
4635 1 32.1462 14.1331 24.4793 3 9.99999e-17 -4.12244
4636 1 31.3219 14.1331 22.1479 3 0 -4.12244
4637 1 33.7947 14.1331 22.1479 3 4.00001e-16 -4.12244
4638 1 32.9705 14.1331 19.8166 3 9.99999e-17 -4.12244
4639 1 35.4432 14.1331 19.8166 3 1e-16 -4.12244
4640 1 34.619 14.1331 17.4852 3 4e-16 -4.12244
4641 1 37.0918 14.1331 17.4852 3 1.00974e-28 -4.12244
4642 1 36.2675 14.1331 15.1539 3 1e-16 -4.12244
4643 1 38.7403 14.1331 15.1539 3 1e-16 -4.12244
4644 1 37.916 14.1331 12.8225 3 8.45659e-28 -4.12244
4645 1 40.3888 14.1331 12.8225 3 3.99999e-16 -4.12244
4646 1 39.5645 14.1331 10.4911 3 1e-16 -4.12244
4647 1 42.0373 14.1331 10.4911 3 1e-16 -4.12244
4648 1 41.2131 14.1331 8.15977 3 4.00001e-16 -4.12244
4649 1 43.6859 14.1331 8.15977 3 2.1457e-28 -4.12244
4650 1 42.8616 14.1331 5.82841 3 9.99999e-17 -4.12244
4651 1 45.3344 14.1331 5.82841 3 9.99999e-17 -4.12244
4652 1 44.5101 14.1331 3.49704 3 2.02737e-28 -4.12244
4653 1 46.9829 14.1331 3.49704 3 3.99999e-16 -4.12244
4654 1 46.1586 14.1331 1.16568 3 1.0169e-16 -4.12244
4655 1 48.6314 14.1331 1.16568 3 1.0169e-16 -4.12244
4656 1 16.4852 12.1141 46.6273 3 4.0169e-16 -4.12244
4657 1 18.958 12.1141 46.6273 3 1.69002e-18 -4.12244
4658 1 18.1337 12.1141 44.2959 3 1e-16 -4.12244
4659 1 20.6065 12.1141 44.2959 3 1e-16 -4.12244
4660 1 19.7823 12.1141 41.9645 3 1e-16 -4.12244
4661 1 22.2551 12.1141 41.9645 3 4e-16 -4.12244
4662 1 21.4308 12.1141 39.6332 3 4e-16 -4.12244
4663 1 23.9036 12.1141 39.6332 3 1e-16 -4.12244
4664 1 23.0793 12.1141 37.3018 3 1e-16 -4.12244
4665 1 25.5521 12.1141 37.3018 3 1.51461e-28 -4.12244
4666 1 24.7278 12.1141 34.9704 3 2.01948e-28 -4.12244
4667 1 27.2006 12.1141 34.9704 3 1e-16 -4.12244
4668 1 26.3764 12.1141 32.6391 3 1e-16 -4.12244
4669 1 28.8491 12.1141 32.6391 3 4e-16 -4.12244
4670 1 28.0249 12.1141 30.3077 3 3.99999e-16 -4.12244
4671 1 30.4977 12.1141 30.3077 3 9.99999e-17 -4.12244
4672 1 29.6734 12.1141 27.9764 3 1e-16 -4.12244
4673 1 32.1462 12.1141 27.9764 3 9.99999e-17 -4.12244
4674 1 31.3219 12.1141 25.645 3 1.51461e-28 -4.12244
4675 1 33.7947 12.1141 25.645 3 4.00001e-16 -4.12244
4676 1 32.9705 12.1141 23.3136 3 9.99999e-17 -4.12244
4677 1 35.4432 12.1141 23.3136 3 1e-16 -4.12244
4678 1 34.619 12.1141 20.9823 3 4e-16 -4.12244
4679 1 37.0918 12.1141 20.9823 3 0 -4.12244
4680 1 36.2675 12.1141 18.6509 3 1e-16 -4.12244
4681 1 38.7403 12.1141 18.6509 3 1e-16 -4.12244
4682 1 37.916 12.1141 16.3195 3 9.08768e-28 -4.12244
4683 1 40.3888 12.1141 16.3195 3 3.99999e-16 -4.12244
4684 1 39.5645 12.1141 13.9882 3 1e-16 -4.12244
4685 1 42.0373 12.1141 13.9882 3 1e-16 -4.12244
4686 1 41.2131 12.1141 11.6568 3 4.00001e-16 -4.12244
4687 1 43.6859 12.1141 11.6568 3 2.01948e-28 -4.12244
4688 1 42.8616 12.1141 9.32545 3 9.99999e-17 -4.12244
4689 1 45.3344 12.1141 9.32545 3 9.99999e-17 -4.12244
4690 1 44.5101 12.1141 6.99409 3 2.01948e-28 -4.12244
4691 1 46.9829 12.1141 6.99409 3 3.99999e-16 -4.12244
4692 1 46.1586 12.1141 4.66273 3 9.99999e-17 -4.12244
4693 1 48.6314 12.1141 4.66273 3 9.99999e-17 -4.12244
4694 1 47.8072 12.1141 2.33136 3 3.99999e-16 -4.12244
4695 1 50.2799 12.1141 2.33136 3 2.01948e-28 -4.12244
4696 1 49.4557 12.1141 0 3 1.0507e-16 -4.12244
4697 1 51.9285 12.1141 0 3 1.0507e-16 -4.12244
4698 1 18.1337 10.0951 47.7929 3 1.0507e-16 -4.12244
4699 1 20.6065 10.0951 47.7929 3 1.0507e-16 -4.12244
4700 1 19.7823 10.0951 45.4616 3 1e-16 -4.12244
4701 1 22.2551 10.0951 45.4616 3 4e-16 -4.12244
4702 1 21.4308 10.0951 43.1302 3 4e-16 -4.12244
4703 1 23.9036 10.0951 43.1302 3 1e-16 -4.12244
4704 1 23.0793 10.0951 40.7989 3 1e-16 -4.12244
4705 1 25.5521 10.0951 40.7989 3 7.57306e-28 -4.12244
4706 1 24.7278 10.0951 38.4675 3 0 -4.12244
4707 1 27.2006 10.0951 38.4675 3 1e-16 -4.12244
4708 1 26.3764 10.0951 36.1361 3 1e-16 -4.12244
4709 1 28.8491 10.0951 36.1361 3 4e-16 -4.12244
4710 1 28.0249 10.0951 33.8048 3 3.99999e-16 -4.12244
4711 1 30.4977 10.0951 33.8048 3 9.99999e-17 -4.12244
4712 1 29.6734 10.0951 31.4734 3 1e-16 -4.12244
4713 1 32.1462 10.0951 31.4734 3 9.99999e-17 -4.12244
4714 1 31.3219 10.0951 29.142 3 1.51461e-28 -4.12244
4715 1 33.7947 10.0951 29.142 3 4.00001e-16 -4.12244
4716 1 32.9705 10.0951 26.8107 3 9.99999e-17 -4.12244
4717 1 35.4432 10.0951 26.8107 3 1e-16 -4.12244
4718 1 34.619 10.0951 24.4793 3 4e-16 -4.12244
4719 1 37.0918 10.0951 24.4793 3 1.00974e-28 -4.12244
4720 1 36.2675 10.0951 22.1479 3 1e-16 -4.12244
4721 1 38.7403 10.0951 22.1479 3 1e-16 -4.12244
4722 1 37.916 10.0951 19.8166 3 8.07794e-28 -4.12244
4723 1 40.3888 10.0951 19.8166 3 3.99999e-16 -4.12244
4724 1 39.5645 10.0951 17.4852 3 1e-16 -4.12244
4725 1 42.0373 10.0951 17.4852 3 1e-16 -4.12244
4726 1 41.2131 10.0951 15.1539 3 4.00001e-16 -4.12244
4727 1 43.6859 10.0951 15.1539 3 2.01948e-28 -4.12244
4728 1 42.8616 10.0951 12.8225 3 9.99999e-17 -4.12244
4729 1 45.3344 10.0951 12.8225 3 9.99999e-17 -4.12244
4730 1 44.5101 10.0951 10.4911 3 2.01948e-28 -4.12244
4731 1 46.9829 10.0951 10.4911 3 3.99999e-16 -4.12244
4732 1 46.1586 10.0951 8.15977 3 9.99999e-17 -4.12244
4733 1 48.6314 10.0951 8.15977 3 9.99999e-17 -4.12244
4734 1 47.8072 10.0951 5.82841 3 3.99999e-16 -4.12244
4735 1 50.2799 10.0951 5.82841 3 2.05104e-28 -4.12244
4736 1 49.4557 10.0951 3.49704 3 9.99999e-17 -4.12244
4737 1 51.9285 10.0951 3.49704 3 1e-16 -4.12244
4738 1 51.1042 10.0951 1.16568 3 1.0169e-16 -4.12244
4739 1 53.577 10.0951 1.16568 3 4.01689e-16 -4.12244
4740 1 21.4308 8.07608 46.6273 3 4.01691e-16 -4.12244
4741 1 23.9036 8.07608 46.6273 3 1.0169e-16 -4.12244
4742 1 23.0793 8.07608 44.2959 3 1e-16 -4.12244
4743 1 25.5521 8.07608 44.2959 3 1.51461e-28 -4.12244
4744 1 24.7278 8.07608 41.9645 3 0 -4.12244
4745 1 27.2006 8.07608 41.9645 3 1e-16 -4.12244
4746 1 26.3764 8.07608 39.6332 3 1e-16 -4.12244
4747 1 28.8491 8.07608 39.6332 3 4e-16 -4.12244
4748 1 28.0249 8.07608 37.3018 3 3.99999e-16 -4.12244
4749 1 30.4977 8.07608 37.3018 3 9.99999e-17 -4.12244
4750 1 29.6734 8.07608 34.9704 3 1e-16 -4.12244
4751 1 32.1462 8.07608 34.9704 3 9.99999e-17 -4.12244
4752 1 31.3219 8.07608 32.6391 3 2.01948e-28 -4.12244
4753 1 33.7947 8.07608 32.6391 3 4.00001e-16 -4.12244
4754 1 32.9705 8.07608 30.3077 3 9.99999e-17 -4.12244
4755 1 35.4432 8.07608 30.3077 3 1e-16 -4.12244
4756 1 34.619 8.07608 27.9764 3 4e-16 -4.12244
4757 1 37.0918 8.07608 27.9764 3 1.51461e-28 -4.12244
4758 1 36.2675 8.07608 25.645 3 1e-16 -4.12244
4759 1 38.7403 8.07608 25.645 3 1e-16 -4.12244
4760 1 37.916 8.07608 23.3136 3 8.07794e-28 -4.12244
4761 1 40.3888 8.07608 23.3136 3 3.99999e-16 -4.12244
4762 1 39.5645 8.07608 20.9823 3 1e-16 -4.12244
4763 1 42.0373 8.07608 20.9823 3 1e-16 -4.12244
4764 1 41.2131 8.07608 18.6509 3 4.00001e-16 -4.12244
4765 1 43.6859 8.07608 18.6509 3 2.01948e-28 -4.12244
4766 1 42.8616 8.07608 16.3195 3 9.99999e-17 -4.12244
4767 1 45.3344 8.07608 16.3195 3 9.99999e-17 -4.12244
4768 1 44.5101 8.07608 13.9882 3 2.27192e-28 -4.12244
4769 1 46.9829 8.07608 13.9882 3 3.99999e-16 -4.12244
4770 1 46.1586 8.07608 11.6568 3 9.99999e-17 -4.12244
4771 1 48.6314 8.07608 11.6568 3 9.99999e-17 -4.12244
4772 1 47.8072 8.07608 9.32545 3 3.99999e-16 -4.12244
4773 1 50.2799 8.07608 9.32545 3 2.01948e-28 -4.12244
4774 1 49.4557 8.07608 6.99409 3 9.99999e-17 -4.12244
4775 1 51.9285 8.07608 6.99409 3 1e-16 -4.12244
4776 1 51.1042 8.07608 4.66273 3 9.99999e-17 -4.12244
4777 1 53.577 8.07608 4.66273 3 3.99999e-16 -4.12244
4778 1 52.7527 8.07608 2.33136 3 4.00001e-16 -4.12244
4779 1 55.2255 8.07608 2.33136 3 1e-16 -4.12244
4780 1 54.4012 8.07608 0 3 1.0507e-16 -4.12244
4781 1 56.874 8.07608 0 3 5.07001e-18 -4.12244
4782 1 23.0793 6.05706 47.7929 3 1.0507e-16 -4.12244
4783 1 25.5521 6.05706 47.7929 3 5.06996e-18 -4.12244
4784 1 24.7278 6.05706 45.4616 3 0 -4.12244
4785 1 27.2006 6.05706 45.4616 3 1e-16 -4.12244
4786 1 26.3764 6.05706 43.1302 3 1e-16 -4.12244
4787 1 28.8491 6.05706 43.1302 3 4e-16 -4.12244
4788 1 28.0249 6.05706 40.7989 3 3.99999e-16 -4.12244
4789 1 30.4977 6.05706 40.7989 3 9.99999e-17 -4.12244
4790 1 29.6734 6.05706 38.4675 3 1e-16 -4.12244
4791 1 32.1462 6.05706 38.4675 3 9.99999e-17 -4.12244
4792 1 31.3219 6.05706 36.1361 3 6.05845e-28 -4.12244
4793 1 33.7947 6.05706 36.1361 3 4.00001e-16 -4.12244
4794 1 32.9705 6.05706 33.8048 3 9.99999e-17 -4.12244
4795 1 35.4432 6.05706 33.8048 3 1e-16 -4.12244
4796 1 34.619 6.05706 31.4734 3 4e-16 -4.12244
4797 1 37.0918 6.05706 31.4734 3 5.04871e-29 -4.12244
4798 1 36.2675 6.05706 29.142 3 1e-16 -4.12244
4799 1 38.7403 6.05706 29.142 3 1e-16 -4.12244
4800 1 37.916 6.05706 26.8107 3 8.07794e-28 -4.12244
4801 1 40.3888 6.05706 26.8107 3 3.99999e-16 -4.12244
4802 1 39.5645 6.05706 24.4793 3 1e-16 -4.12244
4803 1 42.0373 6.05706 24.4793 3 1e-16 -4.12244
4804 1 41.2131 6.05706 22.1479 3 4.00001e-16 -4.12244
4805 1 43.6859 6.05706 22.1479 3 2.01948e-28 -4.12244
4806 1 42.8616 6.05706 19.8166 3 9.99999e-17 -4.12244
4807 1 45.3344 6.05706 19.8166 3 9.99999e-17 -4.12244
4808 1 44.5101 6.05706 17.4852 3 3.02923e-28 -4.12244
4809 1 46.9829 6.05706 17.4852 3 3.99999e-16 -4.12244
4810 1 46.1586 6.05706 15.1539 3 9.99999e-17 -4.12244
4811 1 48.6314 6.05706 15.1539 3 9.99999e-17 -4.12244
4812 1 47.8072 6.05706 12.8225 3 3.99999e-16 -4.12244
4813 1 50.2799 6.05706 12.8225 3 2.39814e-28 -4.12244
4814 1 49.4557 6.05706 10.4911 3 9.99999e-17 -4.12244
4815 1 51.9285 6.05706 10.4911 3 1e-16 -4.12244
4816 1 51.1042 6.05706 8.15977 3 9.99999e-17 -4.12244
4817 1 53.577 6.05706 8.15977 3 3.99999e-16 -4.12244
4818 1 52.7527 6.05706 5.82841 3 4.00001e-16 -4.12244
4819 1 55.2255 6.05706 5.82841 3 1e-16 -4.12244
4820 1 54.4012 6.05706 3.49704 3 1e-16 -4.12244
4821 1 56.874 6.05706 3.49704 3 7.88861e-31 -4.12244
4822 1 56.0498 6.05706 1.16568 3 1.69e-18 -4.12244
4823 1 58.5226 6.05706 1.16568 3 1.0169e-16 -4.12244
4824 1 26.3764 4.03804 46.6273 3 1.0169e-16 -4.12244
4825 1 28.8491 4.03804 46.6273 3 4.0169e-16 -4.12244
4826 1 28.0249 4.03804 44.2959 3 3.99999e-16 -4.12244
4827 1 30.4977 4.03804 44.2959 3 9.99999e-17 -4.12244
4828 1 29.6734 4.03804 41.9645 3 1e-16 -4.12244
4829 1 32.1462 4.03804 41.9645 3 9.99999e-17 -4.12244
4830 1 31.3219 4.03804 39.6332 3 0 -4.12244
4831 1 33.7947 4.03804 39.6332 3 4.00001e-16 -4.12244
4832 1 32.9705 4.03804 37.3018 3 9.99999e-17 -4.12244
4833 1 35.4432 4.03804 37.3018 3 1e-16 -4.12244
4834 1 34.619 4.03804 34.9704 3 4e-16 -4.12244
4835 1 37.0918 4.03804 34.9704 3 2.01948e-28 -4.12244
4836 1 36.2675 4.03804 32.6391 3 1e-16 -4.12244
4837 1 38.7403 4.03804 32.6391 3 1e-16 -4.12244
4838 1 37.916 4.03804 30.3077 3 8.07794e-28 -4.12244
4839 1 40.3888 4.03804 30.3077 3 3.99999e-16 -4.12244
4840 1 39.5645 4.03804 27.9764 3 1e-16 -4.12244
4841 1 42.0373 4.03804 27.9764 3 1e-16 -4.12244
4842 1 41.2131 4.03804 25.645 3 4.00001e-16 -4.12244
4843 1 43.6859 4.03804 25.645 3 3.5341e-28 -4.12244
4844 1 42.8616 4.03804 23.3136 3 9.99999e-17 -4.12244
4845 1 45.3344 4.03804 23.3136 3 9.99999e-17 -4.12244
4846 1 44.5101 4.03804 20.9823 3 2.01948e-28 -4.12244
4847 1 46.9829 4.03804 20.9823 3 3.99999e-16 -4.12244
4848 1 46.1586 4.03804 18.6509 3 9.99999e-17 -4.12244
4849 1 48.6314 4.03804 18.6509 3 9.99999e-17 -4.12244
4850 1 47.8072 4.03804 16.3195 3 3.99999e-16 -4.12244
4851 1 50.2799 4.03804 16.3195 3 3.02923e-28 -4.12244
4852 1 49.4557 4.03804 13.9882 3 9.99999e-17 -4.12244
4853 1 51.9285 4.03804 13.9882 3 1e-16 -4.12244
4854 1 51.1042 4.03804 11.6568 3 9.99999e-17 -4.12244
4855 1 53.577 4.03804 11.6568 3 3.99999e-16 -4.12244
4856 1 52.7527 4.03804 9.32545 3 4.00001e-16 -4.12244
4857 1 55.2255 4.03804 9.32545 3 1e-16 -4.12244
4858 1 54.4012 4.03804 6.99409 3 1e-16 -4.12244
4859 1 56.874 4.03804 6.99409 3 0 -4.12244
4860 1 56.0498 4.03804 4.66273 3 0 -4.12244
4861 1 58.5226 4.03804 4.66273 3 9.99999e-17 -4.12244
4862 1 57.6983 4.03804 2.33136 3 1e-16 -4.12244
4863 1 60.1711 4.03804 2.33136 3 3.99999e-16 -4.12244
4864 1 59.3468 4.03804 0 3 4.0507e-16 -4.12244
4865 1 61.8196 4.03804 0 3 6.28299e-17 -4.12244
4866 1 28.0249 2.01902 47.7929 3 4.05069e-16 -4.10627
4867 1 30.4977 2.01902 47.7929 3 1.0507e-16 -4.10627
4868 1 29.6734 2.01902 45.4616 3 1e-16 -4.10627
4869 1 32.1462 2.01902 45.4616 3 9.99999e-17 -4.10627
4870 1 31.3219 2.01902 43.1302 3 6.05845e-28 -4.10627
4871 1 33.7947 2.01902 43.1302 3 4.00001e-16 -4.10627
4872 1 32.9705 2.01902 40.7989 3 9.99999e-17 -4.10627
4873 1 35.4432 2.01902 40.7989 3 1e-16 -4.10627
4874 1 34.619 2.01902 38.4675 3 4e-16 -4.10627
4875 1 37.0918 2.01902 38.4675 3 0 -4.10627
4876 1 36.2675 2.01902 36.1361 3 1e-16 -4.10627
4877 1 38.7403 2.01902 36.1361 3 1e-16 -4.10627
4878 1 37.916 2.01902 33.8048 3 8.07794e-28 -4.10627
4879 1 40.3888 2.01902 33.8048 3 3.99999e-16 -4.10627
4880 1 39.5645 2.01902 31.4734 3 1e-16 -4.10627
4881 1 42.0373 2.01902 31.4734 3 1e-16 -4.10627
4882 1 41.2131 2.01902 29.142 3 4.00001e-16 -4.10627
4883 1 43.6859 2.01902 29.142 3 3.5341e-28 -4.10627
4884 1 42.8616 2.01902 26.8107 3 9.99999e-17 -4.10627
4885 1 45.3344 2.01902 26.8107 3 9.99999e-17 -4.10627
4886 1 44.5101 2.01902 24.4793 3 3.02923e-28 -4.10627
4887 1 46.9829 2.01902 24.4793 3 3.99999e-16 -4.10627
4888 1 46.1586 2.01902 22.1479 3 9.99999e-17 -4.10627
4889 1 48.6314 2.01902 22.1479 3 9.99999e-17 -4.10627
4890 1 47.8072 2.01902 19.8166 3 3.99999e-16 -4.10627
4891 1 50.2799 2.01902 19.8166 3 2.01948e-28 -4.10627
4892 1 49.4557 2.01902 17.4852 3 9.99999e-17 -4.10627
4893 1 51.9285 2.01902 17.4852 3 1e-16 -4.10627
4894 1 51.1042 2.01902 15.1539 3 9.99999e-17 -4.10627
4895 1 53.577 2.01902 15.1539 3 3.99999e-16 -4.10627
4896 1 52.7527 2.01902 12.8225 3 4.00001e-16 -4.10627
4897 1 55.2255 2.01902 12.8225 3 1e-16 -4.10627
4898 1 54.4012 2.01902 10.4911 3 1e-16 -4.10627
4899 1 56.874 2.01902 10.4911 3 0 -4.10627
4900 1 56.0498 2.01902 8.15977 3 1.26218e-29 -4.10627
4901 1 58.5226 2.01902 8.15977 3 9.99999e-17 -4.10627
4902 1 57.6983 2.01902 5.82841 3 1e-16 -4.10627
4903 1 60.1711 2.01902 5.82841 3 3.99999e-16 -4.10627
4904 1 59.3468 2.01902 3.49704 3 3.99999e-16 -4.10627
4905 1 61.8196 2.01902 3.49704 3 5.77599e-17 -4.10627
4906 1 60.9953 2.01902 1.16568 3 1.0169e-16 -4.10627
4907 1 63.4681 2.01902 1.16568 3 2.473e-17 -4.10627
4908 1 31.3219 0 46.6273 5 12.2293 -3.54465
4909 1 33.7947 0 46.6273 5 12.2293 -3.54465
4910 1 32.9705 0 44.2959 5 12.2293 -3.54465
4911 1 35.4432 0 44.2959 5 12.2293 -3.54465
4912 1 34.619 0 41.9645 5 12.2293 -3.54465
4913 1 37.0918 0 41.9645 5 12.2293 -3.54465
4914 1 36.2675 0 39.6332 5 12.2293 -3.54465
4915 1 38.7403 0 39.6332 5 12.2293 -3.54465
4916 1 37.916 0 37.3018 5 12.2293 -3.54465
4917 1 40.3888 0 37.3018 5 12.2293 -3.54465
4918 1 39.5645 0 34.9704 5 12.2293 -3.54465
4919 1 42.0373 0 34.9704 5 12.2293 -3.54465
4920 1 41.2131 0 32.6391 5 12.2293 -3.54465
4921 1 43.6859 0 32.6391 5 12.2293 -3.54465
4922 1 42.8616 0 30.3077 5 12.2293 -3.54465
4923 1 45.3344 0 30.3077 5 12.2293 -3.54465
4924 1 44.5101 0 27.9764 5 12.2293 -3.54465
4925 1 46.9829 0 27.9764 5 12.2293 -3.54465
4926 1 46.1586 0 25.645 5 12.2293 -3.54465
4927 1 48.6314 0 25.645 5 12.2293 -3.54465
4928 1 47.8072 0 23.3136 5 12.2293 -3.54465
4929 1 50.2799 0 23.3136 5 12.2293 -3.54465
4930 1 49.4557 0 20.9823 5 12.2293 -3.54465
4931 1 51.9285 0 20.9823 5 12.2293 -3.54465
4932 1 51.1042 0 18.6509 5 12.2293 -3.54465
4933 1 53.577 0 18.6509 5 12.2293 -3.54465
4934 1 52.7527 0 16.3195 5 12.2293 -3.54465
4935 1 55.2255 0 16.3195 5 12.2293 -3.54465
4936 1 54.4012 0 13.9882 5 12.2293 -3.54465
4937 1 56.874 0 13.9882 5 12.2293 -3.54465
4938 1 56.0498 0 11.6568 5 12.2293 -3.54465
4939 1 58.5226 0 11.6568 5 12.2293 -3.54465
4940 1 57.6983 0 9.32545 5 12.2293 -3.54465
4941 1 60.1711 0 9.32545 5 12.2293 -3.54465
4942 1 59.3468 0 6.99409 5 12.2293 -3.54465
4943 1 61.8196 0 6.99409 5 12.2293 -3.54465
4944 1 60.9953 0 4.66273 5 12.2293 -3.54465
4945 1 63.4681 0 4.66273 5 12.2293 -3.54465
4946 1 62.6439 0 2.33136 5 12.2293 -3.54465
4947 1 0.824261 56.5326 2.33136 3 5.776e-17 -4.12244
4948 1 0 56.5326 0 3 2.811e-17 -4.12244
4949 1 2.47278 56.5326 0 3 4.0507e-16 -4.12244
4950 1 0.824261 54.5135 5.82841 3 5.776e-17 -4.12244
4951 1 0 54.5135 3.49704 3 2.304e-17 -4.12244
4952 1 2.47278 54.5135 3.49704 3 4e-16 -4.12244
4953 1 1.64852 54.5135 1.16568 3 5.945e-17 -4.12244
4954 1 4.12131 54.5135 1.16568 3 1.0169e-16 -4.12244
4955 1 0.824261 52.4945 9.32545 3 5.776e-17 -4.12244
4956 1 0 52.4945 6.99409 3 2.304e-17 -4.12244
4957 1 2.47278 52.4945 6.99409 3 4e-16 -4.12244
4958 1 1.64852 52.4945 4.66273 3 5.776e-17 -4.12244
4959 1 4.12131 52.4945 4.66273 3 1e-16 -4.12244
4960 1 3.29705 52.4945 2.33136 3 4e-16 -4.12244
4961 1 5.76983 52.4945 2.33136 3 0 -4.12244
4962 1 4.94557 52.4945 0 3 1.0507e-16 -4.12244
4963 1 7.41835 52.4945 0 3 1.0507e-16 -4.12244
4964 1 0.824261 50.4755 12.8225 3 5.776e-17 -4.12244
4965 1 0 50.4755 10.4911 3 2.304e-17 -4.12244
4966 1 2.47278 50.4755 10.4911 3 4e-16 -4.12244
4967 1 1.64852 50.4755 8.15977 3 5.776e-17 -4.12244
4968 1 4.12131 50.4755 8.15977 3 1e-16 -4.12244
4969 1 3.29705 50.4755 5.82841 3 4e-16 -4.12244
4970 1 5.76983 50.4755 5.82841 3 3.15544e-30 -4.12244
4971 1 4.94557 50.4755 3.49704 3 1e-16 -4.12244
4972 1 7.41835 50.4755 3.49704 3 1e-16 -4.12244
4973 1 6.59409 50.4755 1.16568 3 1.69e-18 -4.12244
4974 1 9.06687 50.4755 1.16568 3 4.0169e-16 -4.12244
4975 1 0.824261 48.4565 16.3195 3 5.776e-17 -4.12244
4976 1 0 48.4565 13.9882 3 2.304e-17 -4.12244
4977 1 2.47278 48.4565 13.9882 3 4e-16 -4.12244
4978 1 1.64852 48.4565 11.6568 3 5.776e-17 -4.12244
4979 1 4.12131 48.4565 11.6568 3 1e-16 -4.12244
4980 1 3.29705 48.4565 9.32545 3 4e-16 -4.12244
4981 1 5.76983 48.4565 9.32545 3 0 -4.12244
4982 1 4.94557 48.4565 6.99409 3 1e-16 -4.12244
4983 1 7.41835 48.4565 6.99409 3 1e-16 -4.12244
4984 1 6.59409 48.4565 4.66273 3 0 -4.12244
4985 1 9.06687 48.4565 4.66273 3 4e-16 -4.12244
4986 1 8.24261 48.4565 2.33136 3 9.99999e-17 -4.12244
4987 1 10.7154 48.4565 2.33136 3 1e-16 -4.12244
4988 1 9.89114 48.4565 0 3 4.0507e-16 -4.12244
4989 1 12.3639 48.4565 0 3 5.07001e-18 -4.12244
4990 1 0.824261 46.4375 19.8166 3 5.776e-17 -4.12244
4991 1 0 46.4375 17.4852 3 2.304e-17 -4.12244
4992 1 2.47278 46.4375 17.4852 3 4e-16 -4.12244
4993 1 1.64852 46.4375 15.1539 3 5.776e-17 -4.12244
4994 1 4.12131 46.4375 15.1539 3 1e-16 -4.12244
4995 1 3.29705 46.4375 12.8225 3 4e-16 -4.12244
4996 1 5.76983 46.4375 12.8225 3 3.78653e-29 -4.12244
4997 1 4.94557 46.4375 10.4911 3 1e-16 -4.12244
4998 1 7.41835 46.4375 10.4911 3 1e-16 -4.12244
4999 1 6.59409 46.4375 8.15977 3 1.26218e-29 -4.12244
5000 1 9.06687 46.4375 8.15977 3 4e-16 -4.12244
5001 1 8.24261 46.4375 5.82841 3 9.99999e-17 -4.12244
5002 1 10.7154 46.4375 5.82841 3 1e-16 -4.12244
5003 1 9.89114 46.4375 3.49704 3 4e-16 -4.12244
5004 1 12.3639 46.4375 3.49704 3 7.88861e-31 -4.12244
5005 1 11.5397 46.4375 1.16568 3 1.0169e-16 -4.12244
5006 1 14.0124 46.4375 1.16568 3 1.0169e-16 -4.12244
5007 1 0.824261 44.4184 23.3136 3 5.776e-17 -4.12244
5008 1 0 44.4184 20.9823 3 2.304e-17 -4.12244
5009 1 2.47278 44.4184 20.9823 3 4e-16 -4.12244
5010 1 1.64852 44.4184 18.6509 3 5.776e-17 -4.12244
5011 1 4.12131 44.4184 18.6509 3 1e-16 -4.12244
5012 1 3.29705 44.4184 16.3195 3 4e-16 -4.12244
5013 1 5.76983 44.4184 16.3195 3 1.00974e-28 -4.12244
5014 1 4.94557 44.4184 13.9882 3 1e-16 -4.12244
5015 1 7.41835 44.4184 13.9882 3 1e-16 -4.12244
5016 1 6.59409 44.4184 11.6568 3 0 -4.12244
5017 1 9.06687 44.4184 11.6568 3 4e-16 -4.12244
5018 1 8.24261 44.4184 9.32545 3 9.99999e-17 -4.12244
5019 1 10.7154 44.4184 9.32545 3 1e-16 -4.12244
5020 1 9.89114 44.4184 6.99409 3 4e-16 -4.12244
5021 1 12.3639 44.4184 6.99409 3 0 -4.12244
5022 1 11.5397 44.4184 4.66273 3 1e-16 -4.12244
5023 1 14.0124 44.4184 4.66273 3 1e-16 -4.12244
5024 1 13.1882 44.4184 2.33136 3 0 -4.12244
5025 1 15.661 44.4184 2.33136 3 4e-16 -4.12244
5026 1 14.8367 44.4184 0 3 1.0507e-16 -4.12244
5027 1 17.3095 44.4184 0 3 1.0507e-16 -4.12244
5028 1 0.824261 42.3994 26.8107 3 5.776e-17 -4.12244
5029 1 0 42.3994 24.4793 3 2.304e-17 -4.12244
5030 1 2.47278 42.3994 24.4793 3 4e-16 -4.12244
5031 1 1.64852 42.3994 22.1479 3 5.776e-17 -4.12244
5032 1 4.12131 42.3994 22.1479 3 1e-16 -4.12244
5033 1 3.29705 42.3994 19.8166 3 4e-16 -4.12244
5034 1 5.76983 42.3994 19.8166 3 0 -4.12244
5035 1 4.94557 42.3994 17.4852 3 1e-16 -4.12244
5036 1 7.41835 42.3994 17.4852 3 1e-16 -4.12244
5037 1 6.59409 42.3994 15.1539 3 0 -4.12244
5038 1 9.06687 42.3994 15.1539 3 4e-16 -4.12244
5039 1 8.24261 42.3994 12.8225 3 9.99999e-17 -4.12244
5040 1 10.7154 42.3994 12.8225 3 1e-16 -4.12244
5041 1 9.89114 42.3994 10.4911 3 4e-16 -4.12244
5042 1 12.3639 42.3994 10.4911 3 0 -4.12244
5043 1 11.5397 42.3994 8.15977 3 1e-16 -4.12244
5044 1 14.0124 42.3994 8.15977 3 1e-16 -4.12244
5045 1 13.1882 42.3994 5.82841 3 3.15544e-30 -4.12244
5046 1 15.661 42.3994 5.82841 3 4e-16 -4.12244
5047 1 14.8367 42.3994 3.49704 3 9.99999e-17 -4.12244
5048 1 17.3095 42.3994 3.49704 3 1e-16 -4.12244
5049 1 16.4852 42.3994 1.16568 3 4.0169e-16 -4.12244
5050 1 18.958 42.3994 1.16568 3 1.69e-18 -4.12244
5051 1 0.824261 40.3804 30.3077 3 5.776e-17 -4.12244
5052 1 0 40.3804 27.9764 3 2.304e-17 -4.12244
5053 1 2.47278 40.3804 27.9764 3 4e-16 -4.12244
5054 1 1.64852 40.3804 25.645 3 5.776e-17 -4.12244
5055 1 4.12131 40.3804 25.645 3 1e-16 -4.12244
5056 1 3.29705 40.3804 23.3136 3 4e-16 -4.12244
5057 1 5.76983 40.3804 23.3136 3 0 -4.12244
5058 1 4.94557 40.3804 20.9823 3 1e-16 -4.12244
5059 1 7.41835 40.3804 20.9823 3 1e-16 -4.12244
5060 1 6.59409 40.3804 18.6509 3 0 -4.12244
5061 1 9.06687 40.3804 18.6509 3 4e-16 -4.12244
5062 1 8.24261 40.3804 16.3195 3 9.99999e-17 -4.12244
5063 1 10.7154 40.3804 16.3195 3 1e-16 -4.12244
5064 1 9.89114 40.3804 13.9882 3 4e-16 -4.12244
5065 1 12.3639 40.3804 13.9882 3 2.52435e-29 -4.12244
5066 1 11.5397 40.3804 11.6568 3 1e-16 -4.12244
5067 1 14.0124 40.3804 11.6568 3 1e-16 -4.12244
5068 1 13.1882 40.3804 9.32545 3 0 -4.12244
5069 1 15.661 40.3804 9.32545 3 4e-16 -4.12244
5070 1 14.8367 40.3804 6.99409 3 9.99999e-17 -4.12244
5071 1 17.3095 40.3804 6.99409 3 1e-16 -4.12244
5072 1 16.4852 40.3804 4.66273 3 4e-16 -4.12244
5073 1 18.958 40.3804 4.66273 3 2.01948e-28 -4.12244
5074 1 18.1337 40.3804 2.33136 3 1e-16 -4.12244
5075 1 20.6065 40.3804 2.33136 3 1e-16 -4.12244
5076 1 19.7823 40.3804 0 3 1.0507e-16 -4.12244
5077 1 22.2551 40.3804 0 3 4.0507e-16 -4.12244
5078 1 0.824261 38.3614 33.8048 3 5.776e-17 -4.12244
5079 1 0 38.3614 31.4734 3 2.304e-17 -4.12244
5080 1 2.47278 38.3614 31.4734 3 4e-16 -4.12244
5081 1 1.64852 38.3614 29.142 3 5.776e-17 -4.12244
5082 1 4.12131 38.3614 29.142 3 1e-16 -4.12244
5083 1 3.29705 38.3614 26.8107 3 4e-16 -4.12244
5084 1 5.76983 38.3614 26.8107 3 0 -4.12244
5085 1 4.94557 38.3614 24.4793 3 1e-16 -4.12244
5086 1 7.41835 38.3614 24.4793 3 1e-16 -4.12244
5087 1 6.59409 38.3614 22.1479 3 0 -4.12244
5088 1 9.06687 38.3614 22.1479 3 4e-16 -4.12244
5089 1 8.24261 38.3614 19.8166 3 9.99999e-17 -4.12244
5090 1 10.7154 38.3614 19.8166 3 1e-16 -4.12244
5091 1 9.89114 38.3614 17.4852 3 4e-16 -4.12244
5092 1 12.3639 38.3614 17.4852 3 1.00974e-28 -4.12244
5093 1 11.5397 38.3614 15.1539 3 1e-16 -4.12244
5094 1 14.0124 38.3614 15.1539 3 1e-16 -4.12244
5095 1 13.1882 38.3614 12.8225 3 3.78653e-29 -4.12244
5096 1 15.661 38.3614 12.8225 3 4e-16 -4.12244
5097 1 14.8367 38.3614 10.4911 3 9.99999e-17 -4.12244
5098 1 17.3095 38.3614 10.4911 3 1e-16 -4.12244
5099 1 16.4852 38.3614 8.15977 3 4e-16 -4.12244
5100 1 18.958 38.3614 8.15977 3 2.1457e-28 -4.12244
5101 1 18.1337 38.3614 5.82841 3 1e-16 -4.12244
5102 1 20.6065 38.3614 5.82841 3 1e-16 -4.12244
5103 1 19.7823 38.3614 3.49704 3 1e-16 -4.12244
5104 1 22.2551 38.3614 3.49704 3 4e-16 -4.12244
5105 1 21.4308 38.3614 1.16568 3 4.0169e-16 -4.12244
5106 1 23.9036 38.3614 1.16568 3 1.0169e-16 -4.12244
5107 1 0.824261 36.3424 37.3018 3 5.776e-17 -4.12244
5108 1 0 36.3424 34.9704 3 2.304e-17 -4.12244
5109 1 2.47278 36.3424 34.9704 3 4e-16 -4.12244
5110 1 1.64852 36.3424 32.6391 3 5.776e-17 -4.12244
5111 1 4.12131 36.3424 32.6391 3 1e-16 -4.12244
5112 1 3.29705 36.3424 30.3077 3 4e-16 -4.12244
5113 1 5.76983 36.3424 30.3077 3 0 -4.12244
5114 1 4.94557 36.3424 27.9764 3 1e-16 -4.12244
5115 1 7.41835 36.3424 27.9764 3 1e-16 -4.12244
5116 1 6.59409 36.3424 25.645 3 1.51461e-28 -4.12244
5117 1 9.06687 36.3424 25.645 3 4e-16 -4.12244
5118 1 8.24261 36.3424 23.3136 3 9.99999e-17 -4.12244
5119 1 10.7154 36.3424 23.3136 3 1e-16 -4.12244
5120 1 9.89114 36.3424 20.9823 3 4e-16 -4.12244
5121 1 12.3639 36.3424 20.9823 3 0 -4.12244
5122 1 11.5397 36.3424 18.6509 3 1e-16 -4.12244
5123 1 14.0124 36.3424 18.6509 3 1e-16 -4.12244
5124 1 13.1882 36.3424 16.3195 3 1.00974e-28 -4.12244
5125 1 15.661 36.3424 16.3195 3 4e-16 -4.12244
5126 1 14.8367 36.3424 13.9882 3 9.99999e-17 -4.12244
5127 1 17.3095 36.3424 13.9882 3 1e-16 -4.12244
5128 1 16.4852 36.3424 11.6568 3 4e-16 -4.12244
5129 1 18.958 36.3424 11.6568 3 2.01948e-28 -4.12244
5130 1 18.1337 36.3424 9.32545 3 1e-16 -4.12244
5131 1 20.6065 36.3424 9.32545 3 1e-16 -4.12244
5132 1 19.7823 36.3424 6.99409 3 1e-16 -4.12244
5133 1 22.2551 36.3424 6.99409 3 4e-16 -4.12244
5134 1 21.4308 36.3424 4.66273 3 4e-16 -4.12244
5135 1 23.9036 36.3424 4.66273 3 1e-16 -4.12244
5136 1 23.0793 36.3424 2.33136 3 1e-16 -4.12244
5137 1 25.5521 36.3424 2.33136 3 1.51461e-28 -4.12244
5138 1 24.7278 36.3424 0 3 5.07001e-18 -4.12244
5139 1 27.2006 36.3424 0 3 1.0507e-16 -4.12244
5140 1 0.824261 34.3233 40.7989 3 5.776e-17 -4.12244
5141 1 0 34.3233 38.4675 3 2.304e-17 -4.12244
5142 1 2.47278 34.3233 38.4675 3 4e-16 -4.12244
5143 1 1.64852 34.3233 36.1361 3 5.776e-17 -4.12244
5144 1 4.12131 34.3233 36.1361 3 1e-16 -4.12244
5145 1 3.29705 34.3233 33.8048 3 4e-16 -4.12244
5146 1 5.76983 34.3233 33.8048 3 0 -4.12244
5147 1 4.94557 34.3233 31.4734 3 1e-16 -4.12244
5148 1 7.41835 34.3233 31.4734 3 1e-16 -4.12244
5149 1 6.59409 34.3233 29.142 3 1.51461e-28 -4.12244
5150 1 9.06687 34.3233 29.142 3 4e-16 -4.12244
5151 1 8.24261 34.3233 26.8107 3 9.99999e-17 -4.12244
5152 1 10.7154 34.3233 26.8107 3 1e-16 -4.12244
5153 1 9.89114 34.3233 24.4793 3 4e-16 -4.12244
5154 1 12.3639 34.3233 24.4793 3 1.00974e-28 -4.12244
5155 1 11.5397 34.3233 22.1479 3 1e-16 -4.12244
5156 1 14.0124 34.3233 22.1479 3 1e-16 -4.12244
5157 1 13.1882 34.3233 19.8166 3 0 -4.12244
5158 1 15.661 34.3233 19.8166 3 4e-16 -4.12244
5159 1 14.8367 34.3233 17.4852 3 9.99999e-17 -4.12244
5160 1 17.3095 34.3233 17.4852 3 1e-16 -4.12244
5161 1 16.4852 34.3233 15.1539 3 4e-16 -4.12244
5162 1 18.958 34.3233 15.1539 3 2.01948e-28 -4.12244
5163 1 18.1337 34.3233 12.8225 3 1e-16 -4.12244
5164 1 20.6065 34.3233 12.8225 3 1e-16 -4.12244
5165 1 19.7823 34.3233 10.4911 3 1e-16 -4.12244
5166 1 22.2551 34.3233 10.4911 3 4e-16 -4.12244
5167 1 21.4308 34.3233 8.15977 3 4e-16 -4.12244
5168 1 23.9036 34.3233 8.15977 3 1e-16 -4.12244
5169 1 23.0793 34.3233 5.82841 3 1e-16 -4.12244
5170 1 25.5521 34.3233 5.82841 3 1.54617e-28 -4.12244
5171 1 24.7278 34.3233 3.49704 3 7.88861e-31 -4.12244
5172 1 27.2006 34.3233 3.49704 3 1e-16 -4.12244
5173 1 26.3764 34.3233 1.16568 3 1.0169e-16 -4.12244
5174 1 28.8491 34.3233 1.16568 3 4.0169e-16 -4.12244
5175 1 0.824261 32.3043 44.2959 3 5.776e-17 -4.12244
5176 1 0 32.3043 41.9645 3 2.304e-17 -4.12244
5177 1 2.47278 32.3043 41.9645 3 4e-16 -4.12244
5178 1 1.64852 32.3043 39.6332 3 5.776e-17 -4.12244
5179 1 4.12131 32.3043 39.6332 3 1e-16 -4.12244
5180 1 3.29705 32.3043 37.3018 3 4e-16 -4.12244
5181 1 5.76983 32.3043 37.3018 3 0 -4.12244
5182 1 4.94557 32.3043 34.9704 3 1e-16 -4.12244
5183 1 7.41835 32.3043 34.9704 3 1e-16 -4.12244
5184 1 6.59409 32.3043 32.6391 3 2.01948e-28 -4.12244
5185 1 9.06687 32.3043 32.6391 3 4e-16 -4.12244
5186 1 8.24261 32.3043 30.3077 3 9.99999e-17 -4.12244
5187 1 10.7154 32.3043 30.3077 3 1e-16 -4.12244
5188 1 9.89114 32.3043 27.9764 3 4e-16 -4.12244
5189 1 12.3639 32.3043 27.9764 3 1.51461e-28 -4.12244
5190 1 11.5397 32.3043 25.645 3 1e-16 -4.12244
5191 1 14.0124 32.3043 25.645 3 1e-16 -4.12244
5192 1 13.1882 32.3043 23.3136 3 0 -4.12244
5193 1 15.661 32.3043 23.3136 3 4e-16 -4.12244
5194 1 14.8367 32.3043 20.9823 3 9.99999e-17 -4.12244
5195 1 17.3095 32.3043 20.9823 3 1e-16 -4.12244
5196 1 16.4852 32.3043 18.6509 3 4e-16 -4.12244
5197 1 18.958 32.3043 18.6509 3 2.01948e-28 -4.12244
5198 1 18.1337 32.3043 16.3195 3 1e-16 -4.12244
5199 1 20.6065 32.3043 16.3195 3 1e-16 -4.12244
5200 1 19.7823 32.3043 13.9882 3 1e-16 -4.12244
5201 1 22.2551 32.3043 13.9882 3 4e-16 -4.12244
5202 1 21.4308 32.3043 11.6568 3 4e-16 -4.12244
5203 1 23.9036 32.3043 11.6568 3 1e-16 -4.12244
5204 1 23.0793 32.3043 9.32545 3 1e-16 -4.12244
5205 1 25.5521 32.3043 9.32545 3 1.51461e-28 -4.12244
5206 1 24.7278 32.3043 6.99409 3 0 -4.12244
5207 1 27.2006 32.3043 6.99409 3 1e-16 -4.12244
5208 1 26.3764 32.3043 4.66273 3 1e-16 -4.12244
5209 1 28.8491 32.3043 4.66273 3 4e-16 -4.12244
5210 1 28.0249 32.3043 2.33136 3 3.99999e-16 -4.12244
5211 1 30.4977 32.3043 2.33136 3 9.99999e-17 -4.12244
5212 1 29.6734 32.3043 0 3 1.0507e-16 -4.12244
5213 1 32.1462 32.3043 0 3 1.0507e-16 -4.12244
5214 1 0.824261 30.2853 47.7929 3 6.28299e-17 -4.12244
5215 1 0 30.2853 45.4616 3 2.304e-17 -4.12244
5216 1 2.47278 30.2853 45.4616 3 4e-16 -4.12244
5217 1 1.64852 30.2853 43.1302 3 5.776e-17 -4.12244
5218 1 4.12131 30.2853 43.1302 3 1e-16 -4.12244
5219 1 3.29705 30.2853 40.7989 3 4e-16 -4.12244
5220 1 5.76983 30.2853 40.7989 3 7.06819e-28 -4.12244
5221 1 4.94557 30.2853 38.4675 3 1e-16 -4.12244
5222 1 7.41835 30.2853 38.4675 3 1e-16 -4.12244
5223 1 6.59409 30.2853 36.1361 3 7.06819e-28 -4.12244
5224 1 9.06687 30.2853 36.1361 3 4e-16 -4.12244
5225 1 8.24261 30.2853 33.8048 3 9.99999e-17 -4.12244
5226 1 10.7154 30.2853 33.8048 3 1e-16 -4.12244
5227 1 9.89114 30.2853 31.4734 3 4e-16 -4.12244
5228 1 12.3639 30.2853 31.4734 3 1.51461e-28 -4.12244
5229 1 11.5397 30.2853 29.142 3 1e-16 -4.12244
5230 1 14.0124 30.2853 29.142 3 1e-16 -4.12244
5231 1 13.1882 30.2853 26.8107 3 1.00974e-28 -4.12244
5232 1 15.661 30.2853 26.8107 3 4e-16 -4.12244
5233 1 14.8367 30.2853 24.4793 3 9.99999e-17 -4.12244
5234 1 17.3095 30.2853 24.4793 3 1e-16 -4.12244
5235 1 16.4852 30.2853 22.1479 3 4e-16 -4.12244
5236 1 18.958 30.2853 22.1479 3 3.02923e-28 -4.12244
5237 1 18.1337 30.2853 19.8166 3 1e-16 -4.12244
5238 1 20.6065 30.2853 19.8166 3 1e-16 -4.12244
5239 1 19.7823 30.2853 17.4852 3 1e-16 -4.12244
5240 1 22.2551 30.2853 17.4852 3 4e-16 -4.12244
5241 1 21.4308 30.2853 15.1539 3 4e-16 -4.12244
5242 1 23.9036 30.2853 15.1539 3 1e-16 -4.12244
5243 1 23.0793 30.2853 12.8225 3 1e-16 -4.12244
5244 1 25.5521 30.2853 12.8225 3 2.90301e-28 -4.12244
5245 1 24.7278 30.2853 10.4911 3 1.00974e-28 -4.12244
5246 1 27.2006 30.2853 10.4911 3 1e-16 -4.12244
5247 1 26.3764 30.2853 8.15977 3 1e-16 -4.12244
5248 1 28.8491 30.2853 8.15977 3 4e-16 -4.12244
5249 1 28.0249 30.2853 5.82841 3 3.99999e-16 -4.12244
5250 1 30.4977 30.2853 5.82841 3 9.99999e-17 -4.12244
5251 1 29.6734 30.2853 3.49704 3 1e-16 -4.12244
5252 1 32.1462 30.2853 3.49704 3 9.99999e-17 -4.12244
5253 1 31.3219 30.2853 1.16568 3 1.69e-18 -4.12244
5254 1 33.7947 30.2853 1.16568 3 4.01691e-16 -4.12244
5255 1 1.64852 28.2663 46.6273 3 5.945e-17 -4.12244
5256 1 4.12131 28.2663 46.6273 3 1.0169e-16 -4.12244
5257 1 3.29705 28.2663 44.2959 3 4e-16 -4.12244
5258 1 5.76983 28.2663 44.2959 3 0 -4.12244
5259 1 4.94557 28.2663 41.9645 3 1e-16 -4.12244
5260 1 7.41835 28.2663 41.9645 3 1e-16 -4.12244
5261 1 6.59409 28.2663 39.6332 3 0 -4.12244
5262 1 9.06687 28.2663 39.6332 3 4e-16 -4.12244
5263 1 8.24261 28.2663 37.3018 3 9.99999e-17 -4.12244
5264 1 10.7154 28.2663 37.3018 3 1e-16 -4.12244
5265 1 9.89114 28.2663 34.9704 3 4e-16 -4.12244
5266 1 12.3639 28.2663 34.9704 3 2.01948e-28 -4.12244
5267 1 11.5397 28.2663 32.6391 3 1e-16 -4.12244
5268 1 14.0124 28.2663 32.6391 3 1e-16 -4.12244
5269 1 13.1882 28.2663 30.3077 3 0 -4.12244
5270 1 15.661 28.2663 30.3077 3 4e-16 -4.12244
5271 1 14.8367 28.2663 27.9764 3 9.99999e-17 -4.12244
5272 1 17.3095 28.2663 27.9764 3 1e-16 -4.12244
5273 1 16.4852 28.2663 25.645 3 4e-16 -4.12244
5274 1 18.958 28.2663 25.645 3 3.5341e-28 -4.12244
5275 1 18.1337 28.2663 23.3136 3 1e-16 -4.12244
5276 1 20.6065 28.2663 23.3136 3 1e-16 -4.12244
5277 1 19.7823 28.2663 20.9823 3 1e-16 -4.12244
5278 1 22.2551 28.2663 20.9823 3 4e-16 -4.12244
5279 1 21.4308 28.2663 18.6509 3 4e-16 -4.12244
5280 1 23.9036 28.2663 18.6509 3 1e-16 -4.12244
5281 1 23.0793 28.2663 16.3195 3 1e-16 -4.12244
5282 1 25.5521 28.2663 16.3195 3 2.52435e-28 -4.12244
5283 1 24.7278 28.2663 13.9882 3 2.52435e-29 -4.12244
5284 1 27.2006 28.2663 13.9882 3 1e-16 -4.12244
5285 1 26.3764 28.2663 11.6568 3 1e-16 -4.12244
5286 1 28.8491 28.2663 11.6568 3 4e-16 -4.12244
5287 1 28.0249 28.2663 9.32545 3 3.99999e-16 -4.12244
5288 1 30.4977 28.2663 9.32545 3 9.99999e-17 -4.12244
5289 1 29.6734 28.2663 6.99409 3 1e-16 -4.12244
5290 1 32.1462 28.2663 6.99409 3 9.99999e-17 -4.12244
5291 1 31.3219 28.2663 4.66273 3 0 -4.12244
5292 1 33.7947 28.2663 4.66273 3 4.00001e-16 -4.12244
5293 1 32.9705 28.2663 2.33136 3 9.99999e-17 -4.12244
5294 1 35.4432 28.2663 2.33136 3 1e-16 -4.12244
5295 1 34.619 28.2663 0 3 4.0507e-16 -4.12244
5296 1 37.0918 28.2663 0 3 5.07001e-18 -4.12244
5297 1 3.29705 26.2473 47.7929 3 4.0507e-16 -4.12244
5298 1 5.76983 26.2473 47.7929 3 5.06996e-18 -4.12244
5299 1 4.94557 26.2473 45.4616 3 1e-16 -4.12244
5300 1 7.41835 26.2473 45.4616 3 1e-16 -4.12244
5301 1 6.59409 26.2473 43.1302 3 7.06819e-28 -4.12244
5302 1 9.06687 26.2473 43.1302 3 4e-16 -4.12244
5303 1 8.24261 26.2473 40.7989 3 9.99999e-17 -4.12244
5304 1 10.7154 26.2473 40.7989 3 1e-16 -4.12244
5305 1 9.89114 26.2473 38.4675 3 4e-16 -4.12244
5306 1 12.3639 26.2473 38.4675 3 1.00974e-28 -4.12244
5307 1 11.5397 26.2473 36.1361 3 1e-16 -4.12244
5308 1 14.0124 26.2473 36.1361 3 1e-16 -4.12244
5309 1 13.1882 26.2473 33.8048 3 1.00974e-28 -4.12244
5310 1 15.661 26.2473 33.8048 3 4e-16 -4.12244
5311 1 14.8367 26.2473 31.4734 3 9.99999e-17 -4.12244
5312 1 17.3095 26.2473 31.4734 3 1e-16 -4.12244
5313 1 16.4852 26.2473 29.142 3 4e-16 -4.12244
5314 1 18.958 26.2473 29.142 3 4.54384e-28 -4.12244
5315 1 18.1337 26.2473 26.8107 3 1e-16 -4.12244
5316 1 20.6065 26.2473 26.8107 3 1e-16 -4.12244
5317 1 19.7823 26.2473 24.4793 3 1e-16 -4.12244
5318 1 22.2551 26.2473 24.4793 3 4e-16 -4.12244
5319 1 21.4308 26.2473 22.1479 3 4e-16 -4.12244
5320 1 23.9036 26.2473 22.1479 3 1e-16 -4.12244
5321 1 23.0793 26.2473 19.8166 3 1e-16 -4.12244
5322 1 25.5521 26.2473 19.8166 3 2.52435e-28 -4.12244
5323 1 24.7278 26.2473 17.4852 3 2.01948e-28 -4.12244
5324 1 27.2006 26.2473 17.4852 3 1e-16 -4.12244
5325 1 26.3764 26.2473 15.1539 3 1e-16 -4.12244
5326 1 28.8491 26.2473 15.1539 3 4e-16 -4.12244
5327 1 28.0249 26.2473 12.8225 3 3.99999e-16 -4.12244
5328 1 30.4977 26.2473 12.8225 3 9.99999e-17 -4.12244
5329 1 29.6734 26.2473 10.4911 3 1e-16 -4.12244
5330 1 32.1462 26.2473 10.4911 3 9.99999e-17 -4.12244
5331 1 31.3219 26.2473 8.15977 3 1.13596e-28 -4.12244
5332 1 33.7947 26.2473 8.15977 3 4.00001e-16 -4.12244
5333 1 32.9705 26.2473 5.82841 3 9.99999e-17 -4.12244
5334 1 35.4432 26.2473 5.82841 3 1e-16 -4.12244
5335 1 34.619 26.2473 3.49704 3 4e-16 -4.12244
5336 1 37.0918 26.2473 3.49704 3 1.01763e-28 -4.12244
5337 1 36.2675 26.2473 1.16568 3 1.0169e-16 -4.12244
5338 1 38.7403 26.2473 1.16568 3 1.0169e-16 -4.12244
5339 1 6.59409 24.2282 46.6273 3 1.69002e-18 -4.12244
5340 1 9.06687 24.2282 46.6273 3 4.0169e-16 -4.12244
5341 1 8.24261 24.2282 44.2959 3 9.99999e-17 -4.12244
5342 1 10.7154 24.2282 44.2959 3 1e-16 -4.12244
5343 1 9.89114 24.2282 41.9645 3 4e-16 -4.12244
5344 1 12.3639 24.2282 41.9645 3 0 -4.12244
5345 1 11.5397 24.2282 39.6332 3 1e-16 -4.12244
5346 1 14.0124 24.2282 39.6332 3 1e-16 -4.12244
5347 1 13.1882 24.2282 37.3018 3 0 -4.12244
5348 1 15.661 24.2282 37.3018 3 4e-16 -4.12244
5349 1 14.8367 24.2282 34.9704 3 9.99999e-17 -4.12244
5350 1 17.3095 24.2282 34.9704 3 1e-16 -4.12244
5351 1 16.4852 24.2282 32.6391 3 4e-16 -4.12244
5352 1 18.958 24.2282 32.6391 3 4.03897e-28 -4.12244
5353 1 18.1337 24.2282 30.3077 3 1e-16 -4.12244
5354 1 20.6065 24.2282 30.3077 3 1e-16 -4.12244
5355 1 19.7823 24.2282 27.9764 3 1e-16 -4.12244
5356 1 22.2551 24.2282 27.9764 3 4e-16 -4.12244
5357 1 21.4308 24.2282 25.645 3 4e-16 -4.12244
5358 1 23.9036 24.2282 25.645 3 1e-16 -4.12244
5359 1 23.0793 24.2282 23.3136 3 1e-16 -4.12244
5360 1 25.5521 24.2282 23.3136 3 1.51461e-28 -4.12244
5361 1 24.7278 24.2282 20.9823 3 0 -4.12244
5362 1 27.2006 24.2282 20.9823 3 1e-16 -4.12244
5363 1 26.3764 24.2282 18.6509 3 1e-16 -4.12244
5364 1 28.8491 24.2282 18.6509 3 4e-16 -4.12244
5365 1 28.0249 24.2282 16.3195 3 3.99999e-16 -4.12244
5366 1 30.4977 24.2282 16.3195 3 9.99999e-17 -4.12244
5367 1 29.6734 24.2282 13.9882 3 1e-16 -4.12244
5368 1 32.1462 24.2282 13.9882 3 9.99999e-17 -4.12244
5369 1 31.3219 24.2282 11.6568 3 0 -4.12244
5370 1 33.7947 24.2282 11.6568 3 4.00001e-16 -4.12244
5371 1 32.9705 24.2282 9.32545 3 9.99999e-17 -4.12244
5372 1 35.4432 24.2282 9.32545 3 1e-16 -4.12244
5373 1 34.619 24.2282 6.99409 3 4e-16 -4.12244
5374 1 37.0918 24.2282 6.99409 3 0 -4.12244
5375 1 36.2675 24.2282 4.66273 3 1e-16 -4.12244
5376 1 38.7403 24.2282 4.66273 3 1e-16 -4.12244
5377 1 37.916 24.2282 2.33136 3 8.07794e-28 -4.12244
5378 1 40.3888 24.2282 2.33136 3 3.99999e-16 -4.12244
5379 1 39.5645 24.2282 0 3 1.0507e-16 -4.12244
5380 1 42.0373 24.2282 0 3 1.0507e-16 -4.12244
5381 1 8.24261 22.2092 47.7929 3 1.0507e-16 -4.12244
5382 1 10.7154 22.2092 47.7929 3 1.0507e-16 -4.12244
5383 1 9.89114 22.2092 45.4616 3 4e-16 -4.12244
5384 1 12.3639 22.2092 45.4616 3 0 -4.12244
5385 1 11.5397 22.2092 43.1302 3 1e-16 -4.12244
5386 1 14.0124 22.2092 43.1302 3 1e-16 -4.12244
5387 1 13.1882 22.2092 40.7989 3 6.05845e-28 -4.12244
5388 1 15.661 22.2092 40.7989 3 4e-16 -4.12244
5389 1 14.8367 22.2092 38.4675 3 9.99999e-17 -4.12244
5390 1 17.3095 22.2092 38.4675 3 1e-16 -4.12244
5391 1 16.4852 22.2092 36.1361 3 4e-16 -4.12244
5392 1 18.958 22.2092 36.1361 3 8.07794e-28 -4.12244
5393 1 18.1337 22.2092 33.8048 3 1e-16 -4.12244
5394 1 20.6065 22.2092 33.8048 3 1e-16 -4.12244
5395 1 19.7823 22.2092 31.4734 3 1e-16 -4.12244
5396 1 22.2551 22.2092 31.4734 3 4e-16 -4.12244
5397 1 21.4308 22.2092 29.142 3 4e-16 -4.12244
5398 1 23.9036 22.2092 29.142 3 1e-16 -4.12244
5399 1 23.0793 22.2092 26.8107 3 1e-16 -4.12244
5400 1 25.5521 22.2092 26.8107 3 1.51461e-28 -4.12244
5401 1 24.7278 22.2092 24.4793 3 1.00974e-28 -4.12244
5402 1 27.2006 22.2092 24.4793 3 1e-16 -4.12244
5403 1 26.3764 22.2092 22.1479 3 1e-16 -4.12244
5404 1 28.8491 22.2092 22.1479 3 4e-16 -4.12244
5405 1 28.0249 22.2092 19.8166 3 3.99999e-16 -4.12244
5406 1 30.4977 22.2092 19.8166 3 9.99999e-17 -4.12244
5407 1 29.6734 22.2092 17.4852 3 1e-16 -4.12244
5408 1 32.1462 22.2092 17.4852 3 9.99999e-17 -4.12244
5409 1 31.3219 22.2092 15.1539 3 0 -4.12244
5410 1 33.7947 22.2092 15.1539 3 4.00001e-16 -4.12244
5411 1 32.9705 22.2092 12.8225 3 9.99999e-17 -4.12244
5412 1 35.4432 22.2092 12.8225 3 1e-16 -4.12244
5413 1 34.619 22.2092 10.4911 3 4e-16 -4.12244
5414 1 37.0918 22.2092 10.4911 3 0 -4.12244
5415 1 36.2675 22.2092 8.15977 3 1e-16 -4.12244
5416 1 38.7403 22.2092 8.15977 3 1e-16 -4.12244
5417 1 37.916 22.2092 5.82841 3 8.10949e-28 -4.12244
5418 1 40.3888 22.2092 5.82841 3 3.99999e-16 -4.12244
5419 1 39.5645 22.2092 3.49704 3 1e-16 -4.12244
5420 1 42.0373 22.2092 3.49704 3 1e-16 -4.12244
5421 1 41.2131 22.2092 1.16568 3 4.01691e-16 -4.12244
5422 1 43.6859 22.2092 1.16568 3 1.69e-18 -4.12244
5423 1 11.5397 20.1902 46.6273 3 1.0169e-16 -4.12244
5424 1 14.0124 20.1902 46.6273 3 1.0169e-16 -4.12244
5425 1 13.1882 20.1902 44.2959 3 0 -4.12244
5426 1 15.661 20.1902 44.2959 3 4e-16 -4.12244
5427 1 14.8367 20.1902 41.9645 3 9.99999e-17 -4.12244
5428 1 17.3095 20.1902 41.9645 3 1e-16 -4.12244
5429 1 16.4852 20.1902 39.6332 3 4e-16 -4.12244
5430 1 18.958 20.1902 39.6332 3 2.01948e-28 -4.12244
5431 1 18.1337 20.1902 37.3018 3 1e-16 -4.12244
5432 1 20.6065 20.1902 37.3018 3 1e-16 -4.12244
5433 1 19.7823 20.1902 34.9704 3 1e-16 -4.12244
5434 1 22.2551 20.1902 34.9704 3 4e-16 -4.12244
5435 1 21.4308 20.1902 32.6391 3 4e-16 -4.12244
5436 1 23.9036 20.1902 32.6391 3 1e-16 -4.12244
5437 1 23.0793 20.1902 30.3077 3 1e-16 -4.12244
5438 1 25.5521 20.1902 30.3077 3 1.51461e-28 -4.12244
5439 1 24.7278 20.1902 27.9764 3 1.51461e-28 -4.12244
5440 1 27.2006 20.1902 27.9764 3 1e-16 -4.12244
5441 1 26.3764 20.1902 25.645 3 1e-16 -4.12244
5442 1 28.8491 20.1902 25.645 3 4e-16 -4.12244
5443 1 28.0249 20.1902 23.3136 3 3.99999e-16 -4.12244
5444 1 30.4977 20.1902 23.3136 3 9.99999e-17 -4.12244
5445 1 29.6734 20.1902 20.9823 3 1e-16 -4.12244
5446 1 32.1462 20.1902 20.9823 3 9.99999e-17 -4.12244
5447 1 31.3219 20.1902 18.6509 3 0 -4.12244
5448 1 33.7947 20.1902 18.6509 3 4.00001e-16 -4.12244
5449 1 32.9705 20.1902 16.3195 3 9.99999e-17 -4.12244
5450 1 35.4432 20.1902 16.3195 3 1e-16 -4.12244
5451 1 34.619 20.1902 13.9882 3 4e-16 -4.12244
5452 1 37.0918 20.1902 13.9882 3 2.52435e-29 -4.12244
5453 1 36.2675 20.1902 11.6568 3 1e-16 -4.12244
5454 1 38.7403 20.1902 11.6568 3 1e-16 -4.12244
5455 1 37.916 20.1902 9.32545 3 8.07794e-28 -4.12244
5456 1 40.3888 20.1902 9.32545 3 3.99999e-16 -4.12244
5457 1 39.5645 20.1902 6.99409 3 1e-16 -4.12244
5458 1 42.0373 20.1902 6.99409 3 1e-16 -4.12244
5459 1 41.2131 20.1902 4.66273 3 4.00001e-16 -4.12244
5460 1 43.6859 20.1902 4.66273 3 2.01948e-28 -4.12244
5461 1 42.8616 20.1902 2.33136 3 9.99999e-17 -4.12244
5462 1 45.3344 20.1902 2.33136 3 9.99999e-17 -4.12244
5463 1 44.5101 20.1902 0 3 5.07001e-18 -4.12244
5464 1 46.9829 20.1902 0 3 4.0507e-16 -4.12244
5465 1 13.1882 18.1712 47.7929 3 5.06996e-18 -4.12244
5466 1 15.661 18.1712 47.7929 3 4.0507e-16 -4.12244
5467 1 14.8367 18.1712 45.4616 3 9.99999e-17 -4.12244
5468 1 17.3095 18.1712 45.4616 3 1e-16 -4.12244
5469 1 16.4852 18.1712 43.1302 3 4e-16 -4.12244
5470 1 18.958 18.1712 43.1302 3 9.08768e-28 -4.12244
5471 1 18.1337 18.1712 40.7989 3 1e-16 -4.12244
5472 1 20.6065 18.1712 40.7989 3 1e-16 -4.12244
5473 1 19.7823 18.1712 38.4675 3 1e-16 -4.12244
5474 1 22.2551 18.1712 38.4675 3 4e-16 -4.12244
5475 1 21.4308 18.1712 36.1361 3 4e-16 -4.12244
5476 1 23.9036 18.1712 36.1361 3 1e-16 -4.12244
5477 1 23.0793 18.1712 33.8048 3 1e-16 -4.12244
5478 1 25.5521 18.1712 33.8048 3 2.52435e-28 -4.12244
5479 1 24.7278 18.1712 31.4734 3 1.51461e-28 -4.12244
5480 1 27.2006 18.1712 31.4734 3 1e-16 -4.12244
5481 1 26.3764 18.1712 29.142 3 1e-16 -4.12244
5482 1 28.8491 18.1712 29.142 3 4e-16 -4.12244
5483 1 28.0249 18.1712 26.8107 3 3.99999e-16 -4.12244
5484 1 30.4977 18.1712 26.8107 3 9.99999e-17 -4.12244
5485 1 29.6734 18.1712 24.4793 3 1e-16 -4.12244
5486 1 32.1462 18.1712 24.4793 3 9.99999e-17 -4.12244
5487 1 31.3219 18.1712 22.1479 3 1.00974e-28 -4.12244
5488 1 33.7947 18.1712 22.1479 3 4.00001e-16 -4.12244
5489 1 32.9705 18.1712 19.8166 3 9.99999e-17 -4.12244
5490 1 35.4432 18.1712 19.8166 3 1e-16 -4.12244
5491 1 34.619 18.1712 17.4852 3 4e-16 -4.12244
5492 1 37.0918 18.1712 17.4852 3 2.01948e-28 -4.12244
5493 1 36.2675 18.1712 15.1539 3 1e-16 -4.12244
5494 1 38.7403 18.1712 15.1539 3 1e-16 -4.12244
5495 1 37.916 18.1712 12.8225 3 9.46633e-28 -4.12244
5496 1 40.3888 18.1712 12.8225 3 3.99999e-16 -4.12244
5497 1 39.5645 18.1712 10.4911 3 1e-16 -4.12244
5498 1 42.0373 18.1712 10.4911 3 1e-16 -4.12244
5499 1 41.2131 18.1712 8.15977 3 4.00001e-16 -4.12244
5500 1 43.6859 18.1712 8.15977 3 3.15544e-28 -4.12244
5501 1 42.8616 18.1712 5.82841 3 9.99999e-17 -4.12244
5502 1 45.3344 18.1712 5.82841 3 9.99999e-17 -4.12244
5503 1 44.5101 18.1712 3.49704 3 3.03711e-28 -4.12244
5504 1 46.9829 18.1712 3.49704 3 3.99999e-16 -4.12244
5505 1 46.1586 18.1712 1.16568 3 1.0169e-16 -4.12244
5506 1 48.6314 18.1712 1.16568 3 1.0169e-16 -4.12244
5507 1 16.4852 16.1522 46.6273 3 4.0169e-16 -4.12244
5508 1 18.958 16.1522 46.6273 3 1.69002e-18 -4.12244
5509 1 18.1337 16.1522 44.2959 3 1e-16 -4.12244
5510 1 20.6065 16.1522 44.2959 3 1e-16 -4.12244
5511 1 19.7823 16.1522 41.9645 3 1e-16 -4.12244
5512 1 22.2551 16.1522 41.9645 3 4e-16 -4.12244
5513 1 21.4308 16.1522 39.6332 3 4e-16 -4.12244
5514 1 23.9036 16.1522 39.6332 3 1e-16 -4.12244
5515 1 23.0793 16.1522 37.3018 3 1e-16 -4.12244
5516 1 25.5521 16.1522 37.3018 3 1.51461e-28 -4.12244
5517 1 24.7278 16.1522 34.9704 3 2.01948e-28 -4.12244
5518 1 27.2006 16.1522 34.9704 3 1e-16 -4.12244
5519 1 26.3764 16.1522 32.6391 3 1e-16 -4.12244
5520 1 28.8491 16.1522 32.6391 3 4e-16 -4.12244
5521 1 28.0249 16.1522 30.3077 3 3.99999e-16 -4.12244
5522 1 30.4977 16.1522 30.3077 3 9.99999e-17 -4.12244
5523 1 29.6734 16.1522 27.9764 3 1e-16 -4.12244
5524 1 32.1462 16.1522 27.9764 3 9.99999e-17 -4.12244
5525 1 31.3219 16.1522 25.645 3 1.51461e-28 -4.12244
5526 1 33.7947 16.1522 25.645 3 4.00001e-16 -4.12244
5527 1 32.9705 16.1522 23.3136 3 9.99999e-17 -4.12244
5528 1 35.4432 16.1522 23.3136 3 1e-16 -4.12244
5529 1 34.619 16.1522 20.9823 3 4e-16 -4.12244
5530 1 37.0918 16.1522 20.9823 3 0 -4.12244
5531 1 36.2675 16.1522 18.6509 3 1e-16 -4.12244
5532 1 38.7403 16.1522 18.6509 3 1e-16 -4.12244
5533 1 37.916 16.1522 16.3195 3 9.08768e-28 -4.12244
5534 1 40.3888 16.1522 16.3195 3 3.99999e-16 -4.12244
5535 1 39.5645 16.1522 13.9882 3 1e-16 -4.12244
5536 1 42.0373 16.1522 13.9882 3 1e-16 -4.12244
5537 1 41.2131 16.1522 11.6568 3 4.00001e-16 -4.12244
5538 1 43.6859 16.1522 11.6568 3 2.01948e-28 -4.12244
5539 1 42.8616 16.1522 9.32545 3 9.99999e-17 -4.12244
5540 1 45.3344 16.1522 9.32545 3 9.99999e-17 -4.12244
5541 1 44.5101 16.1522 6.99409 3 2.01948e-28 -4.12244
5542 1 46.9829 16.1522 6.99409 3 3.99999e-16 -4.12244
5543 1 46.1586 16.1522 4.66273 3 9.99999e-17 -4.12244
5544 1 48.6314 16.1522 4.66273 3 9.99999e-17 -4.12244
5545 1 47.8072 16.1522 2.33136 3 3.99999e-16 -4.12244
5546 1 50.2799 16.1522 2.33136 3 2.01948e-28 -4.12244
5547 1 49.4557 16.1522 0 3 1.0507e-16 -4.12244
5548 1 51.9285 16.1522 0 3 1.0507e-16 -4.12244
5549 1 18.1337 14.1331 47.7929 3 1.0507e-16 -4.12244
5550 1 20.6065 14.1331 47.7929 3 1.0507e-16 -4.12244
5551 1 19.7823 14.1331 45.4616 3 1e-16 -4.12244
5552 1 22.2551 14.1331 45.4616 3 4e-16 -4.12244
5553 1 21.4308 14.1331 43.1302 3 4e-16 -4.12244
5554 1 23.9036 14.1331 43.1302 3 1e-16 -4.12244
5555 1 23.0793 14.1331 40.7989 3 1e-16 -4.12244
5556 1 25.5521 14.1331 40.7989 3 7.57306e-28 -4.12244
5557 1 24.7278 14.1331 38.4675 3 0 -4.12244
5558 1 27.2006 14.1331 38.4675 3 1e-16 -4.12244
5559 1 26.3764 14.1331 36.1361 3 1e-16 -4.12244
5560 1 28.8491 14.1331 36.1361 3 4e-16 -4.12244
5561 1 28.0249 14.1331 33.8048 3 3.99999e-16 -4.12244
5562 1 30.4977 14.1331 33.8048 3 9.99999e-17 -4.12244
5563 1 29.6734 14.1331 31.4734 3 1e-16 -4.12244
5564 1 32.1462 14.1331 31.4734 3 9.99999e-17 -4.12244
5565 1 31.3219 14.1331 29.142 3 1.51461e-28 -4.12244
5566 1 33.7947 14.1331 29.142 3 4.00001e-16 -4.12244
5567 1 32.9705 14.1331 26.8107 3 9.99999e-17 -4.12244
5568 1 35.4432 14.1331 26.8107 3 1e-16 -4.12244
5569 1 34.619 14.1331 24.4793 3 4e-16 -4.12244
5570 1 37.0918 14.1331 24.4793 3 1.00974e-28 -4.12244
5571 1 36.2675 14.1331 22.1479 3 1e-16 -4.12244
5572 1 38.7403 14.1331 22.1479 3 1e-16 -4.12244
5573 1 37.916 14.1331 19.8166 3 8.07794e-28 -4.12244
5574 1 40.3888 14.1331 19.8166 3 3.99999e-16 -4.12244
5575 1 39.5645 14.1331 17.4852 3 1e-16 -4.12244
5576 1 42.0373 14.1331 17.4852 3 1e-16 -4.12244
5577 1 41.2131 14.1331 15.1539 3 4.00001e-16 -4.12244
5578 1 43.6859 14.1331 15.1539 3 2.01948e-28 -4.12244
5579 1 42.8616 14.1331 12.8225 3 9.99999e-17 -4.12244
5580 1 45.3344 14.1331 12.8225 3 9.99999e-17 -4.12244
5581 1 44.5101 14.1331 10.4911 3 2.01948e-28 -4.12244
5582 1 46.9829 14.1331 10.4911 3 3.99999e-16 -4.12244
5583 1 46.1586 14.1331 8.15977 3 9.99999e-17 -4.12244
5584 1 48.6314 14.1331 8.15977 3 9.99999e-17 -4.12244
5585 1 47.8072 14.1331 5.82841 3 3.99999e-16 -4.12244
5586 1 50.2799 14.1331 5.82841 3 2.05104e-28 -4.12244
5587 1 49.4557 14.1331 3.49704 3 9.99999e-17 -4.12244
5588 1 51.9285 14.1331 3.49704 3 1e-16 -4.12244
5589 1 51.1042 14.1331 1.16568 3 1.0169e-16 -4.12244
5590 1 53.577 14.1331 1.16568 3 4.01689e-16 -4.12244
5591 1 21.4308 12.1141 46.6273 3 4.01691e-16 -4.12244
5592 1 23.9036 12.1141 46.6273 3 1.0169e-16 -4.12244
5593 1 23.0793 12.1141 44.2959 3 1e-16 -4.12244
5594 1 25.5521 12.1141 44.2959 3 1.51461e-28 -4.12244
5595 1 24.7278 12.1141 41.9645 3 0 -4.12244
5596 1 27.2006 12.1141 41.9645 3 1e-16 -4.12244
5597 1 26.3764 12.1141 39.6332 3 1e-16 -4.12244
5598 1 28.8491 12.1141 39.6332 3 4e-16 -4.12244
5599 1 28.0249 12.1141 37.3018 3 3.99999e-16 -4.12244
5600 1 30.4977 12.1141 37.3018 3 9.99999e-17 -4.12244
5601 1 29.6734 12.1141 34.9704 3 1e-16 -4.12244
5602 1 32.1462 12.1141 34.9704 3 9.99999e-17 -4.12244
5603 1 31.3219 12.1141 32.6391 3 2.01948e-28 -4.12244
5604 1 33.7947 12.1141 32.6391 3 4.00001e-16 -4.12244
5605 1 32.9705 12.1141 30.3077 3 9.99999e-17 -4.12244
5606 1 35.4432 12.1141 30.3077 3 1e-16 -4.12244
5607 1 34.619 12.1141 27.9764 3 4e-16 -4.12244
5608 1 37.0918 12.1141 27.9764 3 1.51461e-28 -4.12244
5609 1 36.2675 12.1141 25.645 3 1e-16 -4.12244
5610 1 38.7403 12.1141 25.645 3 1e-16 -4.12244
5611 1 37.916 12.1141 23.3136 3 8.07794e-28 -4.12244
5612 1 40.3888 12.1141 23.3136 3 3.99999e-16 -4.12244
5613 1 39.5645 12.1141 20.9823 3 1e-16 -4.12244
5614 1 42.0373 12.1141 20.9823 3 1e-16 -4.12244
5615 1 41.2131 12.1141 18.6509 3 4.00001e-16 -4.12244
5616 1 43.6859 12.1141 18.6509 3 2.01948e-28 -4.12244
5617 1 42.8616 12.1141 16.3195 3 9.99999e-17 -4.12244
5618 1 45.3344 12.1141 16.3195 3 9.99999e-17 -4.12244
5619 1 44.5101 12.1141 13.9882 3 2.27192e-28 -4.12244
5620 1 46.9829 12.1141 13.9882 3 3.99999e-16 -4.12244
5621 1 46.1586 12.1141 11.6568 3 9.99999e-17 -4.12244
5622 1 48.6314 12.1141 11.6568 3 9.99999e-17 -4.12244
5623 1 47.8072 12.1141 9.32545 3 3.99999e-16 -4.12244
5624 1 50.2799 12.1141 9.32545 3 2.01948e-28 -4.12244
5625 1 49.4557 12.1141 6.99409 3 9.99999e-17 -4.12244
5626 1 51.9285 12.1141 6.99409 3 1e-16 -4.12244
5627 1 51.1042 12.1141 4.66273 3 9.99999e-17 -4.12244
5628 1 53.577 12.1141 4.66273 3 3.99999e-16 -4.12244
5629 1 52.7527 12.1141 2.33136 3 4.00001e-16 -4.12244
5630 1 55.2255 12.1141 2.33136 3 1e-16 -4.12244
5631 1 54.4012 12.1141 0 3 1.0507e-16 -4.12244
5632 1 56.874 12.1141 0 3 5.07001e-18 -4.12244
5633 1 23.0793 10.0951 47.7929 3 1.0507e-16 -4.12244
5634 1 25.5521 10.0951 47.7929 3 5.06996e-18 -4.12244
5635 1 24.7278 10.0951 45.4616 3 0 -4.12244
5636 1 27.2006 10.0951 45.4616 3 1e-16 -4.12244
5637 1 26.3764 10.0951 43.1302 3 1e-16 -4.12244
5638 1 28.8491 10.0951 43.1302 3 4e-16 -4.12244
5639 1 28.0249 10.0951 40.7989 3 3.99999e-16 -4.12244
5640 1 30.4977 10.0951 40.7989 3 9.99999e-17 -4.12244
5641 1 29.6734 10.0951 38.4675 3 1e-16 -4.12244
5642 1 32.1462 10.0951 38.4675 3 9.99999e-17 -4.12244
5643 1 31.3219 10.0951 36.1361 3 6.05845e-28 -4.12244
5644 1 33.7947 10.0951 36.1361 3 4.00001e-16 -4.12244
5645 1 32.9705 10.0951 33.8048 3 9.99999e-17 -4.12244
5646 1 35.4432 10.0951 33.8048 3 1e-16 -4.12244
5647 1 34.619 10.0951 31.4734 3 4e-16 -4.12244
5648 1 37.0918 10.0951 31.4734 3 5.04871e-29 -4.12244
5649 1 36.2675 10.0951 29.142 3 1e-16 -4.12244
5650 1 38.7403 10.0951 29.142 3 1e-16 -4.12244
5651 1 37.916 10.0951 26.8107 3 8.07794e-28 -4.12244
5652 1 40.3888 10.0951 26.8107 3 3.99999e-16 -4.12244
5653 1 39.5645 10.0951 24.4793 3 1e-16 -4.12244
5654 1 42.0373 10.0951 24.4793 3 1e-16 -4.12244
5655 1 41.2131 10.0951 22.1479 3 4.00001e-16 -4.12244
5656 1 43.6859 10.0951 22.1479 3 2.01948e-28 -4.12244
5657 1 42.8616 10.0951 19.8166 3 9.99999e-17 -4.12244
5658 1 45.3344 10.0951 19.8166 3 9.99999e-17 -4.12244
5659 1 44.5101 10.0951 17.4852 3 3.02923e-28 -4.12244
5660 1 46.9829 10.0951 17.4852 3 3.99999e-16 -4.12244
5661 1 46.1586 10.0951 15.1539 3 9.99999e-17 -4.12244
5662 1 48.6314 10.0951 15.1539 3 9.99999e-17 -4.12244
5663 1 47.8072 10.0951 12.8225 3 3.99999e-16 -4.12244
5664 1 50.2799 10.0951 12.8225 3 2.39814e-28 -4.12244
5665 1 49.4557 10.0951 10.4911 3 9.99999e-17 -4.12244
5666 1 51.9285 10.0951 10.4911 3 1e-16 -4.12244
5667 1 51.1042 10.0951 8.15977 3 9.99999e-17 -4.12244
5668 1 53.577 10.0951 8.15977 3 3.99999e-16 -4.12244
5669 1 52.7527 10.0951 5.82841 3 4.00001e-16 -4.12244
5670 1 55.2255 10.0951 5.82841 3 1e-16 -4.12244
5671 1 54.4012 10.0951 3.49704 3 1e-16 -4.12244
5672 1 56.874 10.0951 3.49704 3 7.88861e-31 -4.12244
5673 1 56.0498 10.0951 1.16568 3 1.69e-18 -4.12244
5674 1 58.5226 10.0951 1.16568 3 1.0169e-16 -4.12244
5675 1 26.3764 8.07608 46.6273 3 1.0169e-16 -4.12244
5676 1 28.8491 8.07608 46.6273 3 4.0169e-16 -4.12244
5677 1 28.0249 8.07608 44.2959 3 3.99999e-16 -4.12244
5678 1 30.4977 8.07608 44.2959 3 9.99999e-17 -4.12244
5679 1 29.6734 8.07608 41.9645 3 1e-16 -4.12244
5680 1 32.1462 8.07608 41.9645 3 9.99999e-17 -4.12244
5681 1 31.3219 8.07608 39.6332 3 0 -4.12244
5682 1 33.7947 8.07608 39.6332 3 4.00001e-16 -4.12244
5683 1 32.9705 8.07608 37.3018 3 9.99999e-17 -4.12244
5684 1 35.4432 8.07608 37.3018 3 1e-16 -4.12244
5685 1 34.619 8.07608 34.9704 3 4e-16 -4.12244
5686 1 37.0918 8.07608 34.9704 3 2.01948e-28 -4.12244
5687 1 36.2675 8.07608 32.6391 3 1e-16 -4.12244
5688 1 38.7403 8.07608 32.6391 3 1e-16 -4.12244
5689 1 37.916 8.07608 30.3077 3 8.07794e-28 -4.12244
5690 1 40.3888 8.07608 30.3077 3 3.99999e-16 -4.12244
5691 1 39.5645 8.07608 27.9764 3 1e-16 -4.12244
5692 1 42.0373 8.07608 27.9764 3 1e-16 -4.12244
5693 1 41.2131 8.07608 25.645 3 4.00001e-16 -4.12244
5694 1 43.6859 8.07608 25.645 3 3.5341e-28 -4.12244
5695 1 42.8616 8.07608 23.3136 3 9.99999e-17 -4.12244
5696 1 45.3344 8.07608 23.3136 3 9.99999e-17 -4.12244
5697 1 44.5101 8.07608 20.9823 3 2.01948e-28 -4.12244
5698 1 46.9829 8.07608 20.9823 3 3.99999e-16 -4.12244
5699 1 46.1586 8.07608 18.6509 3 9.99999e-17 -4.12244
5700 1 48.6314 8.07608 18.6509 3 9.99999e-17 -4.12244
5701 1 47.8072 8.07608 16.3195 3 3.99999e-16 -4.12244
5702 1 50.2799 8.07608 16.3195 3 3.02923e-28 -4.12244
5703 1 49.4557 8.07608 13.9882 3 9.99999e-17 -4.12244
5704 1 51.9285 8.07608 13.9882 3 1e-16 -4.12244
5705 1 51.1042 8.07608 11.6568 3 9.99999e-17 -4.12244
5706 1 53.577 8.07608 11.6568 3 3.99999e-16 -4.12244
5707 1 52.7527 8.07608 9.32545 3 4.00001e-16 -4.12244
5708 1 55.2255 8.07608 9.32545 3 1e-16 -4.12244
5709 1 54.4012 8.07608 6.99409 3 1e-16 -4.12244
5710 1 56.874 8.07608 6.99409 3 0 -4.12244
5711 1 56.0498 8.07608 4.66273 3 0 -4.12244
5712 1 58.5226 8.07608 4.66273 3 9.99999e-17 -4.12244
5713 1 57.6983 8.07608 2.33136 3 1e-16 -4.12244
5714 1 60.1711 8.07608 2.33136 3 3.99999e-16 -4.12244
5715 1 59.3468 8.07608 0 3 4.0507e-16 -4.12244
5716 1 61.8196 8.07608 0 3 6.28299e-17 -4.12244
5717 1 28.0249 6.05706 47.7929 3 4.05069e-16 -4.12244
5718 1 30.4977 6.05706 47.7929 3 1.0507e-16 -4.12244
5719 1 29.6734 6.05706 45.4616 3 1e-16 -4.12244
5720 1 32.1462 6.05706 45.4616 3 9.99999e-17 -4.12244
5721 1 31.3219 6.05706 43.1302 3 6.05845e-28 -4.12244
5722 1 33.7947 6.05706 43.1302 3 4.00001e-16 -4.12244
5723 1 32.9705 6.05706 40.7989 3 9.99999e-17 -4.12244
5724 1 35.4432 6.05706 40.7989 3 1e-16 -4.12244
5725 1 34.619 6.05706 38.4675 3 4e-16 -4.12244
5726 1 37.0918 6.05706 38.4675 3 0 -4.12244
5727 1 36.2675 6.05706 36.1361 3 1e-16 -4.12244
5728 1 38.7403 6.05706 36.1361 3 1e-16 -4.12244
5729 1 37.916 6.05706 33.8048 3 8.07794e-28 -4.12244
5730 1 40.3888 6.05706 33.8048 3 3.99999e-16 -4.12244
5731 1 39.5645 6.05706 31.4734 3 1e-16 -4.12244
5732 1 42.0373 6.05706 31.4734 3 1e-16 -4.12244
5733 1 41.2131 6.05706 29.142 3 4.00001e-16 -4.12244
5734 1 43.6859 6.05706 29.142 3 3.5341e-28 -4.12244
5735 1 42.8616 6.05706 26.8107 3 9.99999e-17 -4.12244
5736 1 45.3344 6.05706 26.8107 3 9.99999e-17 -4.12244
5737 1 44.5101 6.05706 24.4793 3 3.02923e-28 -4.12244
5738 1 46.9829 6.05706 24.4793 3 3.99999e-16 -4.12244
5739 1 46.1586 6.05706 22.1479 3 9.99999e-17 -4.12244
5740 1 48.6314 6.05706 22.1479 3 9.99999e-17 -4.12244
5741 1 47.8072 6.05706 19.8166 3 3.99999e-16 -4.12244
5742 1 50.2799 6.05706 19.8166 3 2.01948e-28 -4.12244
5743 1 49.4557 6.05706 17.4852 3 9.99999e-17 -4.12244
5744 1 51.9285 6.05706 17.4852 3 1e-16 -4.12244
5745 1 51.1042 6.05706 15.1539 3 9.99999e-17 -4.12244
5746 1 53.577 6.05706 15.1539 3 3.99999e-16 -4.12244
5747 1 52.7527 6.05706 12.8225 3 4.00001e-16 -4.12244
5748 1 55.2255 6.05706 12.8225 3 1e-16 -4.12244
5749 1 54.4012 6.05706 10.4911 3 1e-16 -4.12244
5750 1 56.874 6.05706 10.4911 3 0 -4.12244
5751 1 56.0498 6.05706 8.15977 3 1.26218e-29 -4.12244
5752 1 58.5226 6.05706 8.15977 3 9.99999e-17 -4.12244
5753 1 57.6983 6.05706 5.82841 3 1e-16 -4.12244
5754 1 60.1711 6.05706 5.82841 3 3.99999e-16 -4.12244
5755 1 59.3468 6.05706 3.49704 3 3.99999e-16 -4.12244
5756 1 61.8196 6.05706 3.49704 3 5.77599e-17 -4.12244
5757 1 60.9953 6.05706 1.16568 3 1.0169e-16 -4.12244
5758 1 63.4681 6.05706 1.16568 3 2.473e-17 -4.12244
5759 1 31.3219 4.03804 46.6273 3 1.69002e-18 -4.12244
5760 1 33.7947 4.03804 46.6273 3 4.01691e-16 -4.12244
5761 1 32.9705 4.03804 44.2959 3 9.99999e-17 -4.12244
5762 1 35.4432 4.03804 44.2959 3 1e-16 -4.12244
5763 1 34.619 4.03804 41.9645 3 4e-16 -4.12244
5764 1 37.0918 4.03804 41.9645 3 0 -4.12244
5765 1 36.2675 4.03804 39.6332 3 1e-16 -4.12244
5766 1 38.7403 4.03804 39.6332 3 1e-16 -4.12244
5767 1 37.916 4.03804 37.3018 3 8.07794e-28 -4.12244
5768 1 40.3888 4.03804 37.3018 3 3.99999e-16 -4.12244
5769 1 39.5645 4.03804 34.9704 3 1e-16 -4.12244
5770 1 42.0373 4.03804 34.9704 3 1e-16 -4.12244
5771 1 41.2131 4.03804 32.6391 3 4.00001e-16 -4.12244
5772 1 43.6859 4.03804 32.6391 3 4.03897e-28 -4.12244
5773 1 42.8616 4.03804 30.3077 3 9.99999e-17 -4.12244
5774 1 45.3344 4.03804 30.3077 3 9.99999e-17 -4.12244
5775 1 44.5101 4.03804 27.9764 3 3.5341e-28 -4.12244
5776 1 46.9829 4.03804 27.9764 3 3.99999e-16 -4.12244
5777 1 46.1586 4.03804 25.645 3 9.99999e-17 -4.12244
5778 1 48.6314 4.03804 25.645 3 9.99999e-17 -4.12244
5779 1 47.8072 4.03804 23.3136 3 3.99999e-16 -4.12244
5780 1 50.2799 4.03804 23.3136 3 2.01948e-28 -4.12244
5781 1 49.4557 4.03804 20.9823 3 9.99999e-17 -4.12244
5782 1 51.9285 4.03804 20.9823 3 1e-16 -4.12244
5783 1 51.1042 4.03804 18.6509 3 9.99999e-17 -4.12244
5784 1 53.577 4.03804 18.6509 3 3.99999e-16 -4.12244
5785 1 52.7527 4.03804 16.3195 3 4.00001e-16 -4.12244
5786 1 55.2255 4.03804 16.3195 3 1e-16 -4.12244
5787 1 54.4012 4.03804 13.9882 3 1e-16 -4.12244
5788 1 56.874 4.03804 13.9882 3 2.52435e-29 -4.12244
5789 1 56.0498 4.03804 11.6568 3 0 -4.12244
5790 1 58.5226 4.03804 11.6568 3 9.99999e-17 -4.12244
5791 1 57.6983 4.03804 9.32545 3 1e-16 -4.12244
5792 1 60.1711 4.03804 9.32545 3 3.99999e-16 -4.12244
5793 1 59.3468 4.03804 6.99409 3 3.99999e-16 -4.12244
5794 1 61.8196 4.03804 6.99409 3 5.77599e-17 -4.12244
5795 1 60.9953 4.03804 4.66273 3 9.99999e-17 -4.12244
5796 1 63.4681 4.03804 4.66273 3 2.304e-17 -4.12244
5797 1 62.6439 4.03804 2.33136 3 5.76e-18 -4.12244
5798 1 32.9705 2.01902 47.7929 3 1.0507e-16 -4.10627
5799 1 35.4432 2.01902 47.7929 3 1.0507e-16 -4.10627
5800 1 34.619 2.01902 45.4616 3 4e-16 -4.10627
5801 1 37.0918 2.01902 45.4616 3 0 -4.10627
5802 1 36.2675 2.01902 43.1302 3 1e-16 -4.10627
5803 1 38.7403 2.01902 43.1302 3 1e-16 -4.10627
5804 1 37.916 2.01902 40.7989 3 1.41364e-27 -4.10627
5805 1 40.3888 2.01902 40.7989 3 3.99999e-16 -4.10627
5806 1 39.5645 2.01902 38.4675 3 1e-16 -4.10627
5807 1 42.0373 2.01902 38.4675 3 1e-16 -4.10627
5808 1 41.2131 2.01902 36.1361 3 4.00001e-16 -4.10627
5809 1 43.6859 2.01902 36.1361 3 8.07794e-28 -4.10627
5810 1 42.8616 2.01902 33.8048 3 9.99999e-17 -4.10627
5811 1 45.3344 2.01902 33.8048 3 9.99999e-17 -4.10627
5812 1 44.5101 2.01902 31.4734 3 2.52435e-28 -4.10627
5813 1 46.9829 2.01902 31.4734 3 3.99999e-16 -4.10627
5814 1 46.1586 2.01902 29.142 3 9.99999e-17 -4.10627
5815 1 48.6314 2.01902 29.142 3 9.99999e-17 -4.10627
5816 1 47.8072 2.01902 26.8107 3 3.99999e-16 -4.10627
5817 1 50.2799 2.01902 26.8107 3 2.01948e-28 -4.10627
5818 1 49.4557 2.01902 24.4793 3 9.99999e-17 -4.10627
5819 1 51.9285 2.01902 24.4793 3 1e-16 -4.10627
5820 1 51.1042 2.01902 22.1479 3 9.99999e-17 -4.10627
5821 1 53.577 2.01902 22.1479 3 3.99999e-16 -4.10627
5822 1 52.7527 2.01902 19.8166 3 4.00001e-16 -4.10627
5823 1 55.2255 2.01902 19.8166 3 1e-16 -4.10627
5824 1 54.4012 2.01902 17.4852 3 1e-16 -4.10627
5825 1 56.874 2.01902 17.4852 3 1.00974e-28 -4.10627
5826 1 56.0498 2.01902 15.1539 3 0 -4.10627
5827 1 58.5226 2.01902 15.1539 3 9.99999e-17 -4.10627
5828 1 57.6983 2.01902 12.8225 3 1e-16 -4.10627
5829 1 60.1711 2.01902 12.8225 3 3.99999e-16 -4.10627
5830 1 59.3468 2.01902 10.4911 3 3.99999e-16 -4.10627
5831 1 61.8196 2.01902 10.4911 3 5.77599e-17 -4.10627
5832 1 60.9953 2.01902 8.15977 3 9.99999e-17 -4.10627
5833 1 63.4681 2.01902 8.15977 3 2.304e-17 -4.10627
5834 1 62.6439 2.01902 5.82841 3 5.76e-18 -4.10627
5835 1 36.2675 -0 46.6273 5 12.2293 -3.54465
5836 1 38.7403 0 46.6273 5 12.2293 -3.54465
5837 1 37.916 -0 44.2959 5 12.2293 -3.54465
5838 1 40.3888 0 44.2959 5 12.2293 -3.54465
5839 1 39.5645 -0 41.9645 5 12.2293 -3.54465
5840 1 42.0373 0 41.9645 5 12.2293 -3.54465
5841 1 41.2131 -0 39.6332 5 12.2293 -3.54465
5842 1 43.6859 0 39.6332 5 12.2293 -3.54465
5843 1 42.8616 -0 37.3018 5 12.2293 -3.54465
5844 1 45.3344 0 37.3018 5 12.2293 -3.54465
5845 1 44.5101 -0 34.9704 5 12.2293 -3.54465
5846 1 46.9829 0 34.9704 5 12.2293 -3.54465
5847 1 46.1586 -0 32.6391 5 12.2293 -3.54465
5848 1 48.6314 0 32.6391 5 12.2293 -3.54465
5849 1 47.8072 -0 30.3077 5 12.2293 -3.54465
5850 1 50.2799 0 30.3077 5 12.2293 -3.54465
5851 1 49.4557 -0 27.9764 5 12.2293 -3.54465
5852 1 51.9285 0 27.9764 5 12.2293 -3.54465
5853 1 51.1042 -0 25.645 5 12.2293 -3.54465
5854 1 53.577 0 25.645 5 12.2293 -3.54465
5855 1 52.7527 -0 23.3136 5 12.2293 -3.54465
5856 1 55.2255 0 23.3136 5 12.2293 -3.54465
5857 1 54.4012 -0 20.9823 5 12.2293 -3.54465
5858 1 56.874 0 20.9823 5 12.2293 -3.54465
5859 1 56.0498 -0 18.6509 5 12.2293 -3.54465
5860 1 58.5226 0 18.6509 5 12.2293 -3.54465
5861 1 57.6983 -0 16.3195 5 12.2293 -3.54465
5862 1 60.1711 0 16.3195 5 12.2293 -3.54465
5863 1 59.3468 -0 13.9882 5 12.2293 -3.54465
5864 1 61.8196 0 13.9882 5 12.2293 -3.54465
5865 1 60.9953 -0 11.6568 5 12.2293 -3.54465
5866 1 63.4681 0 11.6568 5 12.2293 -3.54465
5867 1 62.6439 -0 9.32545 5 12.2293 -3.54465
5868 1 0.824261 60.5706 2.33136 3 5.776e-17 -4.10627
5869 1 0 60.5706 0 3 2.811e-17 -4.10627
5870 1 2.47278 60.5706 0 3 4.0507e-16 -4.10627
5871 1 0.824261 58.5516 5.82841 3 5.776e-17 -4.12244
5872 1 0 58.5516 3.49704 3 2.304e-17 -4.12244
5873 1 2.47278 58.5516 3.49704 3 4e-16 -4.12244
5874 1 1.64852 58.5516 1.16568 3 5.945e-17 -4.12244
5875 1 4.12131 58.5516 1.16568 3 1.0169e-16 -4.12244
5876 1 0.824261 56.5326 9.32545 3 5.776e-17 -4.12244
5877 1 0 56.5326 6.99409 3 2.304e-17 -4.12244
5878 1 2.47278 56.5326 6.99409 3 4e-16 -4.12244
5879 1 1.64852 56.5326 4.66273 3 5.776e-17 -4.12244
5880 1 4.12131 56.5326 4.66273 3 1e-16 -4.12244
5881 1 3.29705 56.5326 2.33136 3 4e-16 -4.12244
5882 1 5.76983 56.5326 2.33136 3 0 -4.12244
5883 1 4.94557 56.5326 0 3 1.0507e-16 -4.12244
5884 1 7.41835 56.5326 0 3 1.0507e-16 -4.12244
5885 1 0.824261 54.5135 12.8225 3 5.776e-17 -4.12244
5886 1 0 54.5135 10.4911 3 2.304e-17 -4.12244
5887 1 2.47278 54.5135 10.4911 3 4e-16 -4.12244
5888 1 1.64852 54.5135 8.15977 3 5.776e-17 -4.12244
5889 1 4.12131 54.5135 8.15977 3 1e-16 -4.12244
5890 1 3.29705 54.5135 5.82841 3 4e-16 -4.12244
5891 1 5.76983 54.5135 5.82841 3 3.15544e-30 -4.12244
5892 1 4.94557 54.5135 3.49704 3 1e-16 -4.12244
5893 1 7.41835 54.5135 3.49704 3 1e-16 -4.12244
5894 1 6.59409 54.5135 1.16568 3 1.69e-18 -4.12244
5895 1 9.06687 54.5135 1.16568 3 4.0169e-16 -4.12244
5896 1 0.824261 52.4945 16.3195 3 5.776e-17 -4.12244
5897 1 0 52.4945 13.9882 3 2.304e-17 -4.12244
5898 1 2.47278 52.4945 13.9882 3 4e-16 -4.12244
5899 1 1.64852 52.4945 11.6568 3 5.776e-17 -4.12244
5900 1 4.12131 52.4945 11.6568 3 1e-16 -4.12244
5901 1 3.29705 52.4945 9.32545 3 4e-16 -4.12244
5902 1 5.76983 52.4945 9.32545 3 0 -4.12244
5903 1 4.94557 52.4945 6.99409 3 1e-16 -4.12244
5904 1 7.41835 52.4945 6.99409 3 1e-16 -4.12244
5905 1 6.59409 52.4945 4.66273 3 0 -4.12244
5906 1 9.06687 52.4945 4.66273 3 4e-16 -4.12244
5907 1 8.24261 52.4945 2.33136 3 9.99999e-17 -4.12244
5908 1 10.7154 52.4945 2.33136 3 1e-16 -4.12244
5909 1 9.89114 52.4945 0 3 4.0507e-16 -4.12244
5910 1 12.3639 52.4945 0 3 5.07001e-18 -4.12244
5911 1 0.824261 50.4755 19.8166 3 5.776e-17 -4.12244
5912 1 0 50.4755 17.4852 3 2.304e-17 -4.12244
5913 1 2.47278 50.4755 17.4852 3 4e-16 -4.12244
5914 1 1.64852 50.4755 15.1539 3 5.776e-17 -4.12244
5915 1 4.12131 50.4755 15.1539 3 1e-16 -4.12244
5916 1 3.29705 50.4755 12.8225 3 4e-16 -4.12244
5917 1 5.76983 50.4755 12.8225 3 3.78653e-29 -4.12244
5918 1 4.94557 50.4755 10.4911 3 1e-16 -4.12244
5919 1 7.41835 50.4755 10.4911 3 1e-16 -4.12244
5920 1 6.59409 50.4755 8.15977 3 1.26218e-29 -4.12244
5921 1 9.06687 50.4755 8.15977 3 4e-16 -4.12244
5922 1 8.24261 50.4755 5.82841 3 9.99999e-17 -4.12244
5923 1 10.7154 50.4755 5.82841 3 1e-16 -4.12244
5924 1 9.89114 50.4755 3.49704 3 4e-16 -4.12244
5925 1 12.3639 50.4755 3.49704 3 7.88861e-31 -4.12244
5926 1 11.5397 50.4755 1.16568 3 1.0169e-16 -4.12244
5927 1 14.0124 50.4755 1.16568 3 1.0169e-16 -4.12244
5928 1 0.824261 48.4565 23.3136 3 5.776e-17 -4.12244
5929 1 0 48.4565 20.9823 3 2.304e-17 -4.12244
5930 1 2.47278 48.4565 20.9823 3 4e-16 -4.12244
5931 1 1.64852 48.4565 18.6509 3 5.776e-17 -4.12244
5932 1 4.12131 48.4565 18.6509 3 1e-16 -4.12244
5933 1 3.29705 48.4565 16.3195 3 4e-16 -4.12244
5934 1 5.76983 48.4565 16.3195 3 1.00974e-28 -4.12244
5935 1 4.94557 48.4565 13.9882 3 1e-16 -4.12244
5936 1 7.41835 48.4565 13.9882 3 1e-16 -4.12244
5937 1 6.59409 48.4565 11.6568 3 0 -4.12244
5938 1 9.06687 48.4565 11.6568 3 4e-16 -4.12244
5939 1 8.24261 48.4565 9.32545 3 9.99999e-17 -4.12244
5940 1 10.7154 48.4565 9.32545 3 1e-16 -4.12244
5941 1 9.89114 48.4565 6.99409 3 4e-16 -4.12244
5942 1 12.3639 48.4565 6.99409 3 0 -4.12244
5943 1 11.5397 48.4565 4.66273 3 1e-16 -4.12244
5944 1 14.0124 48.4565 4.66273 3 1e-16 -4.12244
5945 1 13.1882 48.4565 2.33136 3 0 -4.12244
5946 1 15.661 48.4565 2.33136 3 4e-16 -4.12244
5947 1 14.8367 48.4565 0 3 1.0507e-16 -4.12244
5948 1 17.3095 48.4565 0 3 1.0507e-16 -4.12244
5949 1 0.824261 46.4375 26.8107 3 5.776e-17 -4.12244
5950 1 0 46.4375 24.4793 3 2.304e-17 -4.12244
5951 1 2.47278 46.4375 24.4793 3 4e-16 -4.12244
5952 1 1.64852 46.4375 22.1479 3 5.776e-17 -4.12244
5953 1 4.12131 46.4375 22.1479 3 1e-16 -4.12244
5954 1 3.29705 46.4375 19.8166 3 4e-16 -4.12244
5955 1 5.76983 46.4375 19.8166 3 0 -4.12244
5956 1 4.94557 46.4375 17.4852 3 1e-16 -4.12244
5957 1 7.41835 46.4375 17.4852 3 1e-16 -4.12244
5958 1 6.59409 46.4375 15.1539 3 0 -4.12244
5959 1 9.06687 46.4375 15.1539 3 4e-16 -4.12244
5960 1 8.24261 46.4375 12.8225 3 9.99999e-17 -4.12244
5961 1 10.7154 46.4375 12.8225 3 1e-16 -4.12244
5962 1 9.89114 46.4375 10.4911 3 4e-16 -4.12244
5963 1 12.3639 46.4375 10.4911 3 0 -4.12244
5964 1 11.5397 46.4375 8.15977 3 1e-16 -4.12244
5965 1 14.0124 46.4375 8.15977 3 1e-16 -4.12244
5966 1 13.1882 46.4375 5.82841 3 3.15544e-30 -4.12244
5967 1 15.661 46.4375 5.82841 3 4e-16 -4.12244
5968 1 14.8367 46.4375 3.49704 3 9.99999e-17 -4.12244
5969 1 17.3095 46.4375 3.49704 3 1e-16 -4.12244
5970 1 16.4852 46.4375 1.16568 3 4.0169e-16 -4.12244
5971 1 18.958 46.4375 1.16568 3 1.69e-18 -4.12244
5972 1 0.824261 44.4184 30.3077 3 5.776e-17 -4.12244
5973 1 0 44.4184 27.9764 3 2.304e-17 -4.12244
5974 1 2.47278 44.4184 27.9764 3 4e-16 -4.12244
5975 1 1.64852 44.4184 25.645 3 5.776e-17 -4.12244
5976 1 4.12131 44.4184 25.645 3 1e-16 -4.12244
5977 1 3.29705 44.4184 23.3136 3 4e-16 -4.12244
5978 1 5.76983 44.4184 23.3136 3 0 -4.12244
5979 1 4.94557 44.4184 20.9823 3 1e-16 -4.12244
5980 1 7.41835 44.4184 20.9823 3 1e-16 -4.12244
5981 1 6.59409 44.4184 18.6509 3 0 -4.12244
5982 1 9.06687 44.4184 18.6509 3 4e-16 -4.12244
5983 1 8.24261 44.4184 16.3195 3 9.99999e-17 -4.12244
5984 1 10.7154 44.4184 16.3195 3 1e-16 -4.12244
5985 1 9.89114 44.4184 13.9882 3 4e-16 -4.12244
5986 1 12.3639 44.4184 13.9882 3 2.52435e-29 -4.12244
5987 1 11.5397 44.4184 11.6568 3 1e-16 -4.12244
5988 1 14.0124 44.4184 11.6568 3 1e-16 -4.12244
5989 1 13.1882 44.4184 9.32545 3 0 -4.12244
5990 1 15.661 44.4184 9.32545 3 4e-16 -4.12244
5991 1 14.8367 44.4184 6.99409 3 9.99999e-17 -4.12244
5992 1 17.3095 44.4184 6.99409 3 1e-16 -4.12244
5993 1 16.4852 44.4184 4.66273 3 4e-16 -4.12244
5994 1 18.958 44.4184 4.66273 3 2.01948e-28 -4.12244
5995 1 18.1337 44.4184 2.33136 3 1e-16 -4.12244
5996 1 20.6065 44.4184 2.33136 3 1e-16 -4.12244
5997 1 19.7823 44.4184 0 3 1.0507e-16 -4.12244
5998 1 22.2551 44.4184 0 3 4.0507e-16 -4.12244
5999 1 0.824261 42.3994 33.8048 3 5.776e-17 -4.12244
6000 1 0 42.3994 31.4734 3 2.304e-17 -4.12244
6001 1 2.47278 42.3994 31.4734 3 4e-16 -4.12244
6002 1 1.64852 42.3994 29.142 3 5.776e-17 -4.12244
6003 1 4.12131 42.3994 29.142 3 1e-16 -4.12244
6004 1 3.29705 42.3994 26.8107 3 4e-16 -4.12244
6005 1 5.76983 42.3994 26.8107 3 0 -4.12244
6006 1 4.94557 42.3994 24.4793 3 1e-16 -4.12244
6007 1 7.41835 42.3994 24.4793 3 1e-16 -4.12244
6008 1 6.59409 42.3994 22.1479 3 0 -4.12244
6009 1 9.06687 42.3994 22.1479 3 4e-16 -4.12244
6010 1 8.24261 42.3994 19.8166 3 9.99999e-17 -4.12244
6011 1 10.7154 42.3994 19.8166 3 1e-16 -4.12244
6012 1 9.89114 42.3994 17.4852 3 4e-16 -4.12244
6013 1 12.3639 42.3994 17.4852 3 1.00974e-28 -4.12244
6014 1 11.5397 42.3994 15.1539 3 1e-16 -4.12244
6015 1 14.0124 42.3994 15.1539 3 1e-16 -4.12244
6016 1 13.1882 42.3994 12.8225 3 3.78653e-29 -4.12244
6017 1 15.661 42.3994 12.8225 3 4e-16 -4.12244
6018 1 14.8367 42.3994 10.4911 3 9.99999e-17 -4.12244
6019 1 17.3095 42.3994 10.4911 3 1e-16 -4.12244
6020 1 16.4852 42.3994 8.15977 3 4e-16 -4.12244
6021 1 18.958 42.3994 8.15977 3 2.1457e-28 -4.12244
6022 1 18.1337 42.3994 5.82841 3 1e-16 -4.12244
6023 1 20.6065 42.3994 5.82841 3 1e-16 -4.12244
6024 1 19.7823 42.3994 3.49704 3 1e-16 -4.12244
6025 1 22.2551 42.3994 3.49704 3 4e-16 -4.12244
6026 1 21.4308 42.3994 1.16568 3 4.0169e-16 -4.12244
6027 1 23.9036 42.3994 1.16568 3 1.0169e-16 -4.12244
6028 1 0.824261 40.3804 37.3018 3 5.776e-17 -4.12244
6029 1 0 40.3804 34.9704 3 2.304e-17 -4.12244
6030 1 2.47278 40.3804 34.9704 3 4e-16 -4.12244
6031 1 1.64852 40.3804 32.6391 3 5.776e-17 -4.12244
6032 1 4.12131 40.3804 32.6391 3 1e-16 -4.12244
6033 1 3.29705 40.3804 30.3077 3 4e-16 -4.12244
6034 1 5.76983 40.3804 30.3077 3 0 -4.12244
6035 1 4.94557 40.3804 27.9764 3 1e-16 -4.12244
6036 1 7.41835 40.3804 27.9764 3 1e-16 -4.12244
6037 1 6.59409 40.3804 25.645 3 1.51461e-28 -4.12244
6038 1 9.06687 40.3804 25.645 3 4e-16 -4.12244
6039 1 8.24261 40.3804 23.3136 3 9.99999e-17 -4.12244
6040 1 10.7154 40.3804 23.3136 3 1e-16 -4.12244
6041 1 9.89114 40.3804 20.9823 3 4e-16 -4.12244
6042 1 12.3639 40.3804 20.9823 3 0 -4.12244
6043 1 11.5397 40.3804 18.6509 3 1e-16 -4.12244
6044 1 14.0124 40.3804 18.6509 3 1e-16 -4.12244
6045 1 13.1882 40.3804 16.3195 3 1.00974e-28 -4.12244
6046 1 15.661 40.3804 16.3195 3 4e-16 -4.12244
6047 1 14.8367 40.3804 13.9882 3 9.99999e-17 -4.12244
6048 1 17.3095 40.3804 13.9882 3 1e-16 -4.12244
6049 1 16.4852 40.3804 11.6568 3 4e-16 -4.12244
6050 1 18.958 40.3804 11.6568 3 2.01948e-28 -4.12244
6051 1 18.1337 40.3804 9.32545 3 1e-16 -4.12244
6052 1 20.6065 40.3804 9.32545 3 1e-16 -4.12244
6053 1 19.7823 40.3804 6.99409 3 1e-16 -4.12244
6054 1 22.2551 40.3804 6.99409 3 4e-16 -4.12244
6055 1 21.4308 40.3804 4.66273 3 4e-16 -4.12244
6056 1 23.9036 40.3804 4.66273 3 1e-16 -4.12244
6057 1 23.0793 40.3804 2.33136 3 1e-16 -4.12244
6058 1 25.5521 40.3804 2.33136 3 1.51461e-28 -4.12244
6059 1 24.7278 40.3804 0 3 5.07001e-18 -4.12244
6060 1 27.2006 40.3804 0 3 1.0507e-16 -4.12244
6061 1 0.824261 38.3614 40.7989 3 5.776e-17 -4.12244
6062 1 0 38.3614 38.4675 3 2.304e-17 -4.12244
6063 1 2.47278 38.3614 38.4675 3 4e-16 -4.12244
6064 1 1.64852 38.3614 36.1361 3 5.776e-17 -4.12244
6065 1 4.12131 38.3614 36.1361 3 1e-16 -4.12244
6066 1 3.29705 38.3614 33.8048 3 4e-16 -4.12244
6067 1 5.76983 38.3614 33.8048 3 0 -4.12244
6068 1 4.94557 38.3614 31.4734 3 1e-16 -4.12244
6069 1 7.41835 38.3614 31.4734 3 1e-16 -4.12244
6070 1 6.59409 38.3614 29.142 3 1.51461e-28 -4.12244
6071 1 9.06687 38.3614 29.142 3 4e-16 -4.12244
6072 1 8.24261 38.3614 26.8107 3 9.99999e-17 -4.12244
6073 1 10.7154 38.3614 26.8107 3 1e-16 -4.12244
6074 1 9.89114 38.3614 24.4793 3 4e-16 -4.12244
6075 1 12.3639 38.3614 24.4793 3 1.00974e-28 -4.12244
6076 1 11.5397 38.3614 22.1479 3 1e-16 -4.12244
6077 1 14.0124 38.3614 22.1479 3 1e-16 -4.12244
6078 1 13.1882 38.3614 19.8166 3 0 -4.12244
6079 1 15.661 38.3614 19.8166 3 4e-16 -4.12244
6080 1 14.8367 38.3614 17.4852 3 9.99999e-17 -4.12244
6081 1 17.3095 38.3614 17.4852 3 1e-16 -4.12244
6082 1 16.4852 38.3614 15.1539 3 4e-16 -4.12244
6083 1 18.958 38.3614 15.1539 3 2.01948e-28 -4.12244
6084 1 18.1337 38.3614 12.8225 3 1e-16 -4.12244
6085 1 20.6065 38.3614 12.8225 3 1e-16 -4.12244
6086 1 19.7823 38.3614 10.4911 3 1e-16 -4.12244
6087 1 22.2551 38.3614 10.4911 3 4e-16 -4.12244
6088 1 21.4308 38.3614 8.15977 3 4e-16 -4.12244
6089 1 23.9036 38.3614 8.15977 3 1e-16 -4.12244
6090 1 23.0793 38.3614 5.82841 3 1e-16 -4.12244
6091 1 25.5521 38.3614 5.82841 3 1.54617e-28 -4.12244
6092 1 24.7278 38.3614 3.49704 3 7.88861e-31 -4.12244
6093 1 27.2006 38.3614 3.49704 3 1e-16 -4.12244
6094 1 26.3764 38.3614 1.16568 3 1.0169e-16 -4.12244
6095 1 28.8491 38.3614 1.16568 3 4.0169e-16 -4.12244
6096 1 0.824261 36.3424 44.2959 3 5.776e-17 -4.12244
6097 1 0 36.3424 41.9645 3 2.304e-17 -4.12244
6098 1 2.47278 36.3424 41.9645 3 4e-16 -4.12244
6099 1 1.64852 36.3424 39.6332 3 5.776e-17 -4.12244
6100 1 4.12131 36.3424 39.6332 3 1e-16 -4.12244
6101 1 3.29705 36.3424 37.3018 3 4e-16 -4.12244
6102 1 5.76983 36.3424 37.3018 3 0 -4.12244
6103 1 4.94557 36.3424 34.9704 3 1e-16 -4.12244
6104 1 7.41835 36.3424 34.9704 3 1e-16 -4.12244
6105 1 6.59409 36.3424 32.6391 3 2.01948e-28 -4.12244
6106 1 9.06687 36.3424 32.6391 3 4e-16 -4.12244
6107 1 8.24261 36.3424 30.3077 3 9.99999e-17 -4.12244
6108 1 10.7154 36.3424 30.3077 3 1e-16 -4.12244
6109 1 9.89114 36.3424 27.9764 3 4e-16 -4.12244
6110 1 12.3639 36.3424 27.9764 3 1.51461e-28 -4.12244
6111 1 11.5397 36.3424 25.645 3 1e-16 -4.12244
6112 1 14.0124 36.3424 25.645 3 1e-16 -4.12244
6113 1 13.1882 36.3424 23.3136 3 0 -4.12244
6114 1 15.661 36.3424 23.3136 3 4e-16 -4.12244
6115 1 14.8367 36.3424 20.9823 3 9.99999e-17 -4.12244
6116 1 17.3095 36.3424 20.9823 3 1e-16 -4.12244
6117 1 16.4852 36.3424 18.6509 3 4e-16 -4.12244
6118 1 18.958 36.3424 18.6509 3 2.01948e-28 -4.12244
6119 1 18.1337 36.3424 16.3195 3 1e-16 -4.12244
6120 1 20.6065 36.3424 16.3195 3 1e-16 -4.12244
6121 1 19.7823 36.3424 13.9882 3 1e-16 -4.12244
6122 1 22.2551 36.3424 13.9882 3 4e-16 -4.12244
6123 1 21.4308 36.3424 11.6568 3 4e-16 -4.12244
6124 1 23.9036 36.3424 11.6568 3 1e-16 -4.12244
6125 1 23.0793 36.3424 9.32545 3 1e-16 -4.12244
6126 1 25.5521 36.3424 9.32545 3 1.51461e-28 -4.12244
6127 1 24.7278 36.3424 6.99409 3 0 -4.12244
6128 1 27.2006 36.3424 6.99409 3 1e-16 -4.12244
6129 1 26.3764 36.3424 4.66273 3 1e-16 -4.12244
6130 1 28.8491 36.3424 4.66273 3 4e-16 -4.12244
6131 1 28.0249 36.3424 2.33136 3 3.99999e-16 -4.12244
6132 1 30.4977 36.3424 2.33136 3 9.99999e-17 -4.12244
6133 1 29.6734 36.3424 0 3 1.0507e-16 -4.12244
6134 1 32.1462 36.3424 0 3 1.0507e-16 -4.12244
6135 1 0.824261 34.3233 47.7929 3 6.28299e-17 -4.12244
6136 1 0 34.3233 45.4616 3 2.304e-17 -4.12244
6137 1 2.47278 34.3233 45.4616 3 4e-16 -4.12244
6138 1 1.64852 34.3233 43.1302 3 5.776e-17 -4.12244
6139 1 4.12131 34.3233 43.1302 3 1e-16 -4.12244
6140 1 3.29705 34.3233 40.7989 3 4e-16 -4.12244
6141 1 5.76983 34.3233 40.7989 3 6.05845e-28 -4.12244
6142 1 4.94557 34.3233 38.4675 3 1e-16 -4.12244
6143 1 7.41835 34.3233 38.4675 3 1e-16 -4.12244
6144 1 6.59409 34.3233 36.1361 3 6.05845e-28 -4.12244
6145 1 9.06687 34.3233 36.1361 3 4e-16 -4.12244
6146 1 8.24261 34.3233 33.8048 3 9.99999e-17 -4.12244
6147 1 10.7154 34.3233 33.8048 3 1e-16 -4.12244
6148 1 9.89114 34.3233 31.4734 3 4e-16 -4.12244
6149 1 12.3639 34.3233 31.4734 3 5.04871e-29 -4.12244
6150 1 11.5397 34.3233 29.142 3 1e-16 -4.12244
6151 1 14.0124 34.3233 29.142 3 1e-16 -4.12244
6152 1 13.1882 34.3233 26.8107 3 0 -4.12244
6153 1 15.661 34.3233 26.8107 3 4e-16 -4.12244
6154 1 14.8367 34.3233 24.4793 3 9.99999e-17 -4.12244
6155 1 17.3095 34.3233 24.4793 3 1e-16 -4.12244
6156 1 16.4852 34.3233 22.1479 3 4e-16 -4.12244
6157 1 18.958 34.3233 22.1479 3 2.01948e-28 -4.12244
6158 1 18.1337 34.3233 19.8166 3 1e-16 -4.12244
6159 1 20.6065 34.3233 19.8166 3 1e-16 -4.12244
6160 1 19.7823 34.3233 17.4852 3 1e-16 -4.12244
6161 1 22.2551 34.3233 17.4852 3 4e-16 -4.12244
6162 1 21.4308 34.3233 15.1539 3 4e-16 -4.12244
6163 1 23.9036 34.3233 15.1539 3 1e-16 -4.12244
6164 1 23.0793 34.3233 12.8225 3 1e-16 -4.12244
6165 1 25.5521 34.3233 12.8225 3 1.89327e-28 -4.12244
6166 1 24.7278 34.3233 10.4911 3 0 -4.12244
6167 1 27.2006 34.3233 10.4911 3 1e-16 -4.12244
6168 1 26.3764 34.3233 8.15977 3 1e-16 -4.12244
6169 1 28.8491 34.3233 8.15977 3 4e-16 -4.12244
6170 1 28.0249 34.3233 5.82841 3 3.99999e-16 -4.12244
6171 1 30.4977 34.3233 5.82841 3 9.99999e-17 -4.12244
6172 1 29.6734 34.3233 3.49704 3 1e-16 -4.12244
6173 1 32.1462 34.3233 3.49704 3 9.99999e-17 -4.12244
6174 1 31.3219 34.3233 1.16568 3 1.69e-18 -4.12244
6175 1 33.7947 34.3233 1.16568 3 4.01691e-16 -4.12244
6176 1 1.64852 32.3043 46.6273 3 5.945e-17 -4.12244
6177 1 4.12131 32.3043 46.6273 3 1.0169e-16 -4.12244
6178 1 3.29705 32.3043 44.2959 3 4e-16 -4.12244
6179 1 5.76983 32.3043 44.2959 3 0 -4.12244
6180 1 4.94557 32.3043 41.9645 3 1e-16 -4.12244
6181 1 7.41835 32.3043 41.9645 3 1e-16 -4.12244
6182 1 6.59409 32.3043 39.6332 3 0 -4.12244
6183 1 9.06687 32.3043 39.6332 3 4e-16 -4.12244
6184 1 8.24261 32.3043 37.3018 3 9.99999e-17 -4.12244
6185 1 10.7154 32.3043 37.3018 3 1e-16 -4.12244
6186 1 9.89114 32.3043 34.9704 3 4e-16 -4.12244
6187 1 12.3639 32.3043 34.9704 3 2.01948e-28 -4.12244
6188 1 11.5397 32.3043 32.6391 3 1e-16 -4.12244
6189 1 14.0124 32.3043 32.6391 3 1e-16 -4.12244
6190 1 13.1882 32.3043 30.3077 3 0 -4.12244
6191 1 15.661 32.3043 30.3077 3 4e-16 -4.12244
6192 1 14.8367 32.3043 27.9764 3 9.99999e-17 -4.12244
6193 1 17.3095 32.3043 27.9764 3 1e-16 -4.12244
6194 1 16.4852 32.3043 25.645 3 4e-16 -4.12244
6195 1 18.958 32.3043 25.645 3 3.5341e-28 -4.12244
6196 1 18.1337 32.3043 23.3136 3 1e-16 -4.12244
6197 1 20.6065 32.3043 23.3136 3 1e-16 -4.12244
6198 1 19.7823 32.3043 20.9823 3 1e-16 -4.12244
6199 1 22.2551 32.3043 20.9823 3 4e-16 -4.12244
6200 1 21.4308 32.3043 18.6509 3 4e-16 -4.12244
6201 1 23.9036 32.3043 18.6509 3 1e-16 -4.12244
6202 1 23.0793 32.3043 16.3195 3 1e-16 -4.12244
6203 1 25.5521 32.3043 16.3195 3 2.52435e-28 -4.12244
6204 1 24.7278 32.3043 13.9882 3 2.52435e-29 -4.12244
6205 1 27.2006 32.3043 13.9882 3 1e-16 -4.12244
6206 1 26.3764 32.3043 11.6568 3 1e-16 -4.12244
6207 1 28.8491 32.3043 11.6568 3 4e-16 -4.12244
6208 1 28.0249 32.3043 9.32545 3 3.99999e-16 -4.12244
6209 1 30.4977 32.3043 9.32545 3 9.99999e-17 -4.12244
6210 1 29.6734 32.3043 6.99409 3 1e-16 -4.12244
6211 1 32.1462 32.3043 6.99409 3 9.99999e-17 -4.12244
6212 1 31.3219 32.3043 4.66273 3 0 -4.12244
6213 1 33.7947 32.3043 4.66273 3 4.00001e-16 -4.12244
6214 1 32.9705 32.3043 2.33136 3 9.99999e-17 -4.12244
6215 1 35.4432 32.3043 2.33136 3 1e-16 -4.12244
6216 1 34.619 32.3043 0 3 4.0507e-16 -4.12244
6217 1 37.0918 32.3043 0 3 5.07001e-18 -4.12244
6218 1 3.29705 30.2853 47.7929 3 4.0507e-16 -4.12244
6219 1 5.76983 30.2853 47.7929 3 5.06996e-18 -4.12244
6220 1 4.94557 30.2853 45.4616 3 1e-16 -4.12244
6221 1 7.41835 30.2853 45.4616 3 1e-16 -4.12244
6222 1 6.59409 30.2853 43.1302 3 7.06819e-28 -4.12244
6223 1 9.06687 30.2853 43.1302 3 4e-16 -4.12244
6224 1 8.24261 30.2853 40.7989 3 9.99999e-17 -4.12244
6225 1 10.7154 30.2853 40.7989 3 1e-16 -4.12244
6226 1 9.89114 30.2853 38.4675 3 4e-16 -4.12244
6227 1 12.3639 30.2853 38.4675 3 1.00974e-28 -4.12244
6228 1 11.5397 30.2853 36.1361 3 1e-16 -4.12244
6229 1 14.0124 30.2853 36.1361 3 1e-16 -4.12244
6230 1 13.1882 30.2853 33.8048 3 1.00974e-28 -4.12244
6231 1 15.661 30.2853 33.8048 3 4e-16 -4.12244
6232 1 14.8367 30.2853 31.4734 3 9.99999e-17 -4.12244
6233 1 17.3095 30.2853 31.4734 3 1e-16 -4.12244
6234 1 16.4852 30.2853 29.142 3 4e-16 -4.12244
6235 1 18.958 30.2853 29.142 3 4.54384e-28 -4.12244
6236 1 18.1337 30.2853 26.8107 3 1e-16 -4.12244
6237 1 20.6065 30.2853 26.8107 3 1e-16 -4.12244
6238 1 19.7823 30.2853 24.4793 3 1e-16 -4.12244
6239 1 22.2551 30.2853 24.4793 3 4e-16 -4.12244
6240 1 21.4308 30.2853 22.1479 3 4e-16 -4.12244
6241 1 23.9036 30.2853 22.1479 3 1e-16 -4.12244
6242 1 23.0793 30.2853 19.8166 3 1e-16 -4.12244
6243 1 25.5521 30.2853 19.8166 3 2.52435e-28 -4.12244
6244 1 24.7278 30.2853 17.4852 3 2.01948e-28 -4.12244
6245 1 27.2006 30.2853 17.4852 3 1e-16 -4.12244
6246 1 26.3764 30.2853 15.1539 3 1e-16 -4.12244
6247 1 28.8491 30.2853 15.1539 3 4e-16 -4.12244
6248 1 28.0249 30.2853 12.8225 3 3.99999e-16 -4.12244
6249 1 30.4977 30.2853 12.8225 3 9.99999e-17 -4.12244
6250 1 29.6734 30.2853 10.4911 3 1e-16 -4.12244
6251 1 32.1462 30.2853 10.4911 3 9.99999e-17 -4.12244
6252 1 31.3219 30.2853 8.15977 3 1.13596e-28 -4.12244
6253 1 33.7947 30.2853 8.15977 3 4.00001e-16 -4.12244
6254 1 32.9705 30.2853 5.82841 3 9.99999e-17 -4.12244
6255 1 35.4432 30.2853 5.82841 3 1e-16 -4.12244
6256 1 34.619 30.2853 3.49704 3 4e-16 -4.12244
6257 1 37.0918 30.2853 3.49704 3 1.01763e-28 -4.12244
6258 1 36.2675 30.2853 1.16568 3 1.0169e-16 -4.12244
6259 1 38.7403 30.2853 1.16568 3 1.0169e-16 -4.12244
6260 1 6.59409 28.2663 46.6273 3 1.69002e-18 -4.12244
6261 1 9.06687 28.2663 46.6273 3 4.0169e-16 -4.12244
6262 1 8.24261 28.2663 44.2959 3 9.99999e-17 -4.12244
6263 1 10.7154 28.2663 44.2959 3 1e-16 -4.12244
6264 1 9.89114 28.2663 41.9645 3 4e-16 -4.12244
6265 1 12.3639 28.2663 41.9645 3 0 -4.12244
6266 1 11.5397 28.2663 39.6332 3 1e-16 -4.12244
6267 1 14.0124 28.2663 39.6332 3 1e-16 -4.12244
6268 1 13.1882 28.2663 37.3018 3 0 -4.12244
6269 1 15.661 28.2663 37.3018 3 4e-16 -4.12244
6270 1 14.8367 28.2663 34.9704 3 9.99999e-17 -4.12244
6271 1 17.3095 28.2663 34.9704 3 1e-16 -4.12244
6272 1 16.4852 28.2663 32.6391 3 4e-16 -4.12244
6273 1 18.958 28.2663 32.6391 3 4.03897e-28 -4.12244
6274 1 18.1337 28.2663 30.3077 3 1e-16 -4.12244
6275 1 20.6065 28.2663 30.3077 3 1e-16 -4.12244
6276 1 19.7823 28.2663 27.9764 3 1e-16 -4.12244
6277 1 22.2551 28.2663 27.9764 3 4e-16 -4.12244
6278 1 21.4308 28.2663 25.645 3 4e-16 -4.12244
6279 1 23.9036 28.2663 25.645 3 1e-16 -4.12244
6280 1 23.0793 28.2663 23.3136 3 1e-16 -4.12244
6281 1 25.5521 28.2663 23.3136 3 1.51461e-28 -4.12244
6282 1 24.7278 28.2663 20.9823 3 0 -4.12244
6283 1 27.2006 28.2663 20.9823 3 1e-16 -4.12244
6284 1 26.3764 28.2663 18.6509 3 1e-16 -4.12244
6285 1 28.8491 28.2663 18.6509 3 4e-16 -4.12244
6286 1 28.0249 28.2663 16.3195 3 3.99999e-16 -4.12244
6287 1 30.4977 28.2663 16.3195 3 9.99999e-17 -4.12244
6288 1 29.6734 28.2663 13.9882 3 1e-16 -4.12244
6289 1 32.1462 28.2663 13.9882 3 9.99999e-17 -4.12244
6290 1 31.3219 28.2663 11.6568 3 0 -4.12244
6291 1 33.7947 28.2663 11.6568 3 4.00001e-16 -4.12244
6292 1 32.9705 28.2663 9.32545 3 9.99999e-17 -4.12244
6293 1 35.4432 28.2663 9.32545 3 1e-16 -4.12244
6294 1 34.619 28.2663 6.99409 3 4e-16 -4.12244
6295 1 37.0918 28.2663 6.99409 3 0 -4.12244
6296 1 36.2675 28.2663 4.66273 3 1e-16 -4.12244
6297 1 38.7403 28.2663 4.66273 3 1e-16 -4.12244
6298 1 37.916 28.2663 2.33136 3 8.07794e-28 -4.12244
6299 1 40.3888 28.2663 2.33136 3 3.99999e-16 -4.12244
6300 1 39.5645 28.2663 0 3 1.0507e-16 -4.12244
6301 1 42.0373 28.2663 0 3 1.0507e-16 -4.12244
6302 1 8.24261 26.2473 47.7929 3 1.0507e-16 -4.12244
6303 1 10.7154 26.2473 47.7929 3 1.0507e-16 -4.12244
6304 1 9.89114 26.2473 45.4616 3 4e-16 -4.12244
6305 1 12.3639 26.2473 45.4616 3 1.00974e-28 -4.12244
6306 1 11.5397 26.2473 43.1302 3 1e-16 -4.12244
6307 1 14.0124 26.2473 43.1302 3 1e-16 -4.12244
6308 1 13.1882 26.2473 40.7989 3 7.06819e-28 -4.12244
6309 1 15.661 26.2473 40.7989 3 4e-16 -4.12244
6310 1 14.8367 26.2473 38.4675 3 9.99999e-17 -4.12244
6311 1 17.3095 26.2473 38.4675 3 1e-16 -4.12244
6312 1 16.4852 26.2473 36.1361 3 4e-16 -4.12244
6313 1 18.958 26.2473 36.1361 3 9.08768e-28 -4.12244
6314 1 18.1337 26.2473 33.8048 3 1e-16 -4.12244
6315 1 20.6065 26.2473 33.8048 3 1e-16 -4.12244
6316 1 19.7823 26.2473 31.4734 3 1e-16 -4.12244
6317 1 22.2551 26.2473 31.4734 3 4e-16 -4.12244
6318 1 21.4308 26.2473 29.142 3 4e-16 -4.12244
6319 1 23.9036 26.2473 29.142 3 1e-16 -4.12244
6320 1 23.0793 26.2473 26.8107 3 1e-16 -4.12244
6321 1 25.5521 26.2473 26.8107 3 2.52435e-28 -4.12244
6322 1 24.7278 26.2473 24.4793 3 2.01948e-28 -4.12244
6323 1 27.2006 26.2473 24.4793 3 1e-16 -4.12244
6324 1 26.3764 26.2473 22.1479 3 1e-16 -4.12244
6325 1 28.8491 26.2473 22.1479 3 4e-16 -4.12244
6326 1 28.0249 26.2473 19.8166 3 3.99999e-16 -4.12244
6327 1 30.4977 26.2473 19.8166 3 9.99999e-17 -4.12244
6328 1 29.6734 26.2473 17.4852 3 1e-16 -4.12244
6329 1 32.1462 26.2473 17.4852 3 9.99999e-17 -4.12244
6330 1 31.3219 26.2473 15.1539 3 1.00974e-28 -4.12244
6331 1 33.7947 26.2473 15.1539 3 4.00001e-16 -4.12244
6332 1 32.9705 26.2473 12.8225 3 9.99999e-17 -4.12244
6333 1 35.4432 26.2473 12.8225 3 1e-16 -4.12244
6334 1 34.619 26.2473 10.4911 3 4e-16 -4.12244
6335 1 37.0918 26.2473 10.4911 3 1.00974e-28 -4.12244
6336 1 36.2675 26.2473 8.15977 3 1e-16 -4.12244
6337 1 38.7403 26.2473 8.15977 3 1e-16 -4.12244
6338 1 37.916 26.2473 5.82841 3 9.11923e-28 -4.12244
6339 1 40.3888 26.2473 5.82841 3 3.99999e-16 -4.12244
6340 1 39.5645 26.2473 3.49704 3 1e-16 -4.12244
6341 1 42.0373 26.2473 3.49704 3 1e-16 -4.12244
6342 1 41.2131 26.2473 1.16568 3 4.01691e-16 -4.12244
6343 1 43.6859 26.2473 1.16568 3 1.69e-18 -4.12244
6344 1 11.5397 24.2282 46.6273 3 1.0169e-16 -4.12244
6345 1 14.0124 24.2282 46.6273 3 1.0169e-16 -4.12244
6346 1 13.1882 24.2282 44.2959 3 0 -4.12244
6347 1 15.661 24.2282 44.2959 3 4e-16 -4.12244
6348 1 14.8367 24.2282 41.9645 3 9.99999e-17 -4.12244
6349 1 17.3095 24.2282 41.9645 3 1e-16 -4.12244
6350 1 16.4852 24.2282 39.6332 3 4e-16 -4.12244
6351 1 18.958 24.2282 39.6332 3 2.01948e-28 -4.12244
6352 1 18.1337 24.2282 37.3018 3 1e-16 -4.12244
6353 1 20.6065 24.2282 37.3018 3 1e-16 -4.12244
6354 1 19.7823 24.2282 34.9704 3 1e-16 -4.12244
6355 1 22.2551 24.2282 34.9704 3 4e-16 -4.12244
6356 1 21.4308 24.2282 32.6391 3 4e-16 -4.12244
6357 1 23.9036 24.2282 32.6391 3 1e-16 -4.12244
6358 1 23.0793 24.2282 30.3077 3 1e-16 -4.12244
6359 1 25.5521 24.2282 30.3077 3 1.51461e-28 -4.12244
6360 1 24.7278 24.2282 27.9764 3 1.51461e-28 -4.12244
6361 1 27.2006 24.2282 27.9764 3 1e-16 -4.12244
6362 1 26.3764 24.2282 25.645 3 1e-16 -4.12244
6363 1 28.8491 24.2282 25.645 3 4e-16 -4.12244
6364 1 28.0249 24.2282 23.3136 3 3.99999e-16 -4.12244
6365 1 30.4977 24.2282 23.3136 3 9.99999e-17 -4.12244
6366 1 29.6734 24.2282 20.9823 3 1e-16 -4.12244
6367 1 32.1462 24.2282 20.9823 3 9.99999e-17 -4.12244
6368 1 31.3219 24.2282 18.6509 3 0 -4.12244
6369 1 33.7947 24.2282 18.6509 3 4.00001e-16 -4.12244
6370 1 32.9705 24.2282 16.3195 3 9.99999e-17 -4.12244
6371 1 35.4432 24.2282 16.3195 3 1e-16 -4.12244
6372 1 34.619 24.2282 13.9882 3 4e-16 -4.12244
6373 1 37.0918 24.2282 13.9882 3 2.52435e-29 -4.12244
6374 1 36.2675 24.2282 11.6568 3 1e-16 -4.12244
6375 1 38.7403 24.2282 11.6568 3 1e-16 -4.12244
6376 1 37.916 24.2282 9.32545 3 8.07794e-28 -4.12244
6377 1 40.3888 24.2282 9.32545 3 3.99999e-16 -4.12244
6378 1 39.5645 24.2282 6.99409 3 1e-16 -4.12244
6379 1 42.0373 24.2282 6.99409 3 1e-16 -4.12244
6380 1 41.2131 24.2282 4.66273 3 4.00001e-16 -4.12244
6381 1 43.6859 24.2282 4.66273 3 2.01948e-28 -4.12244
6382 1 42.8616 24.2282 2.33136 3 9.99999e-17 -4.12244
6383 1 45.3344 24.2282 2.33136 3 9.99999e-17 -4.12244
6384 1 44.5101 24.2282 0 3 5.07001e-18 -4.12244
6385 1 46.9829 24.2282 0 3 4.0507e-16 -4.12244
6386 1 13.1882 22.2092 47.7929 3 5.06996e-18 -4.12244
6387 1 15.661 22.2092 47.7929 3 4.0507e-16 -4.12244
6388 1 14.8367 22.2092 45.4616 3 9.99999e-17 -4.12244
6389 1 17.3095 22.2092 45.4616 3 1e-16 -4.12244
6390 1 16.4852 22.2092 43.1302 3 4e-16 -4.12244
6391 1 18.958 22.2092 43.1302 3 8.07794e-28 -4.12244
6392 1 18.1337 22.2092 40.7989 3 1e-16 -4.12244
6393 1 20.6065 22.2092 40.7989 3 1e-16 -4.12244
6394 1 19.7823 22.2092 38.4675 3 1e-16 -4.12244
6395 1 22.2551 22.2092 38.4675 3 4e-16 -4.12244
6396 1 21.4308 22.2092 36.1361 3 4e-16 -4.12244
6397 1 23.9036 22.2092 36.1361 3 1e-16 -4.12244
6398 1 23.0793 22.2092 33.8048 3 1e-16 -4.12244
6399 1 25.5521 22.2092 33.8048 3 1.51461e-28 -4.12244
6400 1 24.7278 22.2092 31.4734 3 5.04871e-29 -4.12244
6401 1 27.2006 22.2092 31.4734 3 1e-16 -4.12244
6402 1 26.3764 22.2092 29.142 3 1e-16 -4.12244
6403 1 28.8491 22.2092 29.142 3 4e-16 -4.12244
6404 1 28.0249 22.2092 26.8107 3 3.99999e-16 -4.12244
6405 1 30.4977 22.2092 26.8107 3 9.99999e-17 -4.12244
6406 1 29.6734 22.2092 24.4793 3 1e-16 -4.12244
6407 1 32.1462 22.2092 24.4793 3 9.99999e-17 -4.12244
6408 1 31.3219 22.2092 22.1479 3 0 -4.12244
6409 1 33.7947 22.2092 22.1479 3 4.00001e-16 -4.12244
6410 1 32.9705 22.2092 19.8166 3 9.99999e-17 -4.12244
6411 1 35.4432 22.2092 19.8166 3 1e-16 -4.12244
6412 1 34.619 22.2092 17.4852 3 4e-16 -4.12244
6413 1 37.0918 22.2092 17.4852 3 1.00974e-28 -4.12244
6414 1 36.2675 22.2092 15.1539 3 1e-16 -4.12244
6415 1 38.7403 22.2092 15.1539 3 1e-16 -4.12244
6416 1 37.916 22.2092 12.8225 3 8.45659e-28 -4.12244
6417 1 40.3888 22.2092 12.8225 3 3.99999e-16 -4.12244
6418 1 39.5645 22.2092 10.4911 3 1e-16 -4.12244
6419 1 42.0373 22.2092 10.4911 3 1e-16 -4.12244
6420 1 41.2131 22.2092 8.15977 3 4.00001e-16 -4.12244
6421 1 43.6859 22.2092 8.15977 3 2.1457e-28 -4.12244
6422 1 42.8616 22.2092 5.82841 3 9.99999e-17 -4.12244
6423 1 45.3344 22.2092 5.82841 3 9.99999e-17 -4.12244
6424 1 44.5101 22.2092 3.49704 3 2.02737e-28 -4.12244
6425 1 46.9829 22.2092 3.49704 3 3.99999e-16 -4.12244
6426 1 46.1586 22.2092 1.16568 3 1.0169e-16 -4.12244
6427 1 48.6314 22.2092 1.16568 3 1.0169e-16 -4.12244
6428 1 16.4852 20.1902 46.6273 3 4.0169e-16 -4.12244
6429 1 18.958 20.1902 46.6273 3 1.69002e-18 -4.12244
6430 1 18.1337 20.1902 44.2959 3 1e-16 -4.12244
6431 1 20.6065 20.1902 44.2959 3 1e-16 -4.12244
6432 1 19.7823 20.1902 41.9645 3 1e-16 -4.12244
6433 1 22.2551 20.1902 41.9645 3 4e-16 -4.12244
6434 1 21.4308 20.1902 39.6332 3 4e-16 -4.12244
6435 1 23.9036 20.1902 39.6332 3 1e-16 -4.12244
6436 1 23.0793 20.1902 37.3018 3 1e-16 -4.12244
6437 1 25.5521 20.1902 37.3018 3 1.51461e-28 -4.12244
6438 1 24.7278 20.1902 34.9704 3 2.01948e-28 -4.12244
6439 1 27.2006 20.1902 34.9704 3 1e-16 -4.12244
6440 1 26.3764 20.1902 32.6391 3 1e-16 -4.12244
6441 1 28.8491 20.1902 32.6391 3 4e-16 -4.12244
6442 1 28.0249 20.1902 30.3077 3 3.99999e-16 -4.12244
6443 1 30.4977 20.1902 30.3077 3 9.99999e-17 -4.12244
6444 1 29.6734 20.1902 27.9764 3 1e-16 -4.12244
6445 1 32.1462 20.1902 27.9764 3 9.99999e-17 -4.12244
6446 1 31.3219 20.1902 25.645 3 1.51461e-28 -4.12244
6447 1 33.7947 20.1902 25.645 3 4.00001e-16 -4.12244
6448 1 32.9705 20.1902 23.3136 3 9.99999e-17 -4.12244
6449 1 35.4432 20.1902 23.3136 3 1e-16 -4.12244
6450 1 34.619 20.1902 20.9823 3 4e-16 -4.12244
6451 1 37.0918 20.1902 20.9823 3 0 -4.12244
6452 1 36.2675 20.1902 18.6509 3 1e-16 -4.12244
6453 1 38.7403 20.1902 18.6509 3 1e-16 -4.12244
6454 1 37.916 20.1902 16.3195 3 9.08768e-28 -4.12244
6455 1 40.3888 20.1902 16.3195 3 3.99999e-16 -4.12244
6456 1 39.5645 20.1902 13.9882 3 1e-16 -4.12244
6457 1 42.0373 20.1902 13.9882 3 1e-16 -4.12244
6458 1 41.2131 20.1902 11.6568 3 4.00001e-16 -4.12244
6459 1 43.6859 20.1902 11.6568 3 2.01948e-28 -4.12244
6460 1 42.8616 20.1902 9.32545 3 9.99999e-17 -4.12244
6461 1 45.3344 20.1902 9.32545 3 9.99999e-17 -4.12244
6462 1 44.5101 20.1902 6.99409 3 2.01948e-28 -4.12244
6463 1 46.9829 20.1902 6.99409 3 3.99999e-16 -4.12244
6464 1 46.1586 20.1902 4.66273 3 9.99999e-17 -4.12244
6465 1 48.6314 20.1902 4.66273 3 9.99999e-17 -4.12244
6466 1 47.8072 20.1902 2.33136 3 3.99999e-16 -4.12244
6467 1 50.2799 20.1902 2.33136 3 2.01948e-28 -4.12244
6468 1 49.4557 20.1902 0 3 1.0507e-16 -4.12244
6469 1 51.9285 20.1902 0 3 1.0507e-16 -4.12244
6470 1 18.1337 18.1712 47.7929 3 1.0507e-16 -4.12244
6471 1 20.6065 18.1712 47.7929 3 1.0507e-16 -4.12244
6472 1 19.7823 18.1712 45.4616 3 1e-16 -4.12244
6473 1 22.2551 18.1712 45.4616 3 4e-16 -4.12244
6474 1 21.4308 18.1712 43.1302 3 4e-16 -4.12244
6475 1 23.9036 18.1712 43.1302 3 1e-16 -4.12244
6476 1 23.0793 18.1712 40.7989 3 1e-16 -4.12244
6477 1 25.5521 18.1712 40.7989 3 8.58281e-28 -4.12244
6478 1 24.7278 18.1712 38.4675 3 1.00974e-28 -4.12244
6479 1 27.2006 18.1712 38.4675 3 1e-16 -4.12244
6480 1 26.3764 18.1712 36.1361 3 1e-16 -4.12244
6481 1 28.8491 18.1712 36.1361 3 4e-16 -4.12244
6482 1 28.0249 18.1712 33.8048 3 3.99999e-16 -4.12244
6483 1 30.4977 18.1712 33.8048 3 9.99999e-17 -4.12244
6484 1 29.6734 18.1712 31.4734 3 1e-16 -4.12244
6485 1 32.1462 18.1712 31.4734 3 9.99999e-17 -4.12244
6486 1 31.3219 18.1712 29.142 3 2.52435e-28 -4.12244
6487 1 33.7947 18.1712 29.142 3 4.00001e-16 -4.12244
6488 1 32.9705 18.1712 26.8107 3 9.99999e-17 -4.12244
6489 1 35.4432 18.1712 26.8107 3 1e-16 -4.12244
6490 1 34.619 18.1712 24.4793 3 4e-16 -4.12244
6491 1 37.0918 18.1712 24.4793 3 2.01948e-28 -4.12244
6492 1 36.2675 18.1712 22.1479 3 1e-16 -4.12244
6493 1 38.7403 18.1712 22.1479 3 1e-16 -4.12244
6494 1 37.916 18.1712 19.8166 3 9.08768e-28 -4.12244
6495 1 40.3888 18.1712 19.8166 3 3.99999e-16 -4.12244
6496 1 39.5645 18.1712 17.4852 3 1e-16 -4.12244
6497 1 42.0373 18.1712 17.4852 3 1e-16 -4.12244
6498 1 41.2131 18.1712 15.1539 3 4.00001e-16 -4.12244
6499 1 43.6859 18.1712 15.1539 3 3.02923e-28 -4.12244
6500 1 42.8616 18.1712 12.8225 3 9.99999e-17 -4.12244
6501 1 45.3344 18.1712 12.8225 3 9.99999e-17 -4.12244
6502 1 44.5101 18.1712 10.4911 3 3.02923e-28 -4.12244
6503 1 46.9829 18.1712 10.4911 3 3.99999e-16 -4.12244
6504 1 46.1586 18.1712 8.15977 3 9.99999e-17 -4.12244
6505 1 48.6314 18.1712 8.15977 3 9.99999e-17 -4.12244
6506 1 47.8072 18.1712 5.82841 3 3.99999e-16 -4.12244
6507 1 50.2799 18.1712 5.82841 3 3.06078e-28 -4.12244
6508 1 49.4557 18.1712 3.49704 3 9.99999e-17 -4.12244
6509 1 51.9285 18.1712 3.49704 3 1e-16 -4.12244
6510 1 51.1042 18.1712 1.16568 3 1.0169e-16 -4.12244
6511 1 53.577 18.1712 1.16568 3 4.01689e-16 -4.12244
6512 1 21.4308 16.1522 46.6273 3 4.01691e-16 -4.12244
6513 1 23.9036 16.1522 46.6273 3 1.0169e-16 -4.12244
6514 1 23.0793 16.1522 44.2959 3 1e-16 -4.12244
6515 1 25.5521 16.1522 44.2959 3 1.51461e-28 -4.12244
6516 1 24.7278 16.1522 41.9645 3 0 -4.12244
6517 1 27.2006 16.1522 41.9645 3 1e-16 -4.12244
6518 1 26.3764 16.1522 39.6332 3 1e-16 -4.12244
6519 1 28.8491 16.1522 39.6332 3 4e-16 -4.12244
6520 1 28.0249 16.1522 37.3018 3 3.99999e-16 -4.12244
6521 1 30.4977 16.1522 37.3018 3 9.99999e-17 -4.12244
6522 1 29.6734 16.1522 34.9704 3 1e-16 -4.12244
6523 1 32.1462 16.1522 34.9704 3 9.99999e-17 -4.12244
6524 1 31.3219 16.1522 32.6391 3 2.01948e-28 -4.12244
6525 1 33.7947 16.1522 32.6391 3 4.00001e-16 -4.12244
6526 1 32.9705 16.1522 30.3077 3 9.99999e-17 -4.12244
6527 1 35.4432 16.1522 30.3077 3 1e-16 -4.12244
6528 1 34.619 16.1522 27.9764 3 4e-16 -4.12244
6529 1 37.0918 16.1522 27.9764 3 1.51461e-28 -4.12244
6530 1 36.2675 16.1522 25.645 3 1e-16 -4.12244
6531 1 38.7403 16.1522 25.645 3 1e-16 -4.12244
6532 1 37.916 16.1522 23.3136 3 8.07794e-28 -4.12244
6533 1 40.3888 16.1522 23.3136 3 3.99999e-16 -4.12244
6534 1 39.5645 16.1522 20.9823 3 1e-16 -4.12244
6535 1 42.0373 16.1522 20.9823 3 1e-16 -4.12244
6536 1 41.2131 16.1522 18.6509 3 4.00001e-16 -4.12244
6537 1 43.6859 16.1522 18.6509 3 2.01948e-28 -4.12244
6538 1 42.8616 16.1522 16.3195 3 9.99999e-17 -4.12244
6539 1 45.3344 16.1522 16.3195 3 9.99999e-17 -4.12244
6540 1 44.5101 16.1522 13.9882 3 2.27192e-28 -4.12244
6541 1 46.9829 16.1522 13.9882 3 3.99999e-16 -4.12244
6542 1 46.1586 16.1522 11.6568 3 9.99999e-17 -4.12244
6543 1 48.6314 16.1522 11.6568 3 9.99999e-17 -4.12244
6544 1 47.8072 16.1522 9.32545 3 3.99999e-16 -4.12244
6545 1 50.2799 16.1522 9.32545 3 2.01948e-28 -4.12244
6546 1 49.4557 16.1522 6.99409 3 9.99999e-17 -4.12244
6547 1 51.9285 16.1522 6.99409 3 1e-16 -4.12244
6548 1 51.1042 16.1522 4.66273 3 9.99999e-17 -4.12244
6549 1 53.577 16.1522 4.66273 3 3.99999e-16 -4.12244
6550 1 52.7527 16.1522 2.33136 3 4.00001e-16 -4.12244
6551 1 55.2255 16.1522 2.33136 3 1e-16 -4.12244
6552 1 54.4012 16.1522 0 3 1.0507e-16 -4.12244
6553 1 56.874 16.1522 0 3 5.07001e-18 -4.12244
6554 1 23.0793 14.1331 47.7929 3 1.0507e-16 -4.12244
6555 1 25.5521 14.1331 47.7929 3 5.06996e-18 -4.12244
6556 1 24.7278 14.1331 45.4616 3 0 -4.12244
6557 1 27.2006 14.1331 45.4616 3 1e-16 -4.12244
6558 1 26.3764 14.1331 43.1302 3 1e-16 -4.12244
6559 1 28.8491 14.1331 43.1302 3 4e-16 -4.12244
6560 1 28.0249 14.1331 40.7989 3 3.99999e-16 -4.12244
6561 1 30.4977 14.1331 40.7989 3 9.99999e-17 -4.12244
6562 1 29.6734 14.1331 38.4675 3 1e-16 -4.12244
6563 1 32.1462 14.1331 38.4675 3 9.99999e-17 -4.12244
6564 1 31.3219 14.1331 36.1361 3 6.05845e-28 -4.12244
6565 1 33.7947 14.1331 36.1361 3 4.00001e-16 -4.12244
6566 1 32.9705 14.1331 33.8048 3 9.99999e-17 -4.12244
6567 1 35.4432 14.1331 33.8048 3 1e-16 -4.12244
6568 1 34.619 14.1331 31.4734 3 4e-16 -4.12244
6569 1 37.0918 14.1331 31.4734 3 5.04871e-29 -4.12244
6570 1 36.2675 14.1331 29.142 3 1e-16 -4.12244
6571 1 38.7403 14.1331 29.142 3 1e-16 -4.12244
6572 1 37.916 14.1331 26.8107 3 8.07794e-28 -4.12244
6573 1 40.3888 14.1331 26.8107 3 3.99999e-16 -4.12244
6574 1 39.5645 14.1331 24.4793 3 1e-16 -4.12244
6575 1 42.0373 14.1331 24.4793 3 1e-16 -4.12244
6576 1 41.2131 14.1331 22.1479 3 4.00001e-16 -4.12244
6577 1 43.6859 14.1331 22.1479 3 2.01948e-28 -4.12244
6578 1 42.8616 14.1331 19.8166 3 9.99999e-17 -4.12244
6579 1 45.3344 14.1331 19.8166 3 9.99999e-17 -4.12244
6580 1 44.5101 14.1331 17.4852 3 3.02923e-28 -4.12244
6581 1 46.9829 14.1331 17.4852 3 3.99999e-16 -4.12244
6582 1 46.1586 14.1331 15.1539 3 9.99999e-17 -4.12244
6583 1 48.6314 14.1331 15.1539 3 9.99999e-17 -4.12244
6584 1 47.8072 14.1331 12.8225 3 3.99999e-16 -4.12244
6585 1 50.2799 14.1331 12.8225 3 2.39814e-28 -4.12244
6586 1 49.4557 14.1331 10.4911 3 9.99999e-17 -4.12244
6587 1 51.9285 14.1331 10.4911 3 1e-16 -4.12244
6588 1 51.1042 14.1331 8.15977 3 9.99999e-17 -4.12244
6589 1 53.577 14.1331 8.15977 3 3.99999e-16 -4.12244
6590 1 52.7527 14.1331 5.82841 3 4.00001e-16 -4.12244
6591 1 55.2255 14.1331 5.82841 3 1e-16 -4.12244
6592 1 54.4012 14.1331 3.49704 3 1e-16 -4.12244
6593 1 56.874 14.1331 3.49704 3 7.88861e-31 -4.12244
6594 1 56.0498 14.1331 1.16568 3 1.69e-18 -4.12244
6595 1 58.5226 14.1331 1.16568 3 1.0169e-16 -4.12244
6596 1 26.3764 12.1141 46.6273 3 1.0169e-16 -4.12244
6597 1 28.8491 12.1141 46.6273 3 4.0169e-16 -4.12244
6598 1 28.0249 12.1141 44.2959 3 3.99999e-16 -4.12244
6599 1 30.4977 12.1141 44.2959 3 9.99999e-17 -4.12244
6600 1 29.6734 12.1141 41.9645 3 1e-16 -4.12244
6601 1 32.1462 12.1141 41.9645 3 9.99999e-17 -4.12244
6602 1 31.3219 12.1141 39.6332 3 0 -4.12244
6603 1 33.7947 12.1141 39.6332 3 4.00001e-16 -4.12244
6604 1 32.9705 12.1141 37.3018 3 9.99999e-17 -4.12244
6605 1 35.4432 12.1141 37.3018 3 1e-16 -4.12244
6606 1 34.619 12.1141 34.9704 3 4e-16 -4.12244
6607 1 37.0918 12.1141 34.9704 3 2.01948e-28 -4.12244
6608 1 36.2675 12.1141 32.6391 3 1e-16 -4.12244
6609 1 38.7403 12.1141 32.6391 3 1e-16 -4.12244
6610 1 37.916 12.1141 30.3077 3 8.07794e-28 -4.12244
6611 1 40.3888 12.1141 30.3077 3 3.99999e-16 -4.12244
6612 1 39.5645 12.1141 27.9764 3 1e-16 -4.12244
6613 1 42.0373 12.1141 27.9764 3 1e-16 -4.12244
6614 1 41.2131 12.1141 25.645 3 4.00001e-16 -4.12244
6615 1 43.6859 12.1141 25.645 3 3.5341e-28 -4.12244
6616 1 42.8616 12.1141 23.3136 3 9.99999e-17 -4.12244
6617 1 45.3344 12.1141 23.3136 3 9.99999e-17 -4.12244
6618 1 44.5101 12.1141 20.9823 3 2.01948e-28 -4.12244
6619 1 46.9829 12.1141 20.9823 3 3.99999e-16 -4.12244
6620 1 46.1586 12.1141 18.6509 3 9.99999e-17 -4.12244
6621 1 48.6314 12.1141 18.6509 3 9.99999e-17 -4.12244
6622 1 47.8072 12.1141 16.3195 3 3.99999e-16 -4.12244
6623 1 50.2799 12.1141 16.3195 3 3.02923e-28 -4.12244
6624 1 49.4557 12.1141 13.9882 3 9.99999e-17 -4.12244
6625 1 51.9285 12.1141 13.9882 3 1e-16 -4.12244
6626 1 51.1042 12.1141 11.6568 3 9.99999e-17 -4.12244
6627 1 53.577 12.1141 11.6568 3 3.99999e-16 -4.12244
6628 1 52.7527 12.1141 9.32545 3 4.00001e-16 -4.12244
6629 1 55.2255 12.1141 9.32545 3 1e-16 -4.12244
6630 1 54.4012 12.1141 6.99409 3 1e-16 -4.12244
6631 1 56.874 12.1141 6.99409 3 0 -4.12244
6632 1 56.0498 12.1141 4.66273 3 0 -4.12244
6633 1 58.5226 12.1141 4.66273 3 9.99999e-17 -4.12244
6634 1 57.6983 12.1141 2.33136 3 1e-16 -4.12244
6635 1 60.1711 12.1141 2.33136 3 3.99999e-16 -4.12244
6636 1 59.3468 12.1141 0 3 4.0507e-16 -4.12244
6637 1 61.8196 12.1141 0 3 6.28299e-17 -4.12244
6638 1 28.0249 10.0951 47.7929 3 4.05069e-16 -4.12244
6639 1 30.4977 10.0951 47.7929 3 1.0507e-16 -4.12244
6640 1 29.6734 10.0951 45.4616 3 1e-16 -4.12244
6641 1 32.1462 10.0951 45.4616 3 9.99999e-17 -4.12244
6642 1 31.3219 10.0951 43.1302 3 6.05845e-28 -4.12244
6643 1 33.7947 10.0951 43.1302 3 4.00001e-16 -4.12244
6644 1 32.9705 10.0951 40.7989 3 9.99999e-17 -4.12244
6645 1 35.4432 10.0951 40.7989 3 1e-16 -4.12244
6646 1 34.619 10.0951 38.4675 3 4e-16 -4.12244
6647 1 37.0918 10.0951 38.4675 3 0 -4.12244
6648 1 36.2675 10.0951 36.1361 3 1e-16 -4.12244
6649 1 38.7403 10.0951 36.1361 3 1e-16 -4.12244
6650 1 37.916 10.0951 33.8048 3 8.07794e-28 -4.12244
6651 1 40.3888 10.0951 33.8048 3 3.99999e-16 -4.12244
6652 1 39.5645 10.0951 31.4734 3 1e-16 -4.12244
6653 1 42.0373 10.0951 31.4734 3 1e-16 -4.12244
6654 1 41.2131 10.0951 29.142 3 4.00001e-16 -4.12244
6655 1 43.6859 10.0951 29.142 3 3.5341e-28 -4.12244
6656 1 42.8616 10.0951 26.8107 3 9.99999e-17 -4.12244
6657 1 45.3344 10.0951 26.8107 3 9.99999e-17 -4.12244
6658 1 44.5101 10.0951 24.4793 3 3.02923e-28 -4.12244
6659 1 46.9829 10.0951 24.4793 3 3.99999e-16 -4.12244
6660 1 46.1586 10.0951 22.1479 3 9.99999e-17 -4.12244
6661 1 48.6314 10.0951 22.1479 3 9.99999e-17 -4.12244
6662 1 47.8072 10.0951 19.8166 3 3.99999e-16 -4.12244
6663 1 50.2799 10.0951 19.8166 3 2.01948e-28 -4.12244
6664 1 49.4557 10.0951 17.4852 3 9.99999e-17 -4.12244
6665 1 51.9285 10.0951 17.4852 3 1e-16 -4.12244
6666 1 51.1042 10.0951 15.1539 3 9.99999e-17 -4.12244
6667 1 53.577 10.0951 15.1539 3 3.99999e-16 -4.12244
6668 1 52.7527 10.0951 12.8225 3 4.00001e-16 -4.12244
6669 1 55.2255 10.0951 12.8225 3 1e-16 -4.12244
6670 1 54.4012 10.0951 10.4911 3 1e-16 -4.12244
6671 1 56.874 10.0951 10.4911 3 0 -4.12244
6672 1 56.0498 10.0951 8.15977 3 1.26218e-29 -4.12244
6673 1 58.5226 10.0951 8.15977 3 9.99999e-17 -4.12244
6674 1 57.6983 10.0951 5.82841 3 1e-16 -4.12244
6675 1 60.1711 10.0951 5.82841 3 3.99999e-16 -4.12244
6676 1 59.3468 10.0951 3.49704 3 3.99999e-16 -4.12244
6677 1 61.8196 10.0951 3.49704 3 5.77599e-17 -4.12244
6678 1 60.9953 10.0951 1.16568 3 1.0169e-16 -4.12244
6679 1 63.4681 10.0951 1.16568 3 2.473e-17 -4.12244
6680 1 31.3219 8.07608 46.6273 3 1.69002e-18 -4.12244
6681 1 33.7947 8.07608 46.6273 3 4.01691e-16 -4.12244
6682 1 32.9705 8.07608 44.2959 3 9.99999e-17 -4.12244
6683 1 35.4432 8.07608 44.2959 3 1e-16 -4.12244
6684 1 34.619 8.07608 41.9645 3 4e-16 -4.12244
6685 1 37.0918 8.07608 41.9645 3 0 -4.12244
6686 1 36.2675 8.07608 39.6332 3 1e-16 -4.12244
6687 1 38.7403 8.07608 39.6332 3 1e-16 -4.12244
6688 1 37.916 8.07608 37.3018 3 8.07794e-28 -4.12244
6689 1 40.3888 8.07608 37.3018 3 3.99999e-16 -4.12244
6690 1 39.5645 8.07608 34.9704 3 1e-16 -4.12244
6691 1 42.0373 8.07608 34.9704 3 1e-16 -4.12244
6692 1 41.2131 8.07608 32.6391 3 4.00001e-16 -4.12244
6693 1 43.6859 8.07608 32.6391 3 4.03897e-28 -4.12244
6694 1 42.8616 8.07608 30.3077 3 9.99999e-17 -4.12244
6695 1 45.3344 8.07608 30.3077 3 9.99999e-17 -4.12244
6696 1 44.5101 8.07608 27.9764 3 3.5341e-28 -4.12244
6697 1 46.9829 8.07608 27.9764 3 3.99999e-16 -4.12244
6698 1 46.1586 8.07608 25.645 3 9.99999e-17 -4.12244
6699 1 48.6314 8.07608 25.645 3 9.99999e-17 -4.12244
6700 1 47.8072 8.07608 23.3136 3 3.99999e-16 -4.12244
6701 1 50.2799 8.07608 23.3136 3 2.01948e-28 -4.12244
6702 1 49.4557 8.07608 20.9823 3 9.99999e-17 -4.12244
6703 1 51.9285 8.07608 20.9823 3 1e-16 -4.12244
6704 1 51.1042 8.07608 18.6509 3 9.99999e-17 -4.12244
6705 1 53.577 8.07608 18.6509 3 3.99999e-16 -4.12244
6706 1 52.7527 8.07608 16.3195 3 4.00001e-16 -4.12244
6707 1 55.2255 8.07608 16.3195 3 1e-16 -4.12244
6708 1 54.4012 8.07608 13.9882 3 1e-16 -4.12244
6709 1 56.874 8.07608 13.9882 3 2.52435e-29 -4.12244
6710 1 56.0498 8.07608 11.6568 3 0 -4.12244
6711 1 58.5226 8.07608 11.6568 3 9.99999e-17 -4.12244
6712 1 57.6983 8.07608 9.32545 3 1e-16 -4.12244
6713 1 60.1711 8.07608 9.32545 3 3.99999e-16 -4.12244
6714 1 59.3468 8.07608 6.99409 3 3.99999e-16 -4.12244
6715 1 61.8196 8.07608 6.99409 3 5.77599e-17 -4.12244
6716 1 60.9953 8.07608 4.66273 3 9.99999e-17 -4.12244
6717 1 63.4681 8.07608 4.66273 3 2.304e-17 -4.12244
6718 1 62.6439 8.07608 2.33136 3 5.76e-18 -4.12244
6719 1 32.9705 6.05706 47.7929 3 1.0507e-16 -4.12244
6720 1 35.4432 6.05706 47.7929 3 1.0507e-16 -4.12244
6721 1 34.619 6.05706 45.4616 3 4e-16 -4.12244
6722 1 37.0918 6.05706 45.4616 3 0 -4.12244
6723 1 36.2675 6.05706 43.1302 3 1e-16 -4.12244
6724 1 38.7403 6.05706 43.1302 3 1e-16 -4.12244
6725 1 37.916 6.05706 40.7989 3 1.41364e-27 -4.12244
6726 1 40.3888 6.05706 40.7989 3 3.99999e-16 -4.12244
6727 1 39.5645 6.05706 38.4675 3 1e-16 -4.12244
6728 1 42.0373 6.05706 38.4675 3 1e-16 -4.12244
6729 1 41.2131 6.05706 36.1361 3 4.00001e-16 -4.12244
6730 1 43.6859 6.05706 36.1361 3 8.07794e-28 -4.12244
6731 1 42.8616 6.05706 33.8048 3 9.99999e-17 -4.12244
6732 1 45.3344 6.05706 33.8048 3 9.99999e-17 -4.12244
6733 1 44.5101 6.05706 31.4734 3 2.52435e-28 -4.12244
6734 1 46.9829 6.05706 31.4734 3 3.99999e-16 -4.12244
6735 1 46.1586 6.05706 29.142 3 9.99999e-17 -4.12244
6736 1 48.6314 6.05706 29.142 3 9.99999e-17 -4.12244
6737 1 47.8072 6.05706 26.8107 3 3.99999e-16 -4.12244
6738 1 50.2799 6.05706 26.8107 3 2.01948e-28 -4.12244
6739 1 49.4557 6.05706 24.4793 3 9.99999e-17 -4.12244
6740 1 51.9285 6.05706 24.4793 3 1e-16 -4.12244
6741 1 51.1042 6.05706 22.1479 3 9.99999e-17 -4.12244
6742 1 53.577 6.05706 22.1479 3 3.99999e-16 -4.12244
6743 1 52.7527 6.05706 19.8166 3 4.00001e-16 -4.12244
6744 1 55.2255 6.05706 19.8166 3 1e-16 -4.12244
6745 1 54.4012 6.05706 17.4852 3 1e-16 -4.12244
6746 1 56.874 6.05706 17.4852 3 1.00974e-28 -4.12244
6747 1 56.0498 6.05706 15.1539 3 0 -4.12244
6748 1 58.5226 6.05706 15.1539 3 9.99999e-17 -4.12244
6749 1 57.6983 6.05706 12.8225 3 1e-16 -4.12244
6750 1 60.1711 6.05706 12.8225 3 3.99999e-16 -4.12244
6751 1 59.3468 6.05706 10.4911 3 3.99999e-16 -4.12244
6752 1 61.8196 6.05706 10.4911 3 5.77599e-17 -4.12244
6753 1 60.9953 6.05706 8.15977 3 9.99999e-17 -4.12244
6754 1 63.4681 6.05706 8.15977 3 2.304e-17 -4.12244
6755 1 62.6439 6.05706 5.82841 3 5.76e-18 -4.12244
6756 1 36.2675 4.03804 46.6273 3 1.0169e-16 -4.12244
6757 1 38.7403 4.03804 46.6273 3 1.0169e-16 -4.12244
6758 1 37.916 4.03804 44.2959 3 8.07794e-28 -4.12244
6759 1 40.3888 4.03804 44.2959 3 3.99999e-16 -4.12244
6760 1 39.5645 4.03804 41.9645 3 1e-16 -4.12244
6761 1 42.0373 4.03804 41.9645 3 1e-16 -4.12244
6762 1 41.2131 4.03804 39.6332 3 4.00001e-16 -4.12244
6763 1 43.6859 4.03804 39.6332 3 2.01948e-28 -4.12244
6764 1 42.8616 4.03804 37.3018 3 9.99999e-17 -4.12244
6765 1 45.3344 4.03804 37.3018 3 9.99999e-17 -4.12244
6766 1 44.5101 4.03804 34.9704 3 4.03897e-28 -4.12244
6767 1 46.9829 4.03804 34.9704 3 3.99999e-16 -4.12244
6768 1 46.1586 4.03804 32.6391 3 9.99999e-17 -4.12244
6769 1 48.6314 4.03804 32.6391 3 9.99999e-17 -4.12244
6770 1 47.8072 4.03804 30.3077 3 3.99999e-16 -4.12244
6771 1 50.2799 4.03804 30.3077 3 2.01948e-28 -4.12244
6772 1 49.4557 4.03804 27.9764 3 9.99999e-17 -4.12244
6773 1 51.9285 4.03804 27.9764 3 1e-16 -4.12244
6774 1 51.1042 4.03804 25.645 3 9.99999e-17 -4.12244
6775 1 53.577 4.03804 25.645 3 3.99999e-16 -4.12244
6776 1 52.7527 4.03804 23.3136 3 4.00001e-16 -4.12244
6777 1 55.2255 4.03804 23.3136 3 1e-16 -4.12244
6778 1 54.4012 4.03804 20.9823 3 1e-16 -4.12244
6779 1 56.874 4.03804 20.9823 3 0 -4.12244
6780 1 56.0498 4.03804 18.6509 3 0 -4.12244
6781 1 58.5226 4.03804 18.6509 3 9.99999e-17 -4.12244
6782 1 57.6983 4.03804 16.3195 3 1e-16 -4.12244
6783 1 60.1711 4.03804 16.3195 3 3.99999e-16 -4.12244
6784 1 59.3468 4.03804 13.9882 3 3.99999e-16 -4.12244
6785 1 61.8196 4.03804 13.9882 3 5.77599e-17 -4.12244
6786 1 60.9953 4.03804 11.6568 3 9.99999e-17 -4.12244
6787 1 63.4681 4.03804 11.6568 3 2.304e-17 -4.12244
6788 1 62.6439 4.03804 9.32545 3 5.76e-18 -4.12244
6789 1 37.916 2.01902 47.7929 3 5.06996e-18 -4.10627
6790 1 40.3888 2.01902 47.7929 3 4.05069e-16 -4.10627
6791 1 39.5645 2.01902 45.4616 3 1e-16 -4.10627
6792 1 42.0373 2.01902 45.4616 3 1e-16 -4.10627
6793 1 41.2131 2.01902 43.1302 3 4.00001e-16 -4.10627
6794 1 43.6859 2.01902 43.1302 3 8.07794e-28 -4.10627
6795 1 42.8616 2.01902 40.7989 3 9.99999e-17 -4.10627
6796 1 45.3344 2.01902 40.7989 3 9.99999e-17 -4.10627
6797 1 44.5101 2.01902 38.4675 3 2.01948e-28 -4.10627
6798 1 46.9829 2.01902 38.4675 3 3.99999e-16 -4.10627
6799 1 46.1586 2.01902 36.1361 3 9.99999e-17 -4.10627
6800 1 48.6314 2.01902 36.1361 3 9.99999e-17 -4.10627
6801 1 47.8072 2.01902 33.8048 3 3.99999e-16 -4.10627
6802 1 50.2799 2.01902 33.8048 3 2.01948e-28 -4.10627
6803 1 49.4557 2.01902 31.4734 3 9.99999e-17 -4.10627
6804 1 51.9285 2.01902 31.4734 3 1e-16 -4.10627
6805 1 51.1042 2.01902 29.142 3 9.99999e-17 -4.10627
6806 1 53.577 2.01902 29.142 3 3.99999e-16 -4.10627
6807 1 52.7527 2.01902 26.8107 3 4.00001e-16 -4.10627
6808 1 55.2255 2.01902 26.8107 3 1e-16 -4.10627
6809 1 54.4012 2.01902 24.4793 3 1e-16 -4.10627
6810 1 56.874 2.01902 24.4793 3 1.00974e-28 -4.10627
6811 1 56.0498 2.01902 22.1479 3 0 -4.10627
6812 1 58.5226 2.01902 22.1479 3 9.99999e-17 -4.10627
6813 1 57.6983 2.01902 19.8166 3 1e-16 -4.10627
6814 1 60.1711 2.01902 19.8166 3 3.99999e-16 -4.10627
6815 1 59.3468 2.01902 17.4852 3 3.99999e-16 -4.10627
6816 1 61.8196 2.01902 17.4852 3 5.77599e-17 -4.10627
6817 1 60.9953 2.01902 15.1539 3 9.99999e-17 -4.10627
6818 1 63.4681 2.01902 15.1539 3 2.304e-17 -4.10627
6819 1 62.6439 2.01902 12.8225 3 5.76e-18 -4.10627
6820 1 41.2131 -0 46.6273 5 12.2293 -3.54465
6821 1 43.6859 0 46.6273 5 12.2293 -3.54465
6822 1 42.8616 -0 44.2959 5 12.2293 -3.54465
6823 1 45.3344 0 44.2959 5 12.2293 -3.54465
6824 1 44.5101 -0 41.9645 5 12.2293 -3.54465
6825 1 46.9829 0 41.9645 5 12.2293 -3.54465
6826 1 46.1586 -0 39.6332 5 12.2293 -3.54465
6827 1 48.6314 0 39.6332 5 12.2293 -3.54465
6828 1 47.8072 -0 37.3018 5 12.2293 -3.54465
6829 1 50.2799 0 37.3018 5 12.2293 -3.54465
6830 1 49.4557 -0 34.9704 5 12.2293 -3.54465
6831 1 51.9285 0 34.9704 5 12.2293 -3.54465
6832 1 51.1042 -0 32.6391 5 12.2293 -3.54465
6833 1 53.577 0 32.6391 5 12.2293 -3.54465
6834 1 52.7527 -0 30.3077 5 12.2293 -3.54465
6835 1 55.2255 0 30.3077 5 12.2293 -3.54465
6836 1 54.4012 -0 27.9764 5 12.2293 -3.54465
6837 1 56.874 0 27.9764 5 12.2293 -3.54465
6838 1 56.0498 -0 25.645 5 12.2293 -3.54465
6839 1 58.5226 0 25.645 5 12.2293 -3.54465
6840 1 57.6983 -0 23.3136 5 12.2293 -3.54465
6841 1 60.1711 0 23.3136 5 12.2293 -3.54465
6842 1 59.3468 -0 20.9823 5 12.2293 -3.54465
6843 1 61.8196 0 20.9823 5 12.2293 -3.54465
6844 1 60.9953 -0 18.6509 5 12.2293 -3.54465
6845 1 63.4681 0 18.6509 5 12.2293 -3.54465
6846 1 62.6439 -0 16.3195 5 12.2293 -3.54465
6847 1 0.824261 62.5896 5.82841 5 12.2293 -3.54465
6848 1 0 62.5896 3.49704 5 12.2293 -3.54465
6849 1 2.47278 62.5896 3.49704 5 12.2293 -3.54465
6850 1 1.64852 62.5896 1.16568 5 12.2293 -3.54465
6851 1 4.12131 62.5896 1.16568 5 12.2293 -3.54465
6852 1 0.824261 60.5706 9.32545 3 5.776e-17 -4.10627
6853 1 0 60.5706 6.99409 3 2.304e-17 -4.10627
6854 1 2.47278 60.5706 6.99409 3 4e-16 -4.10627
6855 1 1.64852 60.5706 4.66273 3 5.776e-17 -4.10627
6856 1 4.12131 60.5706 4.66273 3 1e-16 -4.10627
6857 1 3.29705 60.5706 2.33136 3 4e-16 -4.10627
6858 1 5.76983 60.5706 2.33136 3 4.03897e-28 -4.10627
6859 1 4.94557 60.5706 0 3 1.0507e-16 -4.10627
6860 1 7.41835 60.5706 0 3 1.0507e-16 -4.10627
6861 1 0.824261 58.5516 12.8225 3 5.776e-17 -4.12244
6862 1 0 58.5516 10.4911 3 2.304e-17 -4.12244
6863 1 2.47278 58.5516 10.4911 3 4e-16 -4.12244
6864 1 1.64852 58.5516 8.15977 3 5.776e-17 -4.12244
6865 1 4.12131 58.5516 8.15977 3 1e-16 -4.12244
6866 1 3.29705 58.5516 5.82841 3 4e-16 -4.12244
6867 1 5.76983 58.5516 5.82841 3 3.15544e-30 -4.12244
6868 1 4.94557 58.5516 3.49704 3 1e-16 -4.12244
6869 1 7.41835 58.5516 3.49704 3 1e-16 -4.12244
6870 1 6.59409 58.5516 1.16568 3 1.69e-18 -4.12244
6871 1 9.06687 58.5516 1.16568 3 4.0169e-16 -4.12244
6872 1 0.824261 56.5326 16.3195 3 5.776e-17 -4.12244
6873 1 0 56.5326 13.9882 3 2.304e-17 -4.12244
6874 1 2.47278 56.5326 13.9882 3 4e-16 -4.12244
6875 1 1.64852 56.5326 11.6568 3 5.776e-17 -4.12244
6876 1 4.12131 56.5326 11.6568 3 1e-16 -4.12244
6877 1 3.29705 56.5326 9.32545 3 4e-16 -4.12244
6878 1 5.76983 56.5326 9.32545 3 0 -4.12244
6879 1 4.94557 56.5326 6.99409 3 1e-16 -4.12244
6880 1 7.41835 56.5326 6.99409 3 1e-16 -4.12244
6881 1 6.59409 56.5326 4.66273 3 0 -4.12244
6882 1 9.06687 56.5326 4.66273 3 4e-16 -4.12244
6883 1 8.24261 56.5326 2.33136 3 9.99999e-17 -4.12244
6884 1 10.7154 56.5326 2.33136 3 1e-16 -4.12244
6885 1 9.89114 56.5326 0 3 4.0507e-16 -4.12244
6886 1 12.3639 56.5326 0 3 5.07001e-18 -4.12244
6887 1 0.824261 54.5135 19.8166 3 5.776e-17 -4.12244
6888 1 0 54.5135 17.4852 3 2.304e-17 -4.12244
6889 1 2.47278 54.5135 17.4852 3 4e-16 -4.12244
6890 1 1.64852 54.5135 15.1539 3 5.776e-17 -4.12244
6891 1 4.12131 54.5135 15.1539 3 1e-16 -4.12244
6892 1 3.29705 54.5135 12.8225 3 4e-16 -4.12244
6893 1 5.76983 54.5135 12.8225 3 3.78653e-29 -4.12244
6894 1 4.94557 54.5135 10.4911 3 1e-16 -4.12244
6895 1 7.41835 54.5135 10.4911 3 1e-16 -4.12244
6896 1 6.59409 54.5135 8.15977 3 1.26218e-29 -4.12244
6897 1 9.06687 54.5135 8.15977 3 4e-16 -4.12244
6898 1 8.24261 54.5135 5.82841 3 9.99999e-17 -4.12244
6899 1 10.7154 54.5135 5.82841 3 1e-16 -4.12244
6900 1 9.89114 54.5135 3.49704 3 4e-16 -4.12244
6901 1 12.3639 54.5135 3.49704 3 7.88861e-31 -4.12244
6902 1 11.5397 54.5135 1.16568 3 1.0169e-16 -4.12244
6903 1 14.0124 54.5135 1.16568 3 1.0169e-16 -4.12244
6904 1 0.824261 52.4945 23.3136 3 5.776e-17 -4.12244
6905 1 0 52.4945 20.9823 3 2.304e-17 -4.12244
6906 1 2.47278 52.4945 20.9823 3 4e-16 -4.12244
6907 1 1.64852 52.4945 18.6509 3 5.776e-17 -4.12244
6908 1 4.12131 52.4945 18.6509 3 1e-16 -4.12244
6909 1 3.29705 52.4945 16.3195 3 4e-16 -4.12244
6910 1 5.76983 52.4945 16.3195 3 1.00974e-28 -4.12244
6911 1 4.94557 52.4945 13.9882 3 1e-16 -4.12244
6912 1 7.41835 52.4945 13.9882 3 1e-16 -4.12244
6913 1 6.59409 52.4945 11.6568 3 0 -4.12244
6914 1 9.06687 52.4945 11.6568 3 4e-16 -4.12244
6915 1 8.24261 52.4945 9.32545 3 9.99999e-17 -4.12244
6916 1 10.7154 52.4945 9.32545 3 1e-16 -4.12244
6917 1 9.89114 52.4945 6.99409 3 4e-16 -4.12244
6918 1 12.3639 52.4945 6.99409 3 0 -4.12244
6919 1 11.5397 52.4945 4.66273 3 1e-16 -4.12244
6920 1 14.0124 52.4945 4.66273 3 1e-16 -4.12244
6921 1 13.1882 52.4945 2.33136 3 0 -4.12244
6922 1 15.661 52.4945 2.33136 3 4e-16 -4.12244
6923 1 14.8367 52.4945 0 3 1.0507e-16 -4.12244
6924 1 17.3095 52.4945 0 3 1.0507e-16 -4.12244
6925 1 0.824261 50.4755 26.8107 3 5.776e-17 -4.12244
6926 1 0 50.4755 24.4793 3 2.304e-17 -4.12244
6927 1 2.47278 50.4755 24.4793 3 4e-16 -4.12244
6928 1 1.64852 50.4755 22.1479 3 5.776e-17 -4.12244
6929 1 4.12131 50.4755 22.1479 3 1e-16 -4.12244
6930 1 3.29705 50.4755 19.8166 3 4e-16 -4.12244
6931 1 5.76983 50.4755 19.8166 3 0 -4.12244
6932 1 4.94557 50.4755 17.4852 3 1e-16 -4.12244
6933 1 7.41835 50.4755 17.4852 3 1e-16 -4.12244
6934 1 6.59409 50.4755 15.1539 3 0 -4.12244
6935 1 9.06687 50.4755 15.1539 3 4e-16 -4.12244
6936 1 8.24261 50.4755 12.8225 3 9.99999e-17 -4.12244
6937 1 10.7154 50.4755 12.8225 3 1e-16 -4.12244
6938 1 9.89114 50.4755 10.4911 3 4e-16 -4.12244
6939 1 12.3639 50.4755 10.4911 3 0 -4.12244
6940 1 11.5397 50.4755 8.15977 3 1e-16 -4.12244
6941 1 14.0124 50.4755 8.15977 3 1e-16 -4.12244
6942 1 13.1882 50.4755 5.82841 3 3.15544e-30 -4.12244
6943 1 15.661 50.4755 5.82841 3 4e-16 -4.12244
6944 1 14.8367 50.4755 3.49704 3 9.99999e-17 -4.12244
6945 1 17.3095 50.4755 3.49704 3 1e-16 -4.12244
6946 1 16.4852 50.4755 1.16568 3 4.0169e-16 -4.12244
6947 1 18.958 50.4755 1.16568 3 1.69e-18 -4.12244
6948 1 0.824261 48.4565 30.3077 3 5.776e-17 -4.12244
6949 1 0 48.4565 27.9764 3 2.304e-17 -4.12244
6950 1 2.47278 48.4565 27.9764 3 4e-16 -4.12244
6951 1 1.64852 48.4565 25.645 3 5.776e-17 -4.12244
6952 1 4.12131 48.4565 25.645 3 1e-16 -4.12244
6953 1 3.29705 48.4565 23.3136 3 4e-16 -4.12244
6954 1 5.76983 48.4565 23.3136 3 0 -4.12244
6955 1 4.94557 48.4565 20.9823 3 1e-16 -4.12244
6956 1 7.41835 48.4565 20.9823 3 1e-16 -4.12244
6957 1 6.59409 48.4565 18.6509 3 0 -4.12244
6958 1 9.06687 48.4565 18.6509 3 4e-16 -4.12244
6959 1 8.24261 48.4565 16.3195 3 9.99999e-17 -4.12244
6960 1 10.7154 48.4565 16.3195 3 1e-16 -4.12244
6961 1 9.89114 48.4565 13.9882 3 4e-16 -4.12244
6962 1 12.3639 48.4565 13.9882 3 2.52435e-29 -4.12244
6963 1 11.5397 48.4565 11.6568 3 1e-16 -4.12244
6964 1 14.0124 48.4565 11.6568 3 1e-16 -4.12244
6965 1 13.1882 48.4565 9.32545 3 0 -4.12244
6966 1 15.661 48.4565 9.32545 3 4e-16 -4.12244
6967 1 14.8367 48.4565 6.99409 3 9.99999e-17 -4.12244
6968 1 17.3095 48.4565 6.99409 3 1e-16 -4.12244
6969 1 16.4852 48.4565 4.66273 3 4e-16 -4.12244
6970 1 18.958 48.4565 4.66273 3 2.01948e-28 -4.12244
6971 1 18.1337 48.4565 2.33136 3 1e-16 -4.12244
6972 1 20.6065 48.4565 2.33136 3 1e-16 -4.12244
6973 1 19.7823 48.4565 0 3 1.0507e-16 -4.12244
6974 1 22.2551 48.4565 0 3 4.0507e-16 -4.12244
6975 1 0.824261 46.4375 33.8048 3 5.776e-17 -4.12244
6976 1 0 46.4375 31.4734 3 2.304e-17 -4.12244
6977 1 2.47278 46.4375 31.4734 3 4e-16 -4.12244
6978 1 1.64852 46.4375 29.142 3 5.776e-17 -4.12244
6979 1 4.12131 46.4375 29.142 3 1e-16 -4.12244
6980 1 3.29705 46.4375 26.8107 3 4e-16 -4.12244
6981 1 5.76983 46.4375 26.8107 3 0 -4.12244
6982 1 4.94557 46.4375 24.4793 3 1e-16 -4.12244
6983 1 7.41835 46.4375 24.4793 3 1e-16 -4.12244
6984 1 6.59409 46.4375 22.1479 3 0 -4.12244
6985 1 9.06687 46.4375 22.1479 3 4e-16 -4.12244
6986 1 8.24261 46.4375 19.8166 3 9.99999e-17 -4.12244
6987 1 10.7154 46.4375 19.8166 3 1e-16 -4.12244
6988 1 9.89114 46.4375 17.4852 3 4e-16 -4.12244
6989 1 12.3639 46.4375 17.4852 3 1.00974e-28 -4.12244
6990 1 11.5397 46.4375 15.1539 3 1e-16 -4.12244
6991 1 14.0124 46.4375 15.1539 3 1e-16 -4.12244
6992 1 13.1882 46.4375 12.8225 3 3.78653e-29 -4.12244
6993 1 15.661 46.4375 12.8225 3 4e-16 -4.12244
6994 1 14.8367 46.4375 10.4911 3 9.99999e-17 -4.12244
6995 1 17.3095 46.4375 10.4911 3 1e-16 -4.12244
6996 1 16.4852 46.4375 8.15977 3 4e-16 -4.12244
6997 1 18.958 46.4375 8.15977 3 2.1457e-28 -4.12244
6998 1 18.1337 46.4375 5.82841 3 1e-16 -4.12244
6999 1 20.6065 46.4375 5.82841 3 1e-16 -4.12244
7000 1 19.7823 46.4375 3.49704 3 1e-16 -4.12244
7001 1 22.2551 46.4375 3.49704 3 4e-16 -4.12244
7002 1 21.4308 46.4375 1.16568 3 4.0169e-16 -4.12244
7003 1 23.9036 46.4375 1.16568 3 1.0169e-16 -4.12244
7004 1 0.824261 44.4184 37.3018 3 5.776e-17 -4.12244
7005 1 0 44.4184 34.9704 3 2.304e-17 -4.12244
7006 1 2.47278 44.4184 34.9704 3 4e-16 -4.12244
7007 1 1.64852 44.4184 32.6391 3 5.776e-17 -4.12244
7008 1 4.12131 44.4184 32.6391 3 1e-16 -4.12244
7009 1 3.29705 44.4184 30.3077 3 4e-16 -4.12244
7010 1 5.76983 44.4184 30.3077 3 0 -4.12244
7011 1 4.94557 44.4184 27.9764 3 1e-16 -4.12244
7012 1 7.41835 44.4184 27.9764 3 1e-16 -4.12244
7013 1 6.59409 44.4184 25.645 3 1.51461e-28 -4.12244
7014 1 9.06687 44.4184 25.645 3 4e-16 -4.12244
7015 1 8.24261 44.4184 23.3136 3 9.99999e-17 -4.12244
7016 1 10.7154 44.4184 23.3136 3 1e-16 -4.12244
7017 1 9.89114 44.4184 20.9823 3 4e-16 -4.12244
7018 1 12.3639 44.4184 20.9823 3 0 -4.12244
7019 1 11.5397 44.4184 18.6509 3 1e-16 -4.12244
7020 1 14.0124 44.4184 18.6509 3 1e-16 -4.12244
7021 1 13.1882 44.4184 16.3195 3 1.00974e-28 -4.12244
7022 1 15.661 44.4184 16.3195 3 4e-16 -4.12244
7023 1 14.8367 44.4184 13.9882 3 9.99999e-17 -4.12244
7024 1 17.3095 44.4184 13.9882 3 1e-16 -4.12244
7025 1 16.4852 44.4184 11.6568 3 4e-16 -4.12244
7026 1 18.958 44.4184 11.6568 3 2.01948e-28 -4.12244
7027 1 18.1337 44.4184 9.32545 3 1e-16 -4.12244
7028 1 20.6065 44.4184 9.32545 3 1e-16 -4.12244
7029 1 19.7823 44.4184 6.99409 3 1e-16 -4.12244
7030 1 22.2551 44.4184 6.99409 3 4e-16 -4.12244
7031 1 21.4308 44.4184 4.66273 3 4e-16 -4.12244
7032 1 23.9036 44.4184 4.66273 3 1e-16 -4.12244
7033 1 23.0793 44.4184 2.33136 3 1e-16 -4.12244
7034 1 25.5521 44.4184 2.33136 3 1.51461e-28 -4.12244
7035 1 24.7278 44.4184 0 3 5.07001e-18 -4.12244
7036 1 27.2006 44.4184 0 3 1.0507e-16 -4.12244
7037 1 0.824261 42.3994 40.7989 3 5.776e-17 -4.12244
7038 1 0 42.3994 38.4675 3 2.304e-17 -4.12244
7039 1 2.47278 42.3994 38.4675 3 4e-16 -4.12244
7040 1 1.64852 42.3994 36.1361 3 5.776e-17 -4.12244
7041 1 4.12131 42.3994 36.1361 3 1e-16 -4.12244
7042 1 3.29705 42.3994 33.8048 3 4e-16 -4.12244
7043 1 5.76983 42.3994 33.8048 3 0 -4.12244
7044 1 4.94557 42.3994 31.4734 3 1e-16 -4.12244
7045 1 7.41835 42.3994 31.4734 3 1e-16 -4.12244
7046 1 6.59409 42.3994 29.142 3 1.51461e-28 -4.12244
7047 1 9.06687 42.3994 29.142 3 4e-16 -4.12244
7048 1 8.24261 42.3994 26.8107 3 9.99999e-17 -4.12244
7049 1 10.7154 42.3994 26.8107 3 1e-16 -4.12244
7050 1 9.89114 42.3994 24.4793 3 4e-16 -4.12244
7051 1 12.3639 42.3994 24.4793 3 1.00974e-28 -4.12244
7052 1 11.5397 42.3994 22.1479 3 1e-16 -4.12244
7053 1 14.0124 42.3994 22.1479 3 1e-16 -4.12244
7054 1 13.1882 42.3994 19.8166 3 0 -4.12244
7055 1 15.661 42.3994 19.8166 3 4e-16 -4.12244
7056 1 14.8367 42.3994 17.4852 3 9.99999e-17 -4.12244
7057 1 17.3095 42.3994 17.4852 3 1e-16 -4.12244
7058 1 16.4852 42.3994 15.1539 3 4e-16 -4.12244
7059 1 18.958 42.3994 15.1539 3 2.01948e-28 -4.12244
7060 1 18.1337 42.3994 12.8225 3 1e-16 -4.12244
7061 1 20.6065 42.3994 12.8225 3 1e-16 -4.12244
7062 1 19.7823 42.3994 10.4911 3 1e-16 -4.12244
7063 1 22.2551 42.3994 10.4911 3 4e-16 -4.12244
7064 1 21.4308 42.3994 8.15977 3 4e-16 -4.12244
7065 1 23.9036 42.3994 8.15977 3 1e-16 -4.12244
7066 1 23.0793 42.3994 5.82841 3 1e-16 -4.12244
7067 1 25.5521 42.3994 5.82841 3 1.54617e-28 -4.12244
7068 1 24.7278 42.3994 3.49704 3 7.88861e-31 -4.12244
7069 1 27.2006 42.3994 3.49704 3 1e-16 -4.12244
7070 1 26.3764 42.3994 1.16568 3 1.0169e-16 -4.12244
7071 1 28.8491 42.3994 1.16568 3 4.0169e-16 -4.12244
7072 1 0.824261 40.3804 44.2959 3 5.776e-17 -4.12244
7073 1 0 40.3804 41.9645 3 2.304e-17 -4.12244
7074 1 2.47278 40.3804 41.9645 3 4e-16 -4.12244
7075 1 1.64852 40.3804 39.6332 3 5.776e-17 -4.12244
7076 1 4.12131 40.3804 39.6332 3 1e-16 -4.12244
7077 1 3.29705 40.3804 37.3018 3 4e-16 -4.12244
7078 1 5.76983 40.3804 37.3018 3 0 -4.12244
7079 1 4.94557 40.3804 34.9704 3 1e-16 -4.12244
7080 1 7.41835 40.3804 34.9704 3 1e-16 -4.12244
7081 1 6.59409 40.3804 32.6391 3 2.01948e-28 -4.12244
7082 1 9.06687 40.3804 32.6391 3 4e-16 -4.12244
7083 1 8.24261 40.3804 30.3077 3 9.99999e-17 -4.12244
7084 1 10.7154 40.3804 30.3077 3 1e-16 -4.12244
7085 1 9.89114 40.3804 27.9764 3 4e-16 -4.12244
7086 1 12.3639 40.3804 27.9764 3 1.51461e-28 -4.12244
7087 1 11.5397 40.3804 25.645 3 1e-16 -4.12244
7088 1 14.0124 40.3804 25.645 3 1e-16 -4.12244
7089 1 13.1882 40.3804 23.3136 3 0 -4.12244
7090 1 15.661 40.3804 23.3136 3 4e-16 -4.12244
7091 1 14.8367 40.3804 20.9823 3 9.99999e-17 -4.12244
7092 1 17.3095 40.3804 20.9823 3 1e-16 -4.12244
7093 1 16.4852 40.3804 18.6509 3 4e-16 -4.12244
7094 1 18.958 40.3804 18.6509 3 2.01948e-28 -4.12244
7095 1 18.1337 40.3804 16.3195 3 1e-16 -4.12244
7096 1 20.6065 40.3804 16.3195 3 1e-16 -4.12244
7097 1 19.7823 40.3804 13.9882 3 1e-16 -4.12244
7098 1 22.2551 40.3804 13.9882 3 4e-16 -4.12244
7099 1 21.4308 40.3804 11.6568 3 4e-16 -4.12244
7100 1 23.9036 40.3804 11.6568 3 1e-16 -4.12244
7101 1 23.0793 40.3804 9.32545 3 1e-16 -4.12244
7102 1 25.5521 40.3804 9.32545 3 1.51461e-28 -4.12244
7103 1 24.7278 40.3804 6.99409 3 0 -4.12244
7104 1 27.2006 40.3804 6.99409 3 1e-16 -4.12244
7105 1 26.3764 40.3804 4.66273 3 1e-16 -4.12244
7106 1 28.8491 40.3804 4.66273 3 4e-16 -4.12244
7107 1 28.0249 40.3804 2.33136 3 3.99999e-16 -4.12244
7108 1 30.4977 40.3804 2.33136 3 9.99999e-17 -4.12244
7109 1 29.6734 40.3804 0 3 1.0507e-16 -4.12244
7110 1 32.1462 40.3804 0 3 1.0507e-16 -4.12244
7111 1 0.824261 38.3614 47.7929 3 6.28299e-17 -4.12244
7112 1 0 38.3614 45.4616 3 2.304e-17 -4.12244
7113 1 2.47278 38.3614 45.4616 3 4e-16 -4.12244
7114 1 1.64852 38.3614 43.1302 3 5.776e-17 -4.12244
7115 1 4.12131 38.3614 43.1302 3 1e-16 -4.12244
7116 1 3.29705 38.3614 40.7989 3 4e-16 -4.12244
7117 1 5.76983 38.3614 40.7989 3 6.05845e-28 -4.12244
7118 1 4.94557 38.3614 38.4675 3 1e-16 -4.12244
7119 1 7.41835 38.3614 38.4675 3 1e-16 -4.12244
7120 1 6.59409 38.3614 36.1361 3 6.05845e-28 -4.12244
7121 1 9.06687 38.3614 36.1361 3 4e-16 -4.12244
7122 1 8.24261 38.3614 33.8048 3 9.99999e-17 -4.12244
7123 1 10.7154 38.3614 33.8048 3 1e-16 -4.12244
7124 1 9.89114 38.3614 31.4734 3 4e-16 -4.12244
7125 1 12.3639 38.3614 31.4734 3 5.04871e-29 -4.12244
7126 1 11.5397 38.3614 29.142 3 1e-16 -4.12244
7127 1 14.0124 38.3614 29.142 3 1e-16 -4.12244
7128 1 13.1882 38.3614 26.8107 3 0 -4.12244
7129 1 15.661 38.3614 26.8107 3 4e-16 -4.12244
7130 1 14.8367 38.3614 24.4793 3 9.99999e-17 -4.12244
7131 1 17.3095 38.3614 24.4793 3 1e-16 -4.12244
7132 1 16.4852 38.3614 22.1479 3 4e-16 -4.12244
7133 1 18.958 38.3614 22.1479 3 2.01948e-28 -4.12244
7134 1 18.1337 38.3614 19.8166 3 1e-16 -4.12244
7135 1 20.6065 38.3614 19.8166 3 1e-16 -4.12244
7136 1 19.7823 38.3614 17.4852 3 1e-16 -4.12244
7137 1 22.2551 38.3614 17.4852 3 4e-16 -4.12244
7138 1 21.4308 38.3614 15.1539 3 4e-16 -4.12244
7139 1 23.9036 38.3614 15.1539 3 1e-16 -4.12244
7140 1 23.0793 38.3614 12.8225 3 1e-16 -4.12244
7141 1 25.5521 38.3614 12.8225 3 1.89327e-28 -4.12244
7142 1 24.7278 38.3614 10.4911 3 0 -4.12244
7143 1 27.2006 38.3614 10.4911 3 1e-16 -4.12244
7144 1 26.3764 38.3614 8.15977 3 1e-16 -4.12244
7145 1 28.8491 38.3614 8.15977 3 4e-16 -4.12244
7146 1 28.0249 38.3614 5.82841 3 3.99999e-16 -4.12244
7147 1 30.4977 38.3614 5.82841 3 9.99999e-17 -4.12244
7148 1 29.6734 38.3614 3.49704 3 1e-16 -4.12244
7149 1 32.1462 38.3614 3.49704 3 9.99999e-17 -4.12244
7150 1 31.3219 38.3614 1.16568 3 1.69e-18 -4.12244
7151 1 33.7947 38.3614 1.16568 3 4.01691e-16 -4.12244
7152 1 1.64852 36.3424 46.6273 3 5.945e-17 -4.12244
7153 1 4.12131 36.3424 46.6273 3 1.0169e-16 -4.12244
7154 1 3.29705 36.3424 44.2959 3 4e-16 -4.12244
7155 1 5.76983 36.3424 44.2959 3 0 -4.12244
7156 1 4.94557 36.3424 41.9645 3 1e-16 -4.12244
7157 1 7.41835 36.3424 41.9645 3 1e-16 -4.12244
7158 1 6.59409 36.3424 39.6332 3 0 -4.12244
7159 1 9.06687 36.3424 39.6332 3 4e-16 -4.12244
7160 1 8.24261 36.3424 37.3018 3 9.99999e-17 -4.12244
7161 1 10.7154 36.3424 37.3018 3 1e-16 -4.12244
7162 1 9.89114 36.3424 34.9704 3 4e-16 -4.12244
7163 1 12.3639 36.3424 34.9704 3 2.01948e-28 -4.12244
7164 1 11.5397 36.3424 32.6391 3 1e-16 -4.12244
7165 1 14.0124 36.3424 32.6391 3 1e-16 -4.12244
7166 1 13.1882 36.3424 30.3077 3 0 -4.12244
7167 1 15.661 36.3424 30.3077 3 4e-16 -4.12244
7168 1 14.8367 36.3424 27.9764 3 9.99999e-17 -4.12244
7169 1 17.3095 36.3424 27.9764 3 1e-16 -4.12244
7170 1 16.4852 36.3424 25.645 3 4e-16 -4.12244
7171 1 18.958 36.3424 25.645 3 3.5341e-28 -4.12244
7172 1 18.1337 36.3424 23.3136 3 1e-16 -4.12244
7173 1 20.6065 36.3424 23.3136 3 1e-16 -4.12244
7174 1 19.7823 36.3424 20.9823 3 1e-16 -4.12244
7175 1 22.2551 36.3424 20.9823 3 4e-16 -4.12244
7176 1 21.4308 36.3424 18.6509 3 4e-16 -4.12244
7177 1 23.9036 36.3424 18.6509 3 1e-16 -4.12244
7178 1 23.0793 36.3424 16.3195 3 1e-16 -4.12244
7179 1 25.5521 36.3424 16.3195 3 2.52435e-28 -4.12244
7180 1 24.7278 36.3424 13.9882 3 2.52435e-29 -4.12244
7181 1 27.2006 36.3424 13.9882 3 1e-16 -4.12244
7182 1 26.3764 36.3424 11.6568 3 1e-16 -4.12244
7183 1 28.8491 36.3424 11.6568 3 4e-16 -4.12244
7184 1 28.0249 36.3424 9.32545 3 3.99999e-16 -4.12244
7185 1 30.4977 36.3424 9.32545 3 9.99999e-17 -4.12244
7186 1 29.6734 36.3424 6.99409 3 1e-16 -4.12244
7187 1 32.1462 36.3424 6.99409 3 9.99999e-17 -4.12244
7188 1 31.3219 36.3424 4.66273 3 0 -4.12244
7189 1 33.7947 36.3424 4.66273 3 4.00001e-16 -4.12244
7190 1 32.9705 36.3424 2.33136 3 9.99999e-17 -4.12244
7191 1 35.4432 36.3424 2.33136 3 1e-16 -4.12244
7192 1 34.619 36.3424 0 3 4.0507e-16 -4.12244
7193 1 37.0918 36.3424 0 3 5.07001e-18 -4.12244
7194 1 3.29705 34.3233 47.7929 3 4.0507e-16 -4.12244
7195 1 5.76983 34.3233 47.7929 3 5.06996e-18 -4.12244
7196 1 4.94557 34.3233 45.4616 3 1e-16 -4.12244
7197 1 7.41835 34.3233 45.4616 3 1e-16 -4.12244
7198 1 6.59409 34.3233 43.1302 3 6.05845e-28 -4.12244
7199 1 9.06687 34.3233 43.1302 3 4e-16 -4.12244
7200 1 8.24261 34.3233 40.7989 3 9.99999e-17 -4.12244
7201 1 10.7154 34.3233 40.7989 3 1e-16 -4.12244
7202 1 9.89114 34.3233 38.4675 3 4e-16 -4.12244
7203 1 12.3639 34.3233 38.4675 3 0 -4.12244
7204 1 11.5397 34.3233 36.1361 3 1e-16 -4.12244
7205 1 14.0124 34.3233 36.1361 3 1e-16 -4.12244
7206 1 13.1882 34.3233 33.8048 3 0 -4.12244
7207 1 15.661 34.3233 33.8048 3 4e-16 -4.12244
7208 1 14.8367 34.3233 31.4734 3 9.99999e-17 -4.12244
7209 1 17.3095 34.3233 31.4734 3 1e-16 -4.12244
7210 1 16.4852 34.3233 29.142 3 4e-16 -4.12244
7211 1 18.958 34.3233 29.142 3 3.5341e-28 -4.12244
7212 1 18.1337 34.3233 26.8107 3 1e-16 -4.12244
7213 1 20.6065 34.3233 26.8107 3 1e-16 -4.12244
7214 1 19.7823 34.3233 24.4793 3 1e-16 -4.12244
7215 1 22.2551 34.3233 24.4793 3 4e-16 -4.12244
7216 1 21.4308 34.3233 22.1479 3 4e-16 -4.12244
7217 1 23.9036 34.3233 22.1479 3 1e-16 -4.12244
7218 1 23.0793 34.3233 19.8166 3 1e-16 -4.12244
7219 1 25.5521 34.3233 19.8166 3 1.51461e-28 -4.12244
7220 1 24.7278 34.3233 17.4852 3 1.00974e-28 -4.12244
7221 1 27.2006 34.3233 17.4852 3 1e-16 -4.12244
7222 1 26.3764 34.3233 15.1539 3 1e-16 -4.12244
7223 1 28.8491 34.3233 15.1539 3 4e-16 -4.12244
7224 1 28.0249 34.3233 12.8225 3 3.99999e-16 -4.12244
7225 1 30.4977 34.3233 12.8225 3 9.99999e-17 -4.12244
7226 1 29.6734 34.3233 10.4911 3 1e-16 -4.12244
7227 1 32.1462 34.3233 10.4911 3 9.99999e-17 -4.12244
7228 1 31.3219 34.3233 8.15977 3 1.26218e-29 -4.12244
7229 1 33.7947 34.3233 8.15977 3 4.00001e-16 -4.12244
7230 1 32.9705 34.3233 5.82841 3 9.99999e-17 -4.12244
7231 1 35.4432 34.3233 5.82841 3 1e-16 -4.12244
7232 1 34.619 34.3233 3.49704 3 4e-16 -4.12244
7233 1 37.0918 34.3233 3.49704 3 7.88861e-31 -4.12244
7234 1 36.2675 34.3233 1.16568 3 1.0169e-16 -4.12244
7235 1 38.7403 34.3233 1.16568 3 1.0169e-16 -4.12244
7236 1 6.59409 32.3043 46.6273 3 1.69002e-18 -4.12244
7237 1 9.06687 32.3043 46.6273 3 4.0169e-16 -4.12244
7238 1 8.24261 32.3043 44.2959 3 9.99999e-17 -4.12244
7239 1 10.7154 32.3043 44.2959 3 1e-16 -4.12244
7240 1 9.89114 32.3043 41.9645 3 4e-16 -4.12244
7241 1 12.3639 32.3043 41.9645 3 0 -4.12244
7242 1 11.5397 32.3043 39.6332 3 1e-16 -4.12244
7243 1 14.0124 32.3043 39.6332 3 1e-16 -4.12244
7244 1 13.1882 32.3043 37.3018 3 0 -4.12244
7245 1 15.661 32.3043 37.3018 3 4e-16 -4.12244
7246 1 14.8367 32.3043 34.9704 3 9.99999e-17 -4.12244
7247 1 17.3095 32.3043 34.9704 3 1e-16 -4.12244
7248 1 16.4852 32.3043 32.6391 3 4e-16 -4.12244
7249 1 18.958 32.3043 32.6391 3 4.03897e-28 -4.12244
7250 1 18.1337 32.3043 30.3077 3 1e-16 -4.12244
7251 1 20.6065 32.3043 30.3077 3 1e-16 -4.12244
7252 1 19.7823 32.3043 27.9764 3 1e-16 -4.12244
7253 1 22.2551 32.3043 27.9764 3 4e-16 -4.12244
7254 1 21.4308 32.3043 25.645 3 4e-16 -4.12244
7255 1 23.9036 32.3043 25.645 3 1e-16 -4.12244
7256 1 23.0793 32.3043 23.3136 3 1e-16 -4.12244
7257 1 25.5521 32.3043 23.3136 3 1.51461e-28 -4.12244
7258 1 24.7278 32.3043 20.9823 3 0 -4.12244
7259 1 27.2006 32.3043 20.9823 3 1e-16 -4.12244
7260 1 26.3764 32.3043 18.6509 3 1e-16 -4.12244
7261 1 28.8491 32.3043 18.6509 3 4e-16 -4.12244
7262 1 28.0249 32.3043 16.3195 3 3.99999e-16 -4.12244
7263 1 30.4977 32.3043 16.3195 3 9.99999e-17 -4.12244
7264 1 29.6734 32.3043 13.9882 3 1e-16 -4.12244
7265 1 32.1462 32.3043 13.9882 3 9.99999e-17 -4.12244
7266 1 31.3219 32.3043 11.6568 3 0 -4.12244
7267 1 33.7947 32.3043 11.6568 3 4.00001e-16 -4.12244
7268 1 32.9705 32.3043 9.32545 3 9.99999e-17 -4.12244
7269 1 35.4432 32.3043 9.32545 3 1e-16 -4.12244
7270 1 34.619 32.3043 6.99409 3 4e-16 -4.12244
7271 1 37.0918 32.3043 6.99409 3 0 -4.12244
7272 1 36.2675 32.3043 4.66273 3 1e-16 -4.12244
7273 1 38.7403 32.3043 4.66273 3 1e-16 -4.12244
7274 1 37.916 32.3043 2.33136 3 8.07794e-28 -4.12244
7275 1 40.3888 32.3043 2.33136 3 3.99999e-16 -4.12244
7276 1 39.5645 32.3043 0 3 1.0507e-16 -4.12244
7277 1 42.0373 32.3043 0 3 1.0507e-16 -4.12244
7278 1 8.24261 30.2853 47.7929 3 1.0507e-16 -4.12244
7279 1 10.7154 30.2853 47.7929 3 1.0507e-16 -4.12244
7280 1 9.89114 30.2853 45.4616 3 4e-16 -4.12244
7281 1 12.3639 30.2853 45.4616 3 1.00974e-28 -4.12244
7282 1 11.5397 30.2853 43.1302 3 1e-16 -4.12244
7283 1 14.0124 30.2853 43.1302 3 1e-16 -4.12244
7284 1 13.1882 30.2853 40.7989 3 7.06819e-28 -4.12244
7285 1 15.661 30.2853 40.7989 3 4e-16 -4.12244
7286 1 14.8367 30.2853 38.4675 3 9.99999e-17 -4.12244
7287 1 17.3095 30.2853 38.4675 3 1e-16 -4.12244
7288 1 16.4852 30.2853 36.1361 3 4e-16 -4.12244
7289 1 18.958 30.2853 36.1361 3 9.08768e-28 -4.12244
7290 1 18.1337 30.2853 33.8048 3 1e-16 -4.12244
7291 1 20.6065 30.2853 33.8048 3 1e-16 -4.12244
7292 1 19.7823 30.2853 31.4734 3 1e-16 -4.12244
7293 1 22.2551 30.2853 31.4734 3 4e-16 -4.12244
7294 1 21.4308 30.2853 29.142 3 4e-16 -4.12244
7295 1 23.9036 30.2853 29.142 3 1e-16 -4.12244
7296 1 23.0793 30.2853 26.8107 3 1e-16 -4.12244
7297 1 25.5521 30.2853 26.8107 3 2.52435e-28 -4.12244
7298 1 24.7278 30.2853 24.4793 3 2.01948e-28 -4.12244
7299 1 27.2006 30.2853 24.4793 3 1e-16 -4.12244
7300 1 26.3764 30.2853 22.1479 3 1e-16 -4.12244
7301 1 28.8491 30.2853 22.1479 3 4e-16 -4.12244
7302 1 28.0249 30.2853 19.8166 3 3.99999e-16 -4.12244
7303 1 30.4977 30.2853 19.8166 3 9.99999e-17 -4.12244
7304 1 29.6734 30.2853 17.4852 3 1e-16 -4.12244
7305 1 32.1462 30.2853 17.4852 3 9.99999e-17 -4.12244
7306 1 31.3219 30.2853 15.1539 3 1.00974e-28 -4.12244
7307 1 33.7947 30.2853 15.1539 3 4.00001e-16 -4.12244
7308 1 32.9705 30.2853 12.8225 3 9.99999e-17 -4.12244
7309 1 35.4432 30.2853 12.8225 3 1e-16 -4.12244
7310 1 34.619 30.2853 10.4911 3 4e-16 -4.12244
7311 1 37.0918 30.2853 10.4911 3 1.00974e-28 -4.12244
7312 1 36.2675 30.2853 8.15977 3 1e-16 -4.12244
7313 1 38.7403 30.2853 8.15977 3 1e-16 -4.12244
7314 1 37.916 30.2853 5.82841 3 9.11923e-28 -4.12244
7315 1 40.3888 30.2853 5.82841 3 3.99999e-16 -4.12244
7316 1 39.5645 30.2853 3.49704 3 1e-16 -4.12244
7317 1 42.0373 30.2853 3.49704 3 1e-16 -4.12244
7318 1 41.2131 30.2853 1.16568 3 4.01691e-16 -4.12244
7319 1 43.6859 30.2853 1.16568 3 1.69e-18 -4.12244
7320 1 11.5397 28.2663 46.6273 3 1.0169e-16 -4.12244
7321 1 14.0124 28.2663 46.6273 3 1.0169e-16 -4.12244
7322 1 13.1882 28.2663 44.2959 3 0 -4.12244
7323 1 15.661 28.2663 44.2959 3 4e-16 -4.12244
7324 1 14.8367 28.2663 41.9645 3 9.99999e-17 -4.12244
7325 1 17.3095 28.2663 41.9645 3 1e-16 -4.12244
7326 1 16.4852 28.2663 39.6332 3 4e-16 -4.12244
7327 1 18.958 28.2663 39.6332 3 2.01948e-28 -4.12244
7328 1 18.1337 28.2663 37.3018 3 1e-16 -4.12244
7329 1 20.6065 28.2663 37.3018 3 1e-16 -4.12244
7330 1 19.7823 28.2663 34.9704 3 1e-16 -4.12244
7331 1 22.2551 28.2663 34.9704 3 4e-16 -4.12244
7332 1 21.4308 28.2663 32.6391 3 4e-16 -4.12244
7333 1 23.9036 28.2663 32.6391 3 1e-16 -4.12244
7334 1 23.0793 28.2663 30.3077 3 1e-16 -4.12244
7335 1 25.5521 28.2663 30.3077 3 1.51461e-28 -4.12244
7336 1 24.7278 28.2663 27.9764 3 1.51461e-28 -4.12244
7337 1 27.2006 28.2663 27.9764 3 1e-16 -4.12244
7338 1 26.3764 28.2663 25.645 3 1e-16 -4.12244
7339 1 28.8491 28.2663 25.645 3 4e-16 -4.12244
7340 1 28.0249 28.2663 23.3136 3 3.99999e-16 -4.12244
7341 1 30.4977 28.2663 23.3136 3 9.99999e-17 -4.12244
7342 1 29.6734 28.2663 20.9823 3 1e-16 -4.12244
7343 1 32.1462 28.2663 20.9823 3 9.99999e-17 -4.12244
7344 1 31.3219 28.2663 18.6509 3 0 -4.12244
7345 1 33.7947 28.2663 18.6509 3 4.00001e-16 -4.12244
7346 1 32.9705 28.2663 16.3195 3 9.99999e-17 -4.12244
7347 1 35.4432 28.2663 16.3195 3 1e-16 -4.12244
7348 1 34.619 28.2663 13.9882 3 4e-16 -4.12244
7349 1 37.0918 28.2663 13.9882 3 2.52435e-29 -4.12244
7350 1 36.2675 28.2663 11.6568 3 1e-16 -4.12244
7351 1 38.7403 28.2663 11.6568 3 1e-16 -4.12244
7352 1 37.916 28.2663 9.32545 3 8.07794e-28 -4.12244
7353 1 40.3888 28.2663 9.32545 3 3.99999e-16 -4.12244
7354 1 39.5645 28.2663 6.99409 3 1e-16 -4.12244
7355 1 42.0373 28.2663 6.99409 3 1e-16 -4.12244
7356 1 41.2131 28.2663 4.66273 3 4.00001e-16 -4.12244
7357 1 43.6859 28.2663 4.66273 3 2.01948e-28 -4.12244
7358 1 42.8616 28.2663 2.33136 3 9.99999e-17 -4.12244
7359 1 45.3344 28.2663 2.33136 3 9.99999e-17 -4.12244
7360 1 44.5101 28.2663 0 3 5.07001e-18 -4.12244
7361 1 46.9829 28.2663 0 3 4.0507e-16 -4.12244
7362 1 13.1882 26.2473 47.7929 3 5.06996e-18 -4.12244
7363 1 15.661 26.2473 47.7929 3 4.0507e-16 -4.12244
7364 1 14.8367 26.2473 45.4616 3 9.99999e-17 -4.12244
7365 1 17.3095 26.2473 45.4616 3 1e-16 -4.12244
7366 1 16.4852 26.2473 43.1302 3 4e-16 -4.12244
7367 1 18.958 26.2473 43.1302 3 9.08768e-28 -4.12244
7368 1 18.1337 26.2473 40.7989 3 1e-16 -4.12244
7369 1 20.6065 26.2473 40.7989 3 1e-16 -4.12244
7370 1 19.7823 26.2473 38.4675 3 1e-16 -4.12244
7371 1 22.2551 26.2473 38.4675 3 4e-16 -4.12244
7372 1 21.4308 26.2473 36.1361 3 4e-16 -4.12244
7373 1 23.9036 26.2473 36.1361 3 1e-16 -4.12244
7374 1 23.0793 26.2473 33.8048 3 1e-16 -4.12244
7375 1 25.5521 26.2473 33.8048 3 2.52435e-28 -4.12244
7376 1 24.7278 26.2473 31.4734 3 1.51461e-28 -4.12244
7377 1 27.2006 26.2473 31.4734 3 1e-16 -4.12244
7378 1 26.3764 26.2473 29.142 3 1e-16 -4.12244
7379 1 28.8491 26.2473 29.142 3 4e-16 -4.12244
7380 1 28.0249 26.2473 26.8107 3 3.99999e-16 -4.12244
7381 1 30.4977 26.2473 26.8107 3 9.99999e-17 -4.12244
7382 1 29.6734 26.2473 24.4793 3 1e-16 -4.12244
7383 1 32.1462 26.2473 24.4793 3 9.99999e-17 -4.12244
7384 1 31.3219 26.2473 22.1479 3 1.00974e-28 -4.12244
7385 1 33.7947 26.2473 22.1479 3 4.00001e-16 -4.12244
7386 1 32.9705 26.2473 19.8166 3 9.99999e-17 -4.12244
7387 1 35.4432 26.2473 19.8166 3 1e-16 -4.12244
7388 1 34.619 26.2473 17.4852 3 4e-16 -4.12244
7389 1 37.0918 26.2473 17.4852 3 2.01948e-28 -4.12244
7390 1 36.2675 26.2473 15.1539 3 1e-16 -4.12244
7391 1 38.7403 26.2473 15.1539 3 1e-16 -4.12244
7392 1 37.916 26.2473 12.8225 3 9.46633e-28 -4.12244
7393 1 40.3888 26.2473 12.8225 3 3.99999e-16 -4.12244
7394 1 39.5645 26.2473 10.4911 3 1e-16 -4.12244
7395 1 42.0373 26.2473 10.4911 3 1e-16 -4.12244
7396 1 41.2131 26.2473 8.15977 3 4.00001e-16 -4.12244
7397 1 43.6859 26.2473 8.15977 3 3.15544e-28 -4.12244
7398 1 42.8616 26.2473 5.82841 3 9.99999e-17 -4.12244
7399 1 45.3344 26.2473 5.82841 3 9.99999e-17 -4.12244
7400 1 44.5101 26.2473 3.49704 3 3.03711e-28 -4.12244
7401 1 46.9829 26.2473 3.49704 3 3.99999e-16 -4.12244
7402 1 46.1586 26.2473 1.16568 3 1.0169e-16 -4.12244
7403 1 48.6314 26.2473 1.16568 3 1.0169e-16 -4.12244
7404 1 16.4852 24.2282 46.6273 3 4.0169e-16 -4.12244
7405 1 18.958 24.2282 46.6273 3 1.69002e-18 -4.12244
7406 1 18.1337 24.2282 44.2959 3 1e-16 -4.12244
7407 1 20.6065 24.2282 44.2959 3 1e-16 -4.12244
7408 1 19.7823 24.2282 41.9645 3 1e-16 -4.12244
7409 1 22.2551 24.2282 41.9645 3 4e-16 -4.12244
7410 1 21.4308 24.2282 39.6332 3 4e-16 -4.12244
7411 1 23.9036 24.2282 39.6332 3 1e-16 -4.12244
7412 1 23.0793 24.2282 37.3018 3 1e-16 -4.12244
7413 1 25.5521 24.2282 37.3018 3 1.51461e-28 -4.12244
7414 1 24.7278 24.2282 34.9704 3 2.01948e-28 -4.12244
7415 1 27.2006 24.2282 34.9704 3 1e-16 -4.12244
7416 1 26.3764 24.2282 32.6391 3 1e-16 -4.12244
7417 1 28.8491 24.2282 32.6391 3 4e-16 -4.12244
7418 1 28.0249 24.2282 30.3077 3 3.99999e-16 -4.12244
7419 1 30.4977 24.2282 30.3077 3 9.99999e-17 -4.12244
7420 1 29.6734 24.2282 27.9764 3 1e-16 -4.12244
7421 1 32.1462 24.2282 27.9764 3 9.99999e-17 -4.12244
7422 1 31.3219 24.2282 25.645 3 1.51461e-28 -4.12244
7423 1 33.7947 24.2282 25.645 3 4.00001e-16 -4.12244
7424 1 32.9705 24.2282 23.3136 3 9.99999e-17 -4.12244
7425 1 35.4432 24.2282 23.3136 3 1e-16 -4.12244
7426 1 34.619 24.2282 20.9823 3 4e-16 -4.12244
7427 1 37.0918 24.2282 20.9823 3 0 -4.12244
7428 1 36.2675 24.2282 18.6509 3 1e-16 -4.12244
7429 1 38.7403 24.2282 18.6509 3 1e-16 -4.12244
7430 1 37.916 24.2282 16.3195 3 9.08768e-28 -4.12244
7431 1 40.3888 24.2282 16.3195 3 3.99999e-16 -4.12244
7432 1 39.5645 24.2282 13.9882 3 1e-16 -4.12244
7433 1 42.0373 24.2282 13.9882 3 1e-16 -4.12244
7434 1 41.2131 24.2282 11.6568 3 4.00001e-16 -4.12244
7435 1 43.6859 24.2282 11.6568 3 2.01948e-28 -4.12244
7436 1 42.8616 24.2282 9.32545 3 9.99999e-17 -4.12244
7437 1 45.3344 24.2282 9.32545 3 9.99999e-17 -4.12244
7438 1 44.5101 24.2282 6.99409 3 2.01948e-28 -4.12244
7439 1 46.9829 24.2282 6.99409 3 3.99999e-16 -4.12244
7440 1 46.1586 24.2282 4.66273 3 9.99999e-17 -4.12244
7441 1 48.6314 24.2282 4.66273 3 9.99999e-17 -4.12244
7442 1 47.8072 24.2282 2.33136 3 3.99999e-16 -4.12244
7443 1 50.2799 24.2282 2.33136 3 2.01948e-28 -4.12244
7444 1 49.4557 24.2282 0 3 1.0507e-16 -4.12244
7445 1 51.9285 24.2282 0 3 1.0507e-16 -4.12244
7446 1 18.1337 22.2092 47.7929 3 1.0507e-16 -4.12244
7447 1 20.6065 22.2092 47.7929 3 1.0507e-16 -4.12244
7448 1 19.7823 22.2092 45.4616 3 1e-16 -4.12244
7449 1 22.2551 22.2092 45.4616 3 4e-16 -4.12244
7450 1 21.4308 22.2092 43.1302 3 4e-16 -4.12244
7451 1 23.9036 22.2092 43.1302 3 1e-16 -4.12244
7452 1 23.0793 22.2092 40.7989 3 1e-16 -4.12244
7453 1 25.5521 22.2092 40.7989 3 7.57306e-28 -4.12244
7454 1 24.7278 22.2092 38.4675 3 0 -4.12244
7455 1 27.2006 22.2092 38.4675 3 1e-16 -4.12244
7456 1 26.3764 22.2092 36.1361 3 1e-16 -4.12244
7457 1 28.8491 22.2092 36.1361 3 4e-16 -4.12244
7458 1 28.0249 22.2092 33.8048 3 3.99999e-16 -4.12244
7459 1 30.4977 22.2092 33.8048 3 9.99999e-17 -4.12244
7460 1 29.6734 22.2092 31.4734 3 1e-16 -4.12244
7461 1 32.1462 22.2092 31.4734 3 9.99999e-17 -4.12244
7462 1 31.3219 22.2092 29.142 3 1.51461e-28 -4.12244
7463 1 33.7947 22.2092 29.142 3 4.00001e-16 -4.12244
7464 1 32.9705 22.2092 26.8107 3 9.99999e-17 -4.12244
7465 1 35.4432 22.2092 26.8107 3 1e-16 -4.12244
7466 1 34.619 22.2092 24.4793 3 4e-16 -4.12244
7467 1 37.0918 22.2092 24.4793 3 1.00974e-28 -4.12244
7468 1 36.2675 22.2092 22.1479 3 1e-16 -4.12244
7469 1 38.7403 22.2092 22.1479 3 1e-16 -4.12244
7470 1 37.916 22.2092 19.8166 3 8.07794e-28 -4.12244
7471 1 40.3888 22.2092 19.8166 3 3.99999e-16 -4.12244
7472 1 39.5645 22.2092 17.4852 3 1e-16 -4.12244
7473 1 42.0373 22.2092 17.4852 3 1e-16 -4.12244
7474 1 41.2131 22.2092 15.1539 3 4.00001e-16 -4.12244
7475 1 43.6859 22.2092 15.1539 3 2.01948e-28 -4.12244
7476 1 42.8616 22.2092 12.8225 3 9.99999e-17 -4.12244
7477 1 45.3344 22.2092 12.8225 3 9.99999e-17 -4.12244
7478 1 44.5101 22.2092 10.4911 3 2.01948e-28 -4.12244
7479 1 46.9829 22.2092 10.4911 3 3.99999e-16 -4.12244
7480 1 46.1586 22.2092 8.15977 3 9.99999e-17 -4.12244
7481 1 48.6314 22.2092 8.15977 3 9.99999e-17 -4.12244
7482 1 47.8072 22.2092 5.82841 3 3.99999e-16 -4.12244
7483 1 50.2799 22.2092 5.82841 3 2.05104e-28 -4.12244
7484 1 49.4557 22.2092 3.49704 3 9.99999e-17 -4.12244
7485 1 51.9285 22.2092 3.49704 3 1e-16 -4.12244
7486 1 51.1042 22.2092 1.16568 3 1.0169e-16 -4.12244
7487 1 53.577 22.2092 1.16568 3 4.01689e-16 -4.12244
7488 1 21.4308 20.1902 46.6273 3 4.01691e-16 -4.12244
7489 1 23.9036 20.1902 46.6273 3 1.0169e-16 -4.12244
7490 1 23.0793 20.1902 44.2959 3 1e-16 -4.12244
7491 1 25.5521 20.1902 44.2959 3 1.51461e-28 -4.12244
7492 1 24.7278 20.1902 41.9645 3 0 -4.12244
7493 1 27.2006 20.1902 41.9645 3 1e-16 -4.12244
7494 1 26.3764 20.1902 39.6332 3 1e-16 -4.12244
7495 1 28.8491 20.1902 39.6332 3 4e-16 -4.12244
7496 1 28.0249 20.1902 37.3018 3 3.99999e-16 -4.12244
7497 1 30.4977 20.1902 37.3018 3 9.99999e-17 -4.12244
7498 1 29.6734 20.1902 34.9704 3 1e-16 -4.12244
7499 1 32.1462 20.1902 34.9704 3 9.99999e-17 -4.12244
7500 1 31.3219 20.1902 32.6391 3 2.01948e-28 -4.12244
7501 1 33.7947 20.1902 32.6391 3 4.00001e-16 -4.12244
7502 1 32.9705 20.1902 30.3077 3 9.99999e-17 -4.12244
7503 1 35.4432 20.1902 30.3077 3 1e-16 -4.12244
7504 1 34.619 20.1902 27.9764 3 4e-16 -4.12244
7505 1 37.0918 20.1902 27.9764 3 1.51461e-28 -4.12244
7506 1 36.2675 20.1902 25.645 3 1e-16 -4.12244
7507 1 38.7403 20.1902 25.645 3 1e-16 -4.12244
7508 1 37.916 20.1902 23.3136 3 8.07794e-28 -4.12244
7509 1 40.3888 20.1902 23.3136 3 3.99999e-16 -4.12244
7510 1 39.5645 20.1902 20.9823 3 1e-16 -4.12244
7511 1 42.0373 20.1902 20.9823 3 1e-16 -4.12244
7512 1 41.2131 20.1902 18.6509 3 4.00001e-16 -4.12244
7513 1 43.6859 20.1902 18.6509 3 2.01948e-28 -4.12244
7514 1 42.8616 20.1902 16.3195 3 9.99999e-17 -4.12244
7515 1 45.3344 20.1902 16.3195 3 9.99999e-17 -4.12244
7516 1 44.5101 20.1902 13.9882 3 2.27192e-28 -4.12244
7517 1 46.9829 20.1902 13.9882 3 3.99999e-16 -4.12244
7518 1 46.1586 20.1902 11.6568 3 9.99999e-17 -4.12244
7519 1 48.6314 20.1902 11.6568 3 9.99999e-17 -4.12244
7520 1 47.8072 20.1902 9.32545 3 3.99999e-16 -4.12244
7521 1 50.2799 20.1902 9.32545 3 2.01948e-28 -4.12244
7522 1 49.4557 20.1902 6.99409 3 9.99999e-17 -4.12244
7523 1 51.9285 20.1902 6.99409 3 1e-16 -4.12244
7524 1 51.1042 20.1902 4.66273 3 9.99999e-17 -4.12244
7525 1 53.577 20.1902 4.66273 3 3.99999e-16 -4.12244
7526 1 52.7527 20.1902 2.33136 3 4.00001e-16 -4.12244
7527 1 55.2255 20.1902 2.33136 3 1e-16 -4.12244
7528 1 54.4012 20.1902 0 3 1.0507e-16 -4.12244
7529 1 56.874 20.1902 0 3 5.07001e-18 -4.12244
7530 1 23.0793 18.1712 47.7929 3 1.0507e-16 -4.12244
7531 1 25.5521 18.1712 47.7929 3 5.06996e-18 -4.12244
7532 1 24.7278 18.1712 45.4616 3 1.00974e-28 -4.12244
7533 1 27.2006 18.1712 45.4616 3 1e-16 -4.12244
7534 1 26.3764 18.1712 43.1302 3 1e-16 -4.12244
7535 1 28.8491 18.1712 43.1302 3 4e-16 -4.12244
7536 1 28.0249 18.1712 40.7989 3 3.99999e-16 -4.12244
7537 1 30.4977 18.1712 40.7989 3 9.99999e-17 -4.12244
7538 1 29.6734 18.1712 38.4675 3 1e-16 -4.12244
7539 1 32.1462 18.1712 38.4675 3 9.99999e-17 -4.12244
7540 1 31.3219 18.1712 36.1361 3 7.06819e-28 -4.12244
7541 1 33.7947 18.1712 36.1361 3 4.00001e-16 -4.12244
7542 1 32.9705 18.1712 33.8048 3 9.99999e-17 -4.12244
7543 1 35.4432 18.1712 33.8048 3 1e-16 -4.12244
7544 1 34.619 18.1712 31.4734 3 4e-16 -4.12244
7545 1 37.0918 18.1712 31.4734 3 1.51461e-28 -4.12244
7546 1 36.2675 18.1712 29.142 3 1e-16 -4.12244
7547 1 38.7403 18.1712 29.142 3 1e-16 -4.12244
7548 1 37.916 18.1712 26.8107 3 9.08768e-28 -4.12244
7549 1 40.3888 18.1712 26.8107 3 3.99999e-16 -4.12244
7550 1 39.5645 18.1712 24.4793 3 1e-16 -4.12244
7551 1 42.0373 18.1712 24.4793 3 1e-16 -4.12244
7552 1 41.2131 18.1712 22.1479 3 4.00001e-16 -4.12244
7553 1 43.6859 18.1712 22.1479 3 3.02923e-28 -4.12244
7554 1 42.8616 18.1712 19.8166 3 9.99999e-17 -4.12244
7555 1 45.3344 18.1712 19.8166 3 9.99999e-17 -4.12244
7556 1 44.5101 18.1712 17.4852 3 4.03897e-28 -4.12244
7557 1 46.9829 18.1712 17.4852 3 3.99999e-16 -4.12244
7558 1 46.1586 18.1712 15.1539 3 9.99999e-17 -4.12244
7559 1 48.6314 18.1712 15.1539 3 9.99999e-17 -4.12244
7560 1 47.8072 18.1712 12.8225 3 3.99999e-16 -4.12244
7561 1 50.2799 18.1712 12.8225 3 3.40788e-28 -4.12244
7562 1 49.4557 18.1712 10.4911 3 9.99999e-17 -4.12244
7563 1 51.9285 18.1712 10.4911 3 1e-16 -4.12244
7564 1 51.1042 18.1712 8.15977 3 9.99999e-17 -4.12244
7565 1 53.577 18.1712 8.15977 3 3.99999e-16 -4.12244
7566 1 52.7527 18.1712 5.82841 3 4.00001e-16 -4.12244
7567 1 55.2255 18.1712 5.82841 3 1e-16 -4.12244
7568 1 54.4012 18.1712 3.49704 3 1e-16 -4.12244
7569 1 56.874 18.1712 3.49704 3 1.01763e-28 -4.12244
7570 1 56.0498 18.1712 1.16568 3 1.69e-18 -4.12244
7571 1 58.5226 18.1712 1.16568 3 1.0169e-16 -4.12244
7572 1 26.3764 16.1522 46.6273 3 1.0169e-16 -4.12244
7573 1 28.8491 16.1522 46.6273 3 4.0169e-16 -4.12244
7574 1 28.0249 16.1522 44.2959 3 3.99999e-16 -4.12244
7575 1 30.4977 16.1522 44.2959 3 9.99999e-17 -4.12244
7576 1 29.6734 16.1522 41.9645 3 1e-16 -4.12244
7577 1 32.1462 16.1522 41.9645 3 9.99999e-17 -4.12244
7578 1 31.3219 16.1522 39.6332 3 0 -4.12244
7579 1 33.7947 16.1522 39.6332 3 4.00001e-16 -4.12244
7580 1 32.9705 16.1522 37.3018 3 9.99999e-17 -4.12244
7581 1 35.4432 16.1522 37.3018 3 1e-16 -4.12244
7582 1 34.619 16.1522 34.9704 3 4e-16 -4.12244
7583 1 37.0918 16.1522 34.9704 3 2.01948e-28 -4.12244
7584 1 36.2675 16.1522 32.6391 3 1e-16 -4.12244
7585 1 38.7403 16.1522 32.6391 3 1e-16 -4.12244
7586 1 37.916 16.1522 30.3077 3 8.07794e-28 -4.12244
7587 1 40.3888 16.1522 30.3077 3 3.99999e-16 -4.12244
7588 1 39.5645 16.1522 27.9764 3 1e-16 -4.12244
7589 1 42.0373 16.1522 27.9764 3 1e-16 -4.12244
7590 1 41.2131 16.1522 25.645 3 4.00001e-16 -4.12244
7591 1 43.6859 16.1522 25.645 3 3.5341e-28 -4.12244
7592 1 42.8616 16.1522 23.3136 3 9.99999e-17 -4.12244
7593 1 45.3344 16.1522 23.3136 3 9.99999e-17 -4.12244
7594 1 44.5101 16.1522 20.9823 3 2.01948e-28 -4.12244
7595 1 46.9829 16.1522 20.9823 3 3.99999e-16 -4.12244
7596 1 46.1586 16.1522 18.6509 3 9.99999e-17 -4.12244
7597 1 48.6314 16.1522 18.6509 3 9.99999e-17 -4.12244
7598 1 47.8072 16.1522 16.3195 3 3.99999e-16 -4.12244
7599 1 50.2799 16.1522 16.3195 3 3.02923e-28 -4.12244
7600 1 49.4557 16.1522 13.9882 3 9.99999e-17 -4.12244
7601 1 51.9285 16.1522 13.9882 3 1e-16 -4.12244
7602 1 51.1042 16.1522 11.6568 3 9.99999e-17 -4.12244
7603 1 53.577 16.1522 11.6568 3 3.99999e-16 -4.12244
7604 1 52.7527 16.1522 9.32545 3 4.00001e-16 -4.12244
7605 1 55.2255 16.1522 9.32545 3 1e-16 -4.12244
7606 1 54.4012 16.1522 6.99409 3 1e-16 -4.12244
7607 1 56.874 16.1522 6.99409 3 0 -4.12244
7608 1 56.0498 16.1522 4.66273 3 0 -4.12244
7609 1 58.5226 16.1522 4.66273 3 9.99999e-17 -4.12244
7610 1 57.6983 16.1522 2.33136 3 1e-16 -4.12244
7611 1 60.1711 16.1522 2.33136 3 3.99999e-16 -4.12244
7612 1 59.3468 16.1522 0 3 4.0507e-16 -4.12244
7613 1 61.8196 16.1522 0 3 6.28299e-17 -4.12244
7614 1 28.0249 14.1331 47.7929 3 4.05069e-16 -4.12244
7615 1 30.4977 14.1331 47.7929 3 1.0507e-16 -4.12244
7616 1 29.6734 14.1331 45.4616 3 1e-16 -4.12244
7617 1 32.1462 14.1331 45.4616 3 9.99999e-17 -4.12244
7618 1 31.3219 14.1331 43.1302 3 6.05845e-28 -4.12244
7619 1 33.7947 14.1331 43.1302 3 4.00001e-16 -4.12244
7620 1 32.9705 14.1331 40.7989 3 9.99999e-17 -4.12244
7621 1 35.4432 14.1331 40.7989 3 1e-16 -4.12244
7622 1 34.619 14.1331 38.4675 3 4e-16 -4.12244
7623 1 37.0918 14.1331 38.4675 3 0 -4.12244
7624 1 36.2675 14.1331 36.1361 3 1e-16 -4.12244
7625 1 38.7403 14.1331 36.1361 3 1e-16 -4.12244
7626 1 37.916 14.1331 33.8048 3 8.07794e-28 -4.12244
7627 1 40.3888 14.1331 33.8048 3 3.99999e-16 -4.12244
7628 1 39.5645 14.1331 31.4734 3 1e-16 -4.12244
7629 1 42.0373 14.1331 31.4734 3 1e-16 -4.12244
7630 1 41.2131 14.1331 29.142 3 4.00001e-16 -4.12244
7631 1 43.6859 14.1331 29.142 3 3.5341e-28 -4.12244
7632 1 42.8616 14.1331 26.8107 3 9.99999e-17 -4.12244
7633 1 45.3344 14.1331 26.8107 3 9.99999e-17 -4.12244
7634 1 44.5101 14.1331 24.4793 3 3.02923e-28 -4.12244
7635 1 46.9829 14.1331 24.4793 3 3.99999e-16 -4.12244
7636 1 46.1586 14.1331 22.1479 3 9.99999e-17 -4.12244
7637 1 48.6314 14.1331 22.1479 3 9.99999e-17 -4.12244
7638 1 47.8072 14.1331 19.8166 3 3.99999e-16 -4.12244
7639 1 50.2799 14.1331 19.8166 3 2.01948e-28 -4.12244
7640 1 49.4557 14.1331 17.4852 3 9.99999e-17 -4.12244
7641 1 51.9285 14.1331 17.4852 3 1e-16 -4.12244
7642 1 51.1042 14.1331 15.1539 3 9.99999e-17 -4.12244
7643 1 53.577 14.1331 15.1539 3 3.99999e-16 -4.12244
7644 1 52.7527 14.1331 12.8225 3 4.00001e-16 -4.12244
7645 1 55.2255 14.1331 12.8225 3 1e-16 -4.12244
7646 1 54.4012 14.1331 10.4911 3 1e-16 -4.12244
7647 1 56.874 14.1331 10.4911 3 0 -4.12244
7648 1 56.0498 14.1331 8.15977 3 1.26218e-29 -4.12244
7649 1 58.5226 14.1331 8.15977 3 9.99999e-17 -4.12244
7650 1 57.6983 14.1331 5.82841 3 1e-16 -4.12244
7651 1 60.1711 14.1331 5.82841 3 3.99999e-16 -4.12244
7652 1 59.3468 14.1331 3.49704 3 3.99999e-16 -4.12244
7653 1 61.8196 14.1331 3.49704 3 5.77599e-17 -4.12244
7654 1 60.9953 14.1331 1.16568 3 1.0169e-16 -4.12244
7655 1 63.4681 14.1331 1.16568 3 2.473e-17 -4.12244
7656 1 31.3219 12.1141 46.6273 3 1.69002e-18 -4.12244
7657 1 33.7947 12.1141 46.6273 3 4.01691e-16 -4.12244
7658 1 32.9705 12.1141 44.2959 3 9.99999e-17 -4.12244
7659 1 35.4432 12.1141 44.2959 3 1e-16 -4.12244
7660 1 34.619 12.1141 41.9645 3 4e-16 -4.12244
7661 1 37.0918 12.1141 41.9645 3 0 -4.12244
7662 1 36.2675 12.1141 39.6332 3 1e-16 -4.12244
7663 1 38.7403 12.1141 39.6332 3 1e-16 -4.12244
7664 1 37.916 12.1141 37.3018 3 8.07794e-28 -4.12244
7665 1 40.3888 12.1141 37.3018 3 3.99999e-16 -4.12244
7666 1 39.5645 12.1141 34.9704 3 1e-16 -4.12244
7667 1 42.0373 12.1141 34.9704 3 1e-16 -4.12244
7668 1 41.2131 12.1141 32.6391 3 4.00001e-16 -4.12244
7669 1 43.6859 12.1141 32.6391 3 4.03897e-28 -4.12244
7670 1 42.8616 12.1141 30.3077 3 9.99999e-17 -4.12244
7671 1 45.3344 12.1141 30.3077 3 9.99999e-17 -4.12244
7672 1 44.5101 12.1141 27.9764 3 3.5341e-28 -4.12244
7673 1 46.9829 12.1141 27.9764 3 3.99999e-16 -4.12244
7674 1 46.1586 12.1141 25.645 3 9.99999e-17 -4.12244
7675 1 48.6314 12.1141 25.645 3 9.99999e-17 -4.12244
7676 1 47.8072 12.1141 23.3136 3 3.99999e-16 -4.12244
7677 1 50.2799 12.1141 23.3136 3 2.01948e-28 -4.12244
7678 1 49.4557 12.1141 20.9823 3 9.99999e-17 -4.12244
7679 1 51.9285 12.1141 20.9823 3 1e-16 -4.12244
7680 1 51.1042 12.1141 18.6509 3 9.99999e-17 -4.12244
7681 1 53.577 12.1141 18.6509 3 3.99999e-16 -4.12244
7682 1 52.7527 12.1141 16.3195 3 4.00001e-16 -4.12244
7683 1 55.2255 12.1141 16.3195 3 1e-16 -4.12244
7684 1 54.4012 12.1141 13.9882 3 1e-16 -4.12244
7685 1 56.874 12.1141 13.9882 3 2.52435e-29 -4.12244
7686 1 56.0498 12.1141 11.6568 3 0 -4.12244
7687 1 58.5226 12.1141 11.6568 3 9.99999e-17 -4.12244
7688 1 57.6983 12.1141 9.32545 3 1e-16 -4.12244
7689 1 60.1711 12.1141 9.32545 3 3.99999e-16 -4.12244
7690 1 59.3468 12.1141 6.99409 3 3.99999e-16 -4.12244
7691 1 61.8196 12.1141 6.99409 3 5.77599e-17 -4.12244
7692 1 60.9953 12.1141 4.66273 3 9.99999e-17 -4.12244
7693 1 63.4681 12.1141 4.66273 3 2.304e-17 -4.12244
7694 1 62.6439 12.1141 2.33136 3 5.76e-18 -4.12244
7695 1 32.9705 10.0951 47.7929 3 1.0507e-16 -4.12244
7696 1 35.4432 10.0951 47.7929 3 1.0507e-16 -4.12244
7697 1 34.619 10.0951 45.4616 3 4e-16 -4.12244
7698 1 37.0918 10.0951 45.4616 3 0 -4.12244
7699 1 36.2675 10.0951 43.1302 3 1e-16 -4.12244
7700 1 38.7403 10.0951 43.1302 3 1e-16 -4.12244
7701 1 37.916 10.0951 40.7989 3 1.41364e-27 -4.12244
7702 1 40.3888 10.0951 40.7989 3 3.99999e-16 -4.12244
7703 1 39.5645 10.0951 38.4675 3 1e-16 -4.12244
7704 1 42.0373 10.0951 38.4675 3 1e-16 -4.12244
7705 1 41.2131 10.0951 36.1361 3 4.00001e-16 -4.12244
7706 1 43.6859 10.0951 36.1361 3 8.07794e-28 -4.12244
7707 1 42.8616 10.0951 33.8048 3 9.99999e-17 -4.12244
7708 1 45.3344 10.0951 33.8048 3 9.99999e-17 -4.12244
7709 1 44.5101 10.0951 31.4734 3 2.52435e-28 -4.12244
7710 1 46.9829 10.0951 31.4734 3 3.99999e-16 -4.12244
7711 1 46.1586 10.0951 29.142 3 9.99999e-17 -4.12244
7712 1 48.6314 10.0951 29.142 3 9.99999e-17 -4.12244
7713 1 47.8072 10.0951 26.8107 3 3.99999e-16 -4.12244
7714 1 50.2799 10.0951 26.8107 3 2.01948e-28 -4.12244
7715 1 49.4557 10.0951 24.4793 3 9.99999e-17 -4.12244
7716 1 51.9285 10.0951 24.4793 3 1e-16 -4.12244
7717 1 51.1042 10.0951 22.1479 3 9.99999e-17 -4.12244
7718 1 53.577 10.0951 22.1479 3 3.99999e-16 -4.12244
7719 1 52.7527 10.0951 19.8166 3 4.00001e-16 -4.12244
7720 1 55.2255 10.0951 19.8166 3 1e-16 -4.12244
7721 1 54.4012 10.0951 17.4852 3 1e-16 -4.12244
7722 1 56.874 10.0951 17.4852 3 1.00974e-28 -4.12244
7723 1 56.0498 10.0951 15.1539 3 0 -4.12244
7724 1 58.5226 10.0951 15.1539 3 9.99999e-17 -4.12244
7725 1 57.6983 10.0951 12.8225 3 1e-16 -4.12244
7726 1 60.1711 10.0951 12.8225 3 3.99999e-16 -4.12244
7727 1 59.3468 10.0951 10.4911 3 3.99999e-16 -4.12244
7728 1 61.8196 10.0951 10.4911 3 5.77599e-17 -4.12244
7729 1 60.9953 10.0951 8.15977 3 9.99999e-17 -4.12244
7730 1 63.4681 10.0951 8.15977 3 2.304e-17 -4.12244
7731 1 62.6439 10.0951 5.82841 3 5.76e-18 -4.12244
7732 1 36.2675 8.07608 46.6273 3 1.0169e-16 -4.12244
7733 1 38.7403 8.07608 46.6273 3 1.0169e-16 -4.12244
7734 1 37.916 8.07608 44.2959 3 8.07794e-28 -4.12244
7735 1 40.3888 8.07608 44.2959 3 3.99999e-16 -4.12244
7736 1 39.5645 8.07608 41.9645 3 1e-16 -4.12244
7737 1 42.0373 8.07608 41.9645 3 1e-16 -4.12244
7738 1 41.2131 8.07608 39.6332 3 4.00001e-16 -4.12244
7739 1 43.6859 8.07608 39.6332 3 2.01948e-28 -4.12244
7740 1 42.8616 8.07608 37.3018 3 9.99999e-17 -4.12244
7741 1 45.3344 8.07608 37.3018 3 9.99999e-17 -4.12244
7742 1 44.5101 8.07608 34.9704 3 4.03897e-28 -4.12244
7743 1 46.9829 8.07608 34.9704 3 3.99999e-16 -4.12244
7744 1 46.1586 8.07608 32.6391 3 9.99999e-17 -4.12244
7745 1 48.6314 8.07608 32.6391 3 9.99999e-17 -4.12244
7746 1 47.8072 8.07608 30.3077 3 3.99999e-16 -4.12244
7747 1 50.2799 8.07608 30.3077 3 2.01948e-28 -4.12244
7748 1 49.4557 8.07608 27.9764 3 9.99999e-17 -4.12244
7749 1 51.9285 8.07608 27.9764 3 1e-16 -4.12244
7750 1 51.1042 8.07608 25.645 3 9.99999e-17 -4.12244
7751 1 53.577 8.07608 25.645 3 3.99999e-16 -4.12244
7752 1 52.7527 8.07608 23.3136 3 4.00001e-16 -4.12244
7753 1 55.2255 8.07608 23.3136 3 1e-16 -4.12244
7754 1 54.4012 8.07608 20.9823 3 1e-16 -4.12244
7755 1 56.874 8.07608 20.9823 3 0 -4.12244
7756 1 56.0498 8.07608 18.6509 3 0 -4.12244
7757 1 58.5226 8.07608 18.6509 3 9.99999e-17 -4.12244
7758 1 57.6983 8.07608 16.3195 3 1e-16 -4.12244
7759 1 60.1711 8.07608 16.3195 3 3.99999e-16 -4.12244
7760 1 59.3468 8.07608 13.9882 3 3.99999e-16 -4.12244
7761 1 61.8196 8.07608 13.9882 3 5.77599e-17 -4.12244
7762 1 60.9953 8.07608 11.6568 3 9.99999e-17 -4.12244
7763 1 63.4681 8.07608 11.6568 3 2.304e-17 -4.12244
7764 1 62.6439 8.07608 9.32545 3 5.76e-18 -4.12244
7765 1 37.916 6.05706 47.7929 3 5.06996e-18 -4.12244
7766 1 40.3888 6.05706 47.7929 3 4.05069e-16 -4.12244
7767 1 39.5645 6.05706 45.4616 3 1e-16 -4.12244
7768 1 42.0373 6.05706 45.4616 3 1e-16 -4.12244
7769 1 41.2131 6.05706 43.1302 3 4.00001e-16 -4.12244
7770 1 43.6859 6.05706 43.1302 3 8.07794e-28 -4.12244
7771 1 42.8616 6.05706 40.7989 3 9.99999e-17 -4.12244
7772 1 45.3344 6.05706 40.7989 3 9.99999e-17 -4.12244
7773 1 44.5101 6.05706 38.4675 3 2.01948e-28 -4.12244
7774 1 46.9829 6.05706 38.4675 3 3.99999e-16 -4.12244
7775 1 46.1586 6.05706 36.1361 3 9.99999e-17 -4.12244
7776 1 48.6314 6.05706 36.1361 3 9.99999e-17 -4.12244
7777 1 47.8072 6.05706 33.8048 3 3.99999e-16 -4.12244
7778 1 50.2799 6.05706 33.8048 3 2.01948e-28 -4.12244
7779 1 49.4557 6.05706 31.4734 3 9.99999e-17 -4.12244
7780 1 51.9285 6.05706 31.4734 3 1e-16 -4.12244
7781 1 51.1042 6.05706 29.142 3 9.99999e-17 -4.12244
7782 1 53.577 6.05706 29.142 3 3.99999e-16 -4.12244
7783 1 52.7527 6.05706 26.8107 3 4.00001e-16 -4.12244
7784 1 55.2255 6.05706 26.8107 3 1e-16 -4.12244
7785 1 54.4012 6.05706 24.4793 3 1e-16 -4.12244
7786 1 56.874 6.05706 24.4793 3 1.00974e-28 -4.12244
7787 1 56.0498 6.05706 22.1479 3 0 -4.12244
7788 1 58.5226 6.05706 22.1479 3 9.99999e-17 -4.12244
7789 1 57.6983 6.05706 19.8166 3 1e-16 -4.12244
7790 1 60.1711 6.05706 19.8166 3 3.99999e-16 -4.12244
7791 1 59.3468 6.05706 17.4852 3 3.99999e-16 -4.12244
7792 1 61.8196 6.05706 17.4852 3 5.77599e-17 -4.12244
7793 1 60.9953 6.05706 15.1539 3 9.99999e-17 -4.12244
7794 1 63.4681 6.05706 15.1539 3 2.304e-17 -4.12244
7795 1 62.6439 6.05706 12.8225 3 5.76e-18 -4.12244
7796 1 41.2131 4.03804 46.6273 3 4.01691e-16 -4.12244
7797 1 43.6859 4.03804 46.6273 3 1.69002e-18 -4.12244
7798 1 42.8616 4.03804 44.2959 3 9.99999e-17 -4.12244
7799 1 45.3344 4.03804 44.2959 3 9.99999e-17 -4.12244
7800 1 44.5101 4.03804 41.9645 3 2.01948e-28 -4.12244
7801 1 46.9829 4.03804 41.9645 3 3.99999e-16 -4.12244
7802 1 46.1586 4.03804 39.6332 3 9.99999e-17 -4.12244
7803 1 48.6314 4.03804 39.6332 3 9.99999e-17 -4.12244
7804 1 47.8072 4.03804 37.3018 3 3.99999e-16 -4.12244
7805 1 50.2799 4.03804 37.3018 3 2.01948e-28 -4.12244
7806 1 49.4557 4.03804 34.9704 3 9.99999e-17 -4.12244
7807 1 51.9285 4.03804 34.9704 3 1e-16 -4.12244
7808 1 51.1042 4.03804 32.6391 3 9.99999e-17 -4.12244
7809 1 53.577 4.03804 32.6391 3 3.99999e-16 -4.12244
7810 1 52.7527 4.03804 30.3077 3 4.00001e-16 -4.12244
7811 1 55.2255 4.03804 30.3077 3 1e-16 -4.12244
7812 1 54.4012 4.03804 27.9764 3 1e-16 -4.12244
7813 1 56.874 4.03804 27.9764 3 1.51461e-28 -4.12244
7814 1 56.0498 4.03804 25.645 3 1.51461e-28 -4.12244
7815 1 58.5226 4.03804 25.645 3 9.99999e-17 -4.12244
7816 1 57.6983 4.03804 23.3136 3 1e-16 -4.12244
7817 1 60.1711 4.03804 23.3136 3 3.99999e-16 -4.12244
7818 1 59.3468 4.03804 20.9823 3 3.99999e-16 -4.12244
7819 1 61.8196 4.03804 20.9823 3 5.77599e-17 -4.12244
7820 1 60.9953 4.03804 18.6509 3 9.99999e-17 -4.12244
7821 1 63.4681 4.03804 18.6509 3 2.304e-17 -4.12244
7822 1 62.6439 4.03804 16.3195 3 5.76e-18 -4.12244
7823 1 42.8616 2.01902 47.7929 3 1.0507e-16 -4.10627
7824 1 45.3344 2.01902 47.7929 3 1.0507e-16 -4.10627
7825 1 44.5101 2.01902 45.4616 3 2.01948e-28 -4.10627
7826 1 46.9829 2.01902 45.4616 3 3.99999e-16 -4.10627
7827 1 46.1586 2.01902 43.1302 3 9.99999e-17 -4.10627
7828 1 48.6314 2.01902 43.1302 3 9.99999e-17 -4.10627
7829 1 47.8072 2.01902 40.7989 3 3.99999e-16 -4.10627
7830 1 50.2799 2.01902 40.7989 3 8.07794e-28 -4.10627
7831 1 49.4557 2.01902 38.4675 3 9.99999e-17 -4.10627
7832 1 51.9285 2.01902 38.4675 3 1e-16 -4.10627
7833 1 51.1042 2.01902 36.1361 3 9.99999e-17 -4.10627
7834 1 53.577 2.01902 36.1361 3 3.99999e-16 -4.10627
7835 1 52.7527 2.01902 33.8048 3 4.00001e-16 -4.10627
7836 1 55.2255 2.01902 33.8048 3 1e-16 -4.10627
7837 1 54.4012 2.01902 31.4734 3 1e-16 -4.10627
7838 1 56.874 2.01902 31.4734 3 5.04871e-29 -4.10627
7839 1 56.0498 2.01902 29.142 3 1.51461e-28 -4.10627
7840 1 58.5226 2.01902 29.142 3 9.99999e-17 -4.10627
7841 1 57.6983 2.01902 26.8107 3 1e-16 -4.10627
7842 1 60.1711 2.01902 26.8107 3 3.99999e-16 -4.10627
7843 1 59.3468 2.01902 24.4793 3 3.99999e-16 -4.10627
7844 1 61.8196 2.01902 24.4793 3 5.77599e-17 -4.10627
7845 1 60.9953 2.01902 22.1479 3 9.99999e-17 -4.10627
7846 1 63.4681 2.01902 22.1479 3 2.304e-17 -4.10627
7847 1 62.6439 2.01902 19.8166 3 5.76e-18 -4.10627
7848 1 46.1586 0 46.6273 5 12.2293 -3.54465
7849 1 48.6314 -0 46.6273 5 12.2293 -3.54465
7850 1 47.8072 0 44.2959 5 12.2293 -3.54465
7851 1 50.2799 -0 44.2959 5 12.2293 -3.54465
7852 1 49.4557 0 41.9645 5 12.2293 -3.54465
7853 1 51.9285 -0 41.9645 5 12.2293 -3.54465
7854 1 51.1042 0 39.6332 5 12.2293 -3.54465
7855 1 53.577 -0 39.6332 5 12.2293 -3.54465
7856 1 52.7527 0 37.3018 5 12.2293 -3.54465
7857 1 55.2255 -0 37.3018 5 12.2293 -3.54465
7858 1 54.4012 0 34.9704 5 12.2293 -3.54465
7859 1 56.874 -0 34.9704 5 12.2293 -3.54465
7860 1 56.0498 0 32.6391 5 12.2293 -3.54465
7861 1 58.5226 -0 32.6391 5 12.2293 -3.54465
7862 1 57.6983 0 30.3077 5 12.2293 -3.54465
7863 1 60.1711 -0 30.3077 5 12.2293 -3.54465
7864 1 59.3468 0 27.9764 5 12.2293 -3.54465
7865 1 61.8196 -0 27.9764 5 12.2293 -3.54465
7866 1 60.9953 0 25.645 5 12.2293 -3.54465
7867 1 63.4681 -0 25.645 5 12.2293 -3.54465
7868 1 62.6439 0 23.3136 5 12.2293 -3.54465
7869 1 0.824261 62.5896 12.8225 5 12.2293 -3.54465
7870 1 0 62.5896 10.4911 5 12.2293 -3.54465
7871 1 2.47278 62.5896 10.4911 5 12.2293 -3.54465
7872 1 1.64852 62.5896 8.15977 5 12.2293 -3.54465
7873 1 4.12131 62.5896 8.15977 5 12.2293 -3.54465
7874 1 3.29705 62.5896 5.82841 5 12.2293 -3.54465
7875 1 5.76983 62.5896 5.82841 5 12.2293 -3.54465
7876 1 4.94557 62.5896 3.49704 5 12.2293 -3.54465
7877 1 7.41835 62.5896 3.49704 5 12.2293 -3.54465
7878 1 6.59409 62.5896 1.16568 5 12.2293 -3.54465
7879 1 9.06687 62.5896 1.16568 5 12.2293 -3.54465
7880 1 0.824261 60.5706 16.3195 3 5.776e-17 -4.10627
7881 1 0 60.5706 13.9882 3 2.304e-17 -4.10627
7882 1 2.47278 60.5706 13.9882 3 4e-16 -4.10627
7883 1 1.64852 60.5706 11.6568 3 5.776e-17 -4.10627
7884 1 4.12131 60.5706 11.6568 3 1e-16 -4.10627
7885 1 3.29705 60.5706 9.32545 3 4e-16 -4.10627
7886 1 5.76983 60.5706 9.32545 3 4.03897e-28 -4.10627
7887 1 4.94557 60.5706 6.99409 3 1e-16 -4.10627
7888 1 7.41835 60.5706 6.99409 3 1e-16 -4.10627
7889 1 6.59409 60.5706 4.66273 3 4.03897e-28 -4.10627
7890 1 9.06687 60.5706 4.66273 3 4e-16 -4.10627
7891 1 8.24261 60.5706 2.33136 3 9.99999e-17 -4.10627
7892 1 10.7154 60.5706 2.33136 3 1e-16 -4.10627
7893 1 9.89114 60.5706 0 3 4.0507e-16 -4.10627
7894 1 12.3639 60.5706 0 3 5.07001e-18 -4.10627
7895 1 0.824261 58.5516 19.8166 3 5.776e-17 -4.12244
7896 1 0 58.5516 17.4852 3 2.304e-17 -4.12244
7897 1 2.47278 58.5516 17.4852 3 4e-16 -4.12244
7898 1 1.64852 58.5516 15.1539 3 5.776e-17 -4.12244
7899 1 4.12131 58.5516 15.1539 3 1e-16 -4.12244
7900 1 3.29705 58.5516 12.8225 3 4e-16 -4.12244
7901 1 5.76983 58.5516 12.8225 3 3.78653e-29 -4.12244
7902 1 4.94557 58.5516 10.4911 3 1e-16 -4.12244
7903 1 7.41835 58.5516 10.4911 3 1e-16 -4.12244
7904 1 6.59409 58.5516 8.15977 3 1.26218e-29 -4.12244
7905 1 9.06687 58.5516 8.15977 3 4e-16 -4.12244
7906 1 8.24261 58.5516 5.82841 3 9.99999e-17 -4.12244
7907 1 10.7154 58.5516 5.82841 3 1e-16 -4.12244
7908 1 9.89114 58.5516 3.49704 3 4e-16 -4.12244
7909 1 12.3639 58.5516 3.49704 3 7.88861e-31 -4.12244
7910 1 11.5397 58.5516 1.16568 3 1.0169e-16 -4.12244
7911 1 14.0124 58.5516 1.16568 3 1.0169e-16 -4.12244
7912 1 0.824261 56.5326 23.3136 3 5.776e-17 -4.12244
7913 1 0 56.5326 20.9823 3 2.304e-17 -4.12244
7914 1 2.47278 56.5326 20.9823 3 4e-16 -4.12244
7915 1 1.64852 56.5326 18.6509 3 5.776e-17 -4.12244
7916 1 4.12131 56.5326 18.6509 3 1e-16 -4.12244
7917 1 3.29705 56.5326 16.3195 3 4e-16 -4.12244
7918 1 5.76983 56.5326 16.3195 3 1.00974e-28 -4.12244
7919 1 4.94557 56.5326 13.9882 3 1e-16 -4.12244
7920 1 7.41835 56.5326 13.9882 3 1e-16 -4.12244
7921 1 6.59409 56.5326 11.6568 3 0 -4.12244
7922 1 9.06687 56.5326 11.6568 3 4e-16 -4.12244
7923 1 8.24261 56.5326 9.32545 3 9.99999e-17 -4.12244
7924 1 10.7154 56.5326 9.32545 3 1e-16 -4.12244
7925 1 9.89114 56.5326 6.99409 3 4e-16 -4.12244
7926 1 12.3639 56.5326 6.99409 3 0 -4.12244
7927 1 11.5397 56.5326 4.66273 3 1e-16 -4.12244
7928 1 14.0124 56.5326 4.66273 3 1e-16 -4.12244
7929 1 13.1882 56.5326 2.33136 3 0 -4.12244
7930 1 15.661 56.5326 2.33136 3 4e-16 -4.12244
7931 1 14.8367 56.5326 0 3 1.0507e-16 -4.12244
7932 1 17.3095 56.5326 0 3 1.0507e-16 -4.12244
7933 1 0.824261 54.5135 26.8107 3 5.776e-17 -4.12244
7934 1 0 54.5135 24.4793 3 2.304e-17 -4.12244
7935 1 2.47278 54.5135 24.4793 3 4e-16 -4.12244
7936 1 1.64852 54.5135 22.1479 3 5.776e-17 -4.12244
7937 1 4.12131 54.5135 22.1479 3 1e-16 -4.12244
7938 1 3.29705 54.5135 19.8166 3 4e-16 -4.12244
7939 1 5.76983 54.5135 19.8166 3 0 -4.12244
7940 1 4.94557 54.5135 17.4852 3 1e-16 -4.12244
7941 1 7.41835 54.5135 17.4852 3 1e-16 -4.12244
7942 1 6.59409 54.5135 15.1539 3 0 -4.12244
7943 1 9.06687 54.5135 15.1539 3 4e-16 -4.12244
7944 1 8.24261 54.5135 12.8225 3 9.99999e-17 -4.12244
7945 1 10.7154 54.5135 12.8225 3 1e-16 -4.12244
7946 1 9.89114 54.5135 10.4911 3 4e-16 -4.12244
7947 1 12.3639 54.5135 10.4911 3 0 -4.12244
7948 1 11.5397 54.5135 8.15977 3 1e-16 -4.12244
7949 1 14.0124 54.5135 8.15977 3 1e-16 -4.12244
7950 1 13.1882 54.5135 5.82841 3 3.15544e-30 -4.12244
7951 1 15.661 54.5135 5.82841 3 4e-16 -4.12244
7952 1 14.8367 54.5135 3.49704 3 9.99999e-17 -4.12244
7953 1 17.3095 54.5135 3.49704 3 1e-16 -4.12244
7954 1 16.4852 54.5135 1.16568 3 4.0169e-16 -4.12244
7955 1 18.958 54.5135 1.16568 3 1.69e-18 -4.12244
7956 1 0.824261 52.4945 30.3077 3 5.776e-17 -4.12244
7957 1 0 52.4945 27.9764 3 2.304e-17 -4.12244
7958 1 2.47278 52.4945 27.9764 3 4e-16 -4.12244
7959 1 1.64852 52.4945 25.645 3 5.776e-17 -4.12244
7960 1 4.12131 52.4945 25.645 3 1e-16 -4.12244
7961 1 3.29705 52.4945 23.3136 3 4e-16 -4.12244
7962 1 5.76983 52.4945 23.3136 3 0 -4.12244
7963 1 4.94557 52.4945 20.9823 3 1e-16 -4.12244
7964 1 7.41835 52.4945 20.9823 3 1e-16 -4.12244
7965 1 6.59409 52.4945 18.6509 3 0 -4.12244
7966 1 9.06687 52.4945 18.6509 3 4e-16 -4.12244
7967 1 8.24261 52.4945 16.3195 3 9.99999e-17 -4.12244
7968 1 10.7154 52.4945 16.3195 3 1e-16 -4.12244
7969 1 9.89114 52.4945 13.9882 3 4e-16 -4.12244
7970 1 12.3639 52.4945 13.9882 3 2.52435e-29 -4.12244
7971 1 11.5397 52.4945 11.6568 3 1e-16 -4.12244
7972 1 14.0124 52.4945 11.6568 3 1e-16 -4.12244
7973 1 13.1882 52.4945 9.32545 3 0 -4.12244
7974 1 15.661 52.4945 9.32545 3 4e-16 -4.12244
7975 1 14.8367 52.4945 6.99409 3 9.99999e-17 -4.12244
7976 1 17.3095 52.4945 6.99409 3 1e-16 -4.12244
7977 1 16.4852 52.4945 4.66273 3 4e-16 -4.12244
7978 1 18.958 52.4945 4.66273 3 2.01948e-28 -4.12244
7979 1 18.1337 52.4945 2.33136 3 1e-16 -4.12244
7980 1 20.6065 52.4945 2.33136 3 1e-16 -4.12244
7981 1 19.7823 52.4945 0 3 1.0507e-16 -4.12244
7982 1 22.2551 52.4945 0 3 4.0507e-16 -4.12244
7983 1 0.824261 50.4755 33.8048 3 5.776e-17 -4.12244
7984 1 0 50.4755 31.4734 3 2.304e-17 -4.12244
7985 1 2.47278 50.4755 31.4734 3 4e-16 -4.12244
7986 1 1.64852 50.4755 29.142 3 5.776e-17 -4.12244
7987 1 4.12131 50.4755 29.142 3 1e-16 -4.12244
7988 1 3.29705 50.4755 26.8107 3 4e-16 -4.12244
7989 1 5.76983 50.4755 26.8107 3 0 -4.12244
7990 1 4.94557 50.4755 24.4793 3 1e-16 -4.12244
7991 1 7.41835 50.4755 24.4793 3 1e-16 -4.12244
7992 1 6.59409 50.4755 22.1479 3 0 -4.12244
7993 1 9.06687 50.4755 22.1479 3 4e-16 -4.12244
7994 1 8.24261 50.4755 19.8166 3 9.99999e-17 -4.12244
7995 1 10.7154 50.4755 19.8166 3 1e-16 -4.12244
7996 1 9.89114 50.4755 17.4852 3 4e-16 -4.12244
7997 1 12.3639 50.4755 17.4852 3 1.00974e-28 -4.12244
7998 1 11.5397 50.4755 15.1539 3 1e-16 -4.12244
7999 1 14.0124 50.4755 15.1539 3 1e-16 -4.12244
8000 1 13.1882 50.4755 12.8225 3 3.78653e-29 -4.12244
8001 1 15.661 50.4755 12.8225 3 4e-16 -4.12244
8002 1 14.8367 50.4755 10.4911 3 9.99999e-17 -4.12244
8003 1 17.3095 50.4755 10.4911 3 1e-16 -4.12244
8004 1 16.4852 50.4755 8.15977 3 4e-16 -4.12244
8005 1 18.958 50.4755 8.15977 3 2.1457e-28 -4.12244
8006 1 18.1337 50.4755 5.82841 3 1e-16 -4.12244
8007 1 20.6065 50.4755 5.82841 3 1e-16 -4.12244
8008 1 19.7823 50.4755 3.49704 3 1e-16 -4.12244
8009 1 22.2551 50.4755 3.49704 3 4e-16 -4.12244
8010 1 21.4308 50.4755 1.16568 3 4.0169e-16 -4.12244
8011 1 23.9036 50.4755 1.16568 3 1.0169e-16 -4.12244
8012 1 0.824261 48.4565 37.3018 3 5.776e-17 -4.12244
8013 1 0 48.4565 34.9704 3 2.304e-17 -4.12244
8014 1 2.47278 48.4565 34.9704 3 4e-16 -4.12244
8015 1 1.64852 48.4565 32.6391 3 5.776e-17 -4.12244
8016 1 4.12131 48.4565 32.6391 3 1e-16 -4.12244
8017 1 3.29705 48.4565 30.3077 3 4e-16 -4.12244
8018 1 5.76983 48.4565 30.3077 3 0 -4.12244
8019 1 4.94557 48.4565 27.9764 3 1e-16 -4.12244
8020 1 7.41835 48.4565 27.9764 3 1e-16 -4.12244
8021 1 6.59409 48.4565 25.645 3 1.51461e-28 -4.12244
8022 1 9.06687 48.4565 25.645 3 4e-16 -4.12244
8023 1 8.24261 48.4565 23.3136 3 9.99999e-17 -4.12244
8024 1 10.7154 48.4565 23.3136 3 1e-16 -4.12244
8025 1 9.89114 48.4565 20.9823 3 4e-16 -4.12244
8026 1 12.3639 48.4565 20.9823 3 0 -4.12244
8027 1 11.5397 48.4565 18.6509 3 1e-16 -4.12244
8028 1 14.0124 48.4565 18.6509 3 1e-16 -4.12244
8029 1 13.1882 48.4565 16.3195 3 1.00974e-28 -4.12244
8030 1 15.661 48.4565 16.3195 3 4e-16 -4.12244
8031 1 14.8367 48.4565 13.9882 3 9.99999e-17 -4.12244
8032 1 17.3095 48.4565 13.9882 3 1e-16 -4.12244
8033 1 16.4852 48.4565 11.6568 3 4e-16 -4.12244
8034 1 18.958 48.4565 11.6568 3 2.01948e-28 -4.12244
8035 1 18.1337 48.4565 9.32545 3 1e-16 -4.12244
8036 1 20.6065 48.4565 9.32545 3 1e-16 -4.12244
8037 1 19.7823 48.4565 6.99409 3 1e-16 -4.12244
8038 1 22.2551 48.4565 6.99409 3 4e-16 -4.12244
8039 1 21.4308 48.4565 4.66273 3 4e-16 -4.12244
8040 1 23.9036 48.4565 4.66273 3 1e-16 -4.12244
8041 1 23.0793 48.4565 2.33136 3 1e-16 -4.12244
8042 1 25.5521 48.4565 2.33136 3 1.51461e-28 -4.12244
8043 1 24.7278 48.4565 0 3 5.07001e-18 -4.12244
8044 1 27.2006 48.4565 0 3 1.0507e-16 -4.12244
8045 1 0.824261 46.4375 40.7989 3 5.776e-17 -4.12244
8046 1 0 46.4375 38.4675 3 2.304e-17 -4.12244
8047 1 2.47278 46.4375 38.4675 3 4e-16 -4.12244
8048 1 1.64852 46.4375 36.1361 3 5.776e-17 -4.12244
8049 1 4.12131 46.4375 36.1361 3 1e-16 -4.12244
8050 1 3.29705 46.4375 33.8048 3 4e-16 -4.12244
8051 1 5.76983 46.4375 33.8048 3 0 -4.12244
8052 1 4.94557 46.4375 31.4734 3 1e-16 -4.12244
8053 1 7.41835 46.4375 31.4734 3 1e-16 -4.12244
8054 1 6.59409 46.4375 29.142 3 1.51461e-28 -4.12244
8055 1 9.06687 46.4375 29.142 3 4e-16 -4.12244
8056 1 8.24261 46.4375 26.8107 3 9.99999e-17 -4.12244
8057 1 10.7154 46.4375 26.8107 3 1e-16 -4.12244
8058 1 9.89114 46.4375 24.4793 3 4e-16 -4.12244
8059 1 12.3639 46.4375 24.4793 3 1.00974e-28 -4.12244
8060 1 11.5397 46.4375 22.1479 3 1e-16 -4.12244
8061 1 14.0124 46.4375 22.1479 3 1e-16 -4.12244
8062 1 13.1882 46.4375 19.8166 3 0 -4.12244
8063 1 15.661 46.4375 19.8166 3 4e-16 -4.12244
8064 1 14.8367 46.4375 17.4852 3 9.99999e-17 -4.12244
8065 1 17.3095 46.4375 17.4852 3 1e-16 -4.12244
8066 1 16.4852 46.4375 15.1539 3 4e-16 -4.12244
8067 1 18.958 46.4375 15.1539 3 2.01948e-28 -4.12244
8068 1 18.1337 46.4375 12.8225 3 1e-16 -4.12244
8069 1 20.6065 46.4375 12.8225 3 1e-16 -4.12244
8070 1 19.7823 46.4375 10.4911 3 1e-16 -4.12244
8071 1 22.2551 46.4375 10.4911 3 4e-16 -4.12244
8072 1 21.4308 46.4375 8.15977 3 4e-16 -4.12244
8073 1 23.9036 46.4375 8.15977 3 1e-16 -4.12244
8074 1 23.0793 46.4375 5.82841 3 1e-16 -4.12244
8075 1 25.5521 46.4375 5.82841 3 1.54617e-28 -4.12244
8076 1 24.7278 46.4375 3.49704 3 7.88861e-31 -4.12244
8077 1 27.2006 46.4375 3.49704 3 1e-16 -4.12244
8078 1 26.3764 46.4375 1.16568 3 1.0169e-16 -4.12244
8079 1 28.8491 46.4375 1.16568 3 4.0169e-16 -4.12244
8080 1 0.824261 44.4184 44.2959 3 5.776e-17 -4.12244
8081 1 0 44.4184 41.9645 3 2.304e-17 -4.12244
8082 1 2.47278 44.4184 41.9645 3 4e-16 -4.12244
8083 1 1.64852 44.4184 39.6332 3 5.776e-17 -4.12244
8084 1 4.12131 44.4184 39.6332 3 1e-16 -4.12244
8085 1 3.29705 44.4184 37.3018 3 4e-16 -4.12244
8086 1 5.76983 44.4184 37.3018 3 0 -4.12244
8087 1 4.94557 44.4184 34.9704 3 1e-16 -4.12244
8088 1 7.41835 44.4184 34.9704 3 1e-16 -4.12244
8089 1 6.59409 44.4184 32.6391 3 2.01948e-28 -4.12244
8090 1 9.06687 44.4184 32.6391 3 4e-16 -4.12244
8091 1 8.24261 44.4184 30.3077 3 9.99999e-17 -4.12244
8092 1 10.7154 44.4184 30.3077 3 1e-16 -4.12244
8093 1 9.89114 44.4184 27.9764 3 4e-16 -4.12244
8094 1 12.3639 44.4184 27.9764 3 1.51461e-28 -4.12244
8095 1 11.5397 44.4184 25.645 3 1e-16 -4.12244
8096 1 14.0124 44.4184 25.645 3 1e-16 -4.12244
8097 1 13.1882 44.4184 23.3136 3 0 -4.12244
8098 1 15.661 44.4184 23.3136 3 4e-16 -4.12244
8099 1 14.8367 44.4184 20.9823 3 9.99999e-17 -4.12244
8100 1 17.3095 44.4184 20.9823 3 1e-16 -4.12244
8101 1 16.4852 44.4184 18.6509 3 4e-16 -4.12244
8102 1 18.958 44.4184 18.6509 3 2.01948e-28 -4.12244
8103 1 18.1337 44.4184 16.3195 3 1e-16 -4.12244
8104 1 20.6065 44.4184 16.3195 3 1e-16 -4.12244
8105 1 19.7823 44.4184 13.9882 3 1e-16 -4.12244
8106 1 22.2551 44.4184 13.9882 3 4e-16 -4.12244
8107 1 21.4308 44.4184 11.6568 3 4e-16 -4.12244
8108 1 23.9036 44.4184 11.6568 3 1e-16 -4.12244
8109 1 23.0793 44.4184 9.32545 3 1e-16 -4.12244
8110 1 25.5521 44.4184 9.32545 3 1.51461e-28 -4.12244
8111 1 24.7278 44.4184 6.99409 3 0 -4.12244
8112 1 27.2006 44.4184 6.99409 3 1e-16 -4.12244
8113 1 26.3764 44.4184 4.66273 3 1e-16 -4.12244
8114 1 28.8491 44.4184 4.66273 3 4e-16 -4.12244
8115 1 28.0249 44.4184 2.33136 3 3.99999e-16 -4.12244
8116 1 30.4977 44.4184 2.33136 3 9.99999e-17 -4.12244
8117 1 29.6734 44.4184 0 3 1.0507e-16 -4.12244
8118 1 32.1462 44.4184 0 3 1.0507e-16 -4.12244
8119 1 0.824261 42.3994 47.7929 3 6.28299e-17 -4.12244
8120 1 0 42.3994 45.4616 3 2.304e-17 -4.12244
8121 1 2.47278 42.3994 45.4616 3 4e-16 -4.12244
8122 1 1.64852 42.3994 43.1302 3 5.776e-17 -4.12244
8123 1 4.12131 42.3994 43.1302 3 1e-16 -4.12244
8124 1 3.29705 42.3994 40.7989 3 4e-16 -4.12244
8125 1 5.76983 42.3994 40.7989 3 6.05845e-28 -4.12244
8126 1 4.94557 42.3994 38.4675 3 1e-16 -4.12244
8127 1 7.41835 42.3994 38.4675 3 1e-16 -4.12244
8128 1 6.59409 42.3994 36.1361 3 6.05845e-28 -4.12244
8129 1 9.06687 42.3994 36.1361 3 4e-16 -4.12244
8130 1 8.24261 42.3994 33.8048 3 9.99999e-17 -4.12244
8131 1 10.7154 42.3994 33.8048 3 1e-16 -4.12244
8132 1 9.89114 42.3994 31.4734 3 4e-16 -4.12244
8133 1 12.3639 42.3994 31.4734 3 5.04871e-29 -4.12244
8134 1 11.5397 42.3994 29.142 3 1e-16 -4.12244
8135 1 14.0124 42.3994 29.142 3 1e-16 -4.12244
8136 1 13.1882 42.3994 26.8107 3 0 -4.12244
8137 1 15.661 42.3994 26.8107 3 4e-16 -4.12244
8138 1 14.8367 42.3994 24.4793 3 9.99999e-17 -4.12244
8139 1 17.3095 42.3994 24.4793 3 1e-16 -4.12244
8140 1 16.4852 42.3994 22.1479 3 4e-16 -4.12244
8141 1 18.958 42.3994 22.1479 3 2.01948e-28 -4.12244
8142 1 18.1337 42.3994 19.8166 3 1e-16 -4.12244
8143 1 20.6065 42.3994 19.8166 3 1e-16 -4.12244
8144 1 19.7823 42.3994 17.4852 3 1e-16 -4.12244
8145 1 22.2551 42.3994 17.4852 3 4e-16 -4.12244
8146 1 21.4308 42.3994 15.1539 3 4e-16 -4.12244
8147 1 23.9036 42.3994 15.1539 3 1e-16 -4.12244
8148 1 23.0793 42.3994 12.8225 3 1e-16 -4.12244
8149 1 25.5521 42.3994 12.8225 3 1.89327e-28 -4.12244
8150 1 24.7278 42.3994 10.4911 3 0 -4.12244
8151 1 27.2006 42.3994 10.4911 3 1e-16 -4.12244
8152 1 26.3764 42.3994 8.15977 3 1e-16 -4.12244
8153 1 28.8491 42.3994 8.15977 3 4e-16 -4.12244
8154 1 28.0249 42.3994 5.82841 3 3.99999e-16 -4.12244
8155 1 30.4977 42.3994 5.82841 3 9.99999e-17 -4.12244
8156 1 29.6734 42.3994 3.49704 3 1e-16 -4.12244
8157 1 32.1462 42.3994 3.49704 3 9.99999e-17 -4.12244
8158 1 31.3219 42.3994 1.16568 3 1.69e-18 -4.12244
8159 1 33.7947 42.3994 1.16568 3 4.01691e-16 -4.12244
8160 1 1.64852 40.3804 46.6273 3 5.945e-17 -4.12244
8161 1 4.12131 40.3804 46.6273 3 1.0169e-16 -4.12244
8162 1 3.29705 40.3804 44.2959 3 4e-16 -4.12244
8163 1 5.76983 40.3804 44.2959 3 0 -4.12244
8164 1 4.94557 40.3804 41.9645 3 1e-16 -4.12244
8165 1 7.41835 40.3804 41.9645 3 1e-16 -4.12244
8166 1 6.59409 40.3804 39.6332 3 0 -4.12244
8167 1 9.06687 40.3804 39.6332 3 4e-16 -4.12244
8168 1 8.24261 40.3804 37.3018 3 9.99999e-17 -4.12244
8169 1 10.7154 40.3804 37.3018 3 1e-16 -4.12244
8170 1 9.89114 40.3804 34.9704 3 4e-16 -4.12244
8171 1 12.3639 40.3804 34.9704 3 2.01948e-28 -4.12244
8172 1 11.5397 40.3804 32.6391 3 1e-16 -4.12244
8173 1 14.0124 40.3804 32.6391 3 1e-16 -4.12244
8174 1 13.1882 40.3804 30.3077 3 0 -4.12244
8175 1 15.661 40.3804 30.3077 3 4e-16 -4.12244
8176 1 14.8367 40.3804 27.9764 3 9.99999e-17 -4.12244
8177 1 17.3095 40.3804 27.9764 3 1e-16 -4.12244
8178 1 16.4852 40.3804 25.645 3 4e-16 -4.12244
8179 1 18.958 40.3804 25.645 3 3.5341e-28 -4.12244
8180 1 18.1337 40.3804 23.3136 3 1e-16 -4.12244
8181 1 20.6065 40.3804 23.3136 3 1e-16 -4.12244
8182 1 19.7823 40.3804 20.9823 3 1e-16 -4.12244
8183 1 22.2551 40.3804 20.9823 3 4e-16 -4.12244
8184 1 21.4308 40.3804 18.6509 3 4e-16 -4.12244
8185 1 23.9036 40.3804 18.6509 3 1e-16 -4.12244
8186 1 23.0793 40.3804 16.3195 3 1e-16 -4.12244
8187 1 25.5521 40.3804 16.3195 3 2.52435e-28 -4.12244
8188 1 24.7278 40.3804 13.9882 3 2.52435e-29 -4.12244
8189 1 27.2006 40.3804 13.9882 3 1e-16 -4.12244
8190 1 26.3764 40.3804 11.6568 3 1e-16 -4.12244
8191 1 28.8491 40.3804 11.6568 3 4e-16 -4.12244
8192 1 28.0249 40.3804 9.32545 3 3.99999e-16 -4.12244
8193 1 30.4977 40.3804 9.32545 3 9.99999e-17 -4.12244
8194 1 29.6734 40.3804 6.99409 3 1e-16 -4.12244
8195 1 32.1462 40.3804 6.99409 3 9.99999e-17 -4.12244
8196 1 31.3219 40.3804 4.66273 3 0 -4.12244
8197 1 33.7947 40.3804 4.66273 3 4.00001e-16 -4.12244
8198 1 32.9705 40.3804 2.33136 3 9.99999e-17 -4.12244
8199 1 35.4432 40.3804 2.33136 3 1e-16 -4.12244
8200 1 34.619 40.3804 0 3 4.0507e-16 -4.12244
8201 1 37.0918 40.3804 0 3 5.07001e-18 -4.12244
8202 1 3.29705 38.3614 47.7929 3 4.0507e-16 -4.12244
8203 1 5.76983 38.3614 47.7929 3 5.06996e-18 -4.12244
8204 1 4.94557 38.3614 45.4616 3 1e-16 -4.12244
8205 1 7.41835 38.3614 45.4616 3 1e-16 -4.12244
8206 1 6.59409 38.3614 43.1302 3 6.05845e-28 -4.12244
8207 1 9.06687 38.3614 43.1302 3 4e-16 -4.12244
8208 1 8.24261 38.3614 40.7989 3 9.99999e-17 -4.12244
8209 1 10.7154 38.3614 40.7989 3 1e-16 -4.12244
8210 1 9.89114 38.3614 38.4675 3 4e-16 -4.12244
8211 1 12.3639 38.3614 38.4675 3 0 -4.12244
8212 1 11.5397 38.3614 36.1361 3 1e-16 -4.12244
8213 1 14.0124 38.3614 36.1361 3 1e-16 -4.12244
8214 1 13.1882 38.3614 33.8048 3 0 -4.12244
8215 1 15.661 38.3614 33.8048 3 4e-16 -4.12244
8216 1 14.8367 38.3614 31.4734 3 9.99999e-17 -4.12244
8217 1 17.3095 38.3614 31.4734 3 1e-16 -4.12244
8218 1 16.4852 38.3614 29.142 3 4e-16 -4.12244
8219 1 18.958 38.3614 29.142 3 3.5341e-28 -4.12244
8220 1 18.1337 38.3614 26.8107 3 1e-16 -4.12244
8221 1 20.6065 38.3614 26.8107 3 1e-16 -4.12244
8222 1 19.7823 38.3614 24.4793 3 1e-16 -4.12244
8223 1 22.2551 38.3614 24.4793 3 4e-16 -4.12244
8224 1 21.4308 38.3614 22.1479 3 4e-16 -4.12244
8225 1 23.9036 38.3614 22.1479 3 1e-16 -4.12244
8226 1 23.0793 38.3614 19.8166 3 1e-16 -4.12244
8227 1 25.5521 38.3614 19.8166 3 1.51461e-28 -4.12244
8228 1 24.7278 38.3614 17.4852 3 1.00974e-28 -4.12244
8229 1 27.2006 38.3614 17.4852 3 1e-16 -4.12244
8230 1 26.3764 38.3614 15.1539 3 1e-16 -4.12244
8231 1 28.8491 38.3614 15.1539 3 4e-16 -4.12244
8232 1 28.0249 38.3614 12.8225 3 3.99999e-16 -4.12244
8233 1 30.4977 38.3614 12.8225 3 9.99999e-17 -4.12244
8234 1 29.6734 38.3614 10.4911 3 1e-16 -4.12244
8235 1 32.1462 38.3614 10.4911 3 9.99999e-17 -4.12244
8236 1 31.3219 38.3614 8.15977 3 1.26218e-29 -4.12244
8237 1 33.7947 38.3614 8.15977 3 4.00001e-16 -4.12244
8238 1 32.9705 38.3614 5.82841 3 9.99999e-17 -4.12244
8239 1 35.4432 38.3614 5.82841 3 1e-16 -4.12244
8240 1 34.619 38.3614 3.49704 3 4e-16 -4.12244
8241 1 37.0918 38.3614 3.49704 3 7.88861e-31 -4.12244
8242 1 36.2675 38.3614 1.16568 3 1.0169e-16 -4.12244
8243 1 38.7403 38.3614 1.16568 3 1.0169e-16 -4.12244
8244 1 6.59409 36.3424 46.6273 3 1.69002e-18 -4.12244
8245 1 9.06687 36.3424 46.6273 3 4.0169e-16 -4.12244
8246 1 8.24261 36.3424 44.2959 3 9.99999e-17 -4.12244
8247 1 10.7154 36.3424 44.2959 3 1e-16 -4.12244
8248 1 9.89114 36.3424 41.9645 3 4e-16 -4.12244
8249 1 12.3639 36.3424 41.9645 3 0 -4.12244
8250 1 11.5397 36.3424 39.6332 3 1e-16 -4.12244
8251 1 14.0124 36.3424 39.6332 3 1e-16 -4.12244
8252 1 13.1882 36.3424 37.3018 3 0 -4.12244
8253 1 15.661 36.3424 37.3018 3 4e-16 -4.12244
8254 1 14.8367 36.3424 34.9704 3 9.99999e-17 -4.12244
8255 1 17.3095 36.3424 34.9704 3 1e-16 -4.12244
8256 1 16.4852 36.3424 32.6391 3 4e-16 -4.12244
8257 1 18.958 36.3424 32.6391 3 4.03897e-28 -4.12244
8258 1 18.1337 36.3424 30.3077 3 1e-16 -4.12244
8259 1 20.6065 36.3424 30.3077 3 1e-16 -4.12244
8260 1 19.7823 36.3424 27.9764 3 1e-16 -4.12244
8261 1 22.2551 36.3424 27.9764 3 4e-16 -4.12244
8262 1 21.4308 36.3424 25.645 3 4e-16 -4.12244
8263 1 23.9036 36.3424 25.645 3 1e-16 -4.12244
8264 1 23.0793 36.3424 23.3136 3 1e-16 -4.12244
8265 1 25.5521 36.3424 23.3136 3 1.51461e-28 -4.12244
8266 1 24.7278 36.3424 20.9823 3 0 -4.12244
8267 1 27.2006 36.3424 20.9823 3 1e-16 -4.12244
8268 1 26.3764 36.3424 18.6509 3 1e-16 -4.12244
8269 1 28.8491 36.3424 18.6509 3 4e-16 -4.12244
8270 1 28.0249 36.3424 16.3195 3 3.99999e-16 -4.12244
8271 1 30.4977 36.3424 16.3195 3 9.99999e-17 -4.12244
8272 1 29.6734 36.3424 13.9882 3 1e-16 -4.12244
8273 1 32.1462 36.3424 13.9882 3 9.99999e-17 -4.12244
8274 1 31.3219 36.3424 11.6568 3 0 -4.12244
8275 1 33.7947 36.3424 11.6568 3 4.00001e-16 -4.12244
8276 1 32.9705 36.3424 9.32545 3 9.99999e-17 -4.12244
8277 1 35.4432 36.3424 9.32545 3 1e-16 -4.12244
8278 1 34.619 36.3424 6.99409 3 4e-16 -4.12244
8279 1 37.0918 36.3424 6.99409 3 0 -4.12244
8280 1 36.2675 36.3424 4.66273 3 1e-16 -4.12244
8281 1 38.7403 36.3424 4.66273 3 1e-16 -4.12244
8282 1 37.916 36.3424 2.33136 3 8.07794e-28 -4.12244
8283 1 40.3888 36.3424 2.33136 3 3.99999e-16 -4.12244
8284 1 39.5645 36.3424 0 3 1.0507e-16 -4.12244
8285 1 42.0373 36.3424 0 3 1.0507e-16 -4.12244
8286 1 8.24261 34.3233 47.7929 3 1.0507e-16 -4.12244
8287 1 10.7154 34.3233 47.7929 3 1.0507e-16 -4.12244
8288 1 9.89114 34.3233 45.4616 3 4e-16 -4.12244
8289 1 12.3639 34.3233 45.4616 3 0 -4.12244
8290 1 11.5397 34.3233 43.1302 3 1e-16 -4.12244
8291 1 14.0124 34.3233 43.1302 3 1e-16 -4.12244
8292 1 13.1882 34.3233 40.7989 3 6.05845e-28 -4.12244
8293 1 15.661 34.3233 40.7989 3 4e-16 -4.12244
8294 1 14.8367 34.3233 38.4675 3 9.99999e-17 -4.12244
8295 1 17.3095 34.3233 38.4675 3 1e-16 -4.12244
8296 1 16.4852 34.3233 36.1361 3 4e-16 -4.12244
8297 1 18.958 34.3233 36.1361 3 8.07794e-28 -4.12244
8298 1 18.1337 34.3233 33.8048 3 1e-16 -4.12244
8299 1 20.6065 34.3233 33.8048 3 1e-16 -4.12244
8300 1 19.7823 34.3233 31.4734 3 1e-16 -4.12244
8301 1 22.2551 34.3233 31.4734 3 4e-16 -4.12244
8302 1 21.4308 34.3233 29.142 3 4e-16 -4.12244
8303 1 23.9036 34.3233 29.142 3 1e-16 -4.12244
8304 1 23.0793 34.3233 26.8107 3 1e-16 -4.12244
8305 1 25.5521 34.3233 26.8107 3 1.51461e-28 -4.12244
8306 1 24.7278 34.3233 24.4793 3 1.00974e-28 -4.12244
8307 1 27.2006 34.3233 24.4793 3 1e-16 -4.12244
8308 1 26.3764 34.3233 22.1479 3 1e-16 -4.12244
8309 1 28.8491 34.3233 22.1479 3 4e-16 -4.12244
8310 1 28.0249 34.3233 19.8166 3 3.99999e-16 -4.12244
8311 1 30.4977 34.3233 19.8166 3 9.99999e-17 -4.12244
8312 1 29.6734 34.3233 17.4852 3 1e-16 -4.12244
8313 1 32.1462 34.3233 17.4852 3 9.99999e-17 -4.12244
8314 1 31.3219 34.3233 15.1539 3 0 -4.12244
8315 1 33.7947 34.3233 15.1539 3 4.00001e-16 -4.12244
8316 1 32.9705 34.3233 12.8225 3 9.99999e-17 -4.12244
8317 1 35.4432 34.3233 12.8225 3 1e-16 -4.12244
8318 1 34.619 34.3233 10.4911 3 4e-16 -4.12244
8319 1 37.0918 34.3233 10.4911 3 0 -4.12244
8320 1 36.2675 34.3233 8.15977 3 1e-16 -4.12244
8321 1 38.7403 34.3233 8.15977 3 1e-16 -4.12244
8322 1 37.916 34.3233 5.82841 3 8.10949e-28 -4.12244
8323 1 40.3888 34.3233 5.82841 3 3.99999e-16 -4.12244
8324 1 39.5645 34.3233 3.49704 3 1e-16 -4.12244
8325 1 42.0373 34.3233 3.49704 3 1e-16 -4.12244
8326 1 41.2131 34.3233 1.16568 3 4.01691e-16 -4.12244
8327 1 43.6859 34.3233 1.16568 3 1.69e-18 -4.12244
8328 1 11.5397 32.3043 46.6273 3 1.0169e-16 -4.12244
8329 1 14.0124 32.3043 46.6273 3 1.0169e-16 -4.12244
8330 1 13.1882 32.3043 44.2959 3 0 -4.12244
8331 1 15.661 32.3043 44.2959 3 4e-16 -4.12244
8332 1 14.8367 32.3043 41.9645 3 9.99999e-17 -4.12244
8333 1 17.3095 32.3043 41.9645 3 1e-16 -4.12244
8334 1 16.4852 32.3043 39.6332 3 4e-16 -4.12244
8335 1 18.958 32.3043 39.6332 3 2.01948e-28 -4.12244
8336 1 18.1337 32.3043 37.3018 3 1e-16 -4.12244
8337 1 20.6065 32.3043 37.3018 3 1e-16 -4.12244
8338 1 19.7823 32.3043 34.9704 3 1e-16 -4.12244
8339 1 22.2551 32.3043 34.9704 3 4e-16 -4.12244
8340 1 21.4308 32.3043 32.6391 3 4e-16 -4.12244
8341 1 23.9036 32.3043 32.6391 3 1e-16 -4.12244
8342 1 23.0793 32.3043 30.3077 3 1e-16 -4.12244
8343 1 25.5521 32.3043 30.3077 3 1.51461e-28 -4.12244
8344 1 24.7278 32.3043 27.9764 3 1.51461e-28 -4.12244
8345 1 27.2006 32.3043 27.9764 3 1e-16 -4.12244
8346 1 26.3764 32.3043 25.645 3 1e-16 -4.12244
8347 1 28.8491 32.3043 25.645 3 4e-16 -4.12244
8348 1 28.0249 32.3043 23.3136 3 3.99999e-16 -4.12244
8349 1 30.4977 32.3043 23.3136 3 9.99999e-17 -4.12244
8350 1 29.6734 32.3043 20.9823 3 1e-16 -4.12244
8351 1 32.1462 32.3043 20.9823 3 9.99999e-17 -4.12244
8352 1 31.3219 32.3043 18.6509 3 0 -4.12244
8353 1 33.7947 32.3043 18.6509 3 4.00001e-16 -4.12244
8354 1 32.9705 32.3043 16.3195 3 9.99999e-17 -4.12244
8355 1 35.4432 32.3043 16.3195 3 1e-16 -4.12244
8356 1 34.619 32.3043 13.9882 3 4e-16 -4.12244
8357 1 37.0918 32.3043 13.9882 3 2.52435e-29 -4.12244
8358 1 36.2675 32.3043 11.6568 3 1e-16 -4.12244
8359 1 38.7403 32.3043 11.6568 3 1e-16 -4.12244
8360 1 37.916 32.3043 9.32545 3 8.07794e-28 -4.12244
8361 1 40.3888 32.3043 9.32545 3 3.99999e-16 -4.12244
8362 1 39.5645 32.3043 6.99409 3 1e-16 -4.12244
8363 1 42.0373 32.3043 6.99409 3 1e-16 -4.12244
8364 1 41.2131 32.3043 4.66273 3 4.00001e-16 -4.12244
8365 1 43.6859 32.3043 4.66273 3 2.01948e-28 -4.12244
8366 1 42.8616 32.3043 2.33136 3 9.99999e-17 -4.12244
8367 1 45.3344 32.3043 2.33136 3 9.99999e-17 -4.12244
8368 1 44.5101 32.3043 0 3 5.07001e-18 -4.12244
8369 1 46.9829 32.3043 0 3 4.0507e-16 -4.12244
8370 1 13.1882 30.2853 47.7929 3 5.06996e-18 -4.12244
8371 1 15.661 30.2853 47.7929 3 4.0507e-16 -4.12244
8372 1 14.8367 30.2853 45.4616 3 9.99999e-17 -4.12244
8373 1 17.3095 30.2853 45.4616 3 1e-16 -4.12244
8374 1 16.4852 30.2853 43.1302 3 4e-16 -4.12244
8375 1 18.958 30.2853 43.1302 3 9.08768e-28 -4.12244
8376 1 18.1337 30.2853 40.7989 3 1e-16 -4.12244
8377 1 20.6065 30.2853 40.7989 3 1e-16 -4.12244
8378 1 19.7823 30.2853 38.4675 3 1e-16 -4.12244
8379 1 22.2551 30.2853 38.4675 3 4e-16 -4.12244
8380 1 21.4308 30.2853 36.1361 3 4e-16 -4.12244
8381 1 23.9036 30.2853 36.1361 3 1e-16 -4.12244
8382 1 23.0793 30.2853 33.8048 3 1e-16 -4.12244
8383 1 25.5521 30.2853 33.8048 3 2.52435e-28 -4.12244
8384 1 24.7278 30.2853 31.4734 3 1.51461e-28 -4.12244
8385 1 27.2006 30.2853 31.4734 3 1e-16 -4.12244
8386 1 26.3764 30.2853 29.142 3 1e-16 -4.12244
8387 1 28.8491 30.2853 29.142 3 4e-16 -4.12244
8388 1 28.0249 30.2853 26.8107 3 3.99999e-16 -4.12244
8389 1 30.4977 30.2853 26.8107 3 9.99999e-17 -4.12244
8390 1 29.6734 30.2853 24.4793 3 1e-16 -4.12244
8391 1 32.1462 30.2853 24.4793 3 9.99999e-17 -4.12244
8392 1 31.3219 30.2853 22.1479 3 1.00974e-28 -4.12244
8393 1 33.7947 30.2853 22.1479 3 4.00001e-16 -4.12244
8394 1 32.9705 30.2853 19.8166 3 9.99999e-17 -4.12244
8395 1 35.4432 30.2853 19.8166 3 1e-16 -4.12244
8396 1 34.619 30.2853 17.4852 3 4e-16 -4.12244
8397 1 37.0918 30.2853 17.4852 3 2.01948e-28 -4.12244
8398 1 36.2675 30.2853 15.1539 3 1e-16 -4.12244
8399 1 38.7403 30.2853 15.1539 3 1e-16 -4.12244
8400 1 37.916 30.2853 12.8225 3 9.46633e-28 -4.12244
8401 1 40.3888 30.2853 12.8225 3 3.99999e-16 -4.12244
8402 1 39.5645 30.2853 10.4911 3 1e-16 -4.12244
8403 1 42.0373 30.2853 10.4911 3 1e-16 -4.12244
8404 1 41.2131 30.2853 8.15977 3 4.00001e-16 -4.12244
8405 1 43.6859 30.2853 8.15977 3 3.15544e-28 -4.12244
8406 1 42.8616 30.2853 5.82841 3 9.99999e-17 -4.12244
8407 1 45.3344 30.2853 5.82841 3 9.99999e-17 -4.12244
8408 1 44.5101 30.2853 3.49704 3 3.03711e-28 -4.12244
8409 1 46.9829 30.2853 3.49704 3 3.99999e-16 -4.12244
8410 1 46.1586 30.2853 1.16568 3 1.0169e-16 -4.12244
8411 1 48.6314 30.2853 1.16568 3 1.0169e-16 -4.12244
8412 1 16.4852 28.2663 46.6273 3 4.0169e-16 -4.12244
8413 1 18.958 28.2663 46.6273 3 1.69002e-18 -4.12244
8414 1 18.1337 28.2663 44.2959 3 1e-16 -4.12244
8415 1 20.6065 28.2663 44.2959 3 1e-16 -4.12244
8416 1 19.7823 28.2663 41.9645 3 1e-16 -4.12244
8417 1 22.2551 28.2663 41.9645 3 4e-16 -4.12244
8418 1 21.4308 28.2663 39.6332 3 4e-16 -4.12244
8419 1 23.9036 28.2663 39.6332 3 1e-16 -4.12244
8420 1 23.0793 28.2663 37.3018 3 1e-16 -4.12244
8421 1 25.5521 28.2663 37.3018 3 1.51461e-28 -4.12244
8422 1 24.7278 28.2663 34.9704 3 2.01948e-28 -4.12244
8423 1 27.2006 28.2663 34.9704 3 1e-16 -4.12244
8424 1 26.3764 28.2663 32.6391 3 1e-16 -4.12244
8425 1 28.8491 28.2663 32.6391 3 4e-16 -4.12244
8426 1 28.0249 28.2663 30.3077 3 3.99999e-16 -4.12244
8427 1 30.4977 28.2663 30.3077 3 9.99999e-17 -4.12244
8428 1 29.6734 28.2663 27.9764 3 1e-16 -4.12244
8429 1 32.1462 28.2663 27.9764 3 9.99999e-17 -4.12244
8430 1 31.3219 28.2663 25.645 3 1.51461e-28 -4.12244
8431 1 33.7947 28.2663 25.645 3 4.00001e-16 -4.12244
8432 1 32.9705 28.2663 23.3136 3 9.99999e-17 -4.12244
8433 1 35.4432 28.2663 23.3136 3 1e-16 -4.12244
8434 1 34.619 28.2663 20.9823 3 4e-16 -4.12244
8435 1 37.0918 28.2663 20.9823 3 0 -4.12244
8436 1 36.2675 28.2663 18.6509 3 1e-16 -4.12244
8437 1 38.7403 28.2663 18.6509 3 1e-16 -4.12244
8438 1 37.916 28.2663 16.3195 3 9.08768e-28 -4.12244
8439 1 40.3888 28.2663 16.3195 3 3.99999e-16 -4.12244
8440 1 39.5645 28.2663 13.9882 3 1e-16 -4.12244
8441 1 42.0373 28.2663 13.9882 3 1e-16 -4.12244
8442 1 41.2131 28.2663 11.6568 3 4.00001e-16 -4.12244
8443 1 43.6859 28.2663 11.6568 3 2.01948e-28 -4.12244
8444 1 42.8616 28.2663 9.32545 3 9.99999e-17 -4.12244
8445 1 45.3344 28.2663 9.32545 3 9.99999e-17 -4.12244
8446 1 44.5101 28.2663 6.99409 3 2.01948e-28 -4.12244
8447 1 46.9829 28.2663 6.99409 3 3.99999e-16 -4.12244
8448 1 46.1586 28.2663 4.66273 3 9.99999e-17 -4.12244
8449 1 48.6314 28.2663 4.66273 3 9.99999e-17 -4.12244
8450 1 47.8072 28.2663 2.33136 3 3.99999e-16 -4.12244
8451 1 50.2799 28.2663 2.33136 3 2.01948e-28 -4.12244
8452 1 49.4557 28.2663 0 3 1.0507e-16 -4.12244
8453 1 51.9285 28.2663 0 3 1.0507e-16 -4.12244
8454 1 18.1337 26.2473 47.7929 3 1.0507e-16 -4.12244
8455 1 20.6065 26.2473 47.7929 3 1.0507e-16 -4.12244
8456 1 19.7823 26.2473 45.4616 3 1e-16 -4.12244
8457 1 22.2551 26.2473 45.4616 3 4e-16 -4.12244
8458 1 21.4308 26.2473 43.1302 3 4e-16 -4.12244
8459 1 23.9036 26.2473 43.1302 3 1e-16 -4.12244
8460 1 23.0793 26.2473 40.7989 3 1e-16 -4.12244
8461 1 25.5521 26.2473 40.7989 3 8.58281e-28 -4.12244
8462 1 24.7278 26.2473 38.4675 3 1.00974e-28 -4.12244
8463 1 27.2006 26.2473 38.4675 3 1e-16 -4.12244
8464 1 26.3764 26.2473 36.1361 3 1e-16 -4.12244
8465 1 28.8491 26.2473 36.1361 3 4e-16 -4.12244
8466 1 28.0249 26.2473 33.8048 3 3.99999e-16 -4.12244
8467 1 30.4977 26.2473 33.8048 3 9.99999e-17 -4.12244
8468 1 29.6734 26.2473 31.4734 3 1e-16 -4.12244
8469 1 32.1462 26.2473 31.4734 3 9.99999e-17 -4.12244
8470 1 31.3219 26.2473 29.142 3 2.52435e-28 -4.12244
8471 1 33.7947 26.2473 29.142 3 4.00001e-16 -4.12244
8472 1 32.9705 26.2473 26.8107 3 9.99999e-17 -4.12244
8473 1 35.4432 26.2473 26.8107 3 1e-16 -4.12244
8474 1 34.619 26.2473 24.4793 3 4e-16 -4.12244
8475 1 37.0918 26.2473 24.4793 3 2.01948e-28 -4.12244
8476 1 36.2675 26.2473 22.1479 3 1e-16 -4.12244
8477 1 38.7403 26.2473 22.1479 3 1e-16 -4.12244
8478 1 37.916 26.2473 19.8166 3 9.08768e-28 -4.12244
8479 1 40.3888 26.2473 19.8166 3 3.99999e-16 -4.12244
8480 1 39.5645 26.2473 17.4852 3 1e-16 -4.12244
8481 1 42.0373 26.2473 17.4852 3 1e-16 -4.12244
8482 1 41.2131 26.2473 15.1539 3 4.00001e-16 -4.12244
8483 1 43.6859 26.2473 15.1539 3 3.02923e-28 -4.12244
8484 1 42.8616 26.2473 12.8225 3 9.99999e-17 -4.12244
8485 1 45.3344 26.2473 12.8225 3 9.99999e-17 -4.12244
8486 1 44.5101 26.2473 10.4911 3 3.02923e-28 -4.12244
8487 1 46.9829 26.2473 10.4911 3 3.99999e-16 -4.12244
8488 1 46.1586 26.2473 8.15977 3 9.99999e-17 -4.12244
8489 1 48.6314 26.2473 8.15977 3 9.99999e-17 -4.12244
8490 1 47.8072 26.2473 5.82841 3 3.99999e-16 -4.12244
8491 1 50.2799 26.2473 5.82841 3 3.06078e-28 -4.12244
8492 1 49.4557 26.2473 3.49704 3 9.99999e-17 -4.12244
8493 1 51.9285 26.2473 3.49704 3 1e-16 -4.12244
8494 1 51.1042 26.2473 1.16568 3 1.0169e-16 -4.12244
8495 1 53.577 26.2473 1.16568 3 4.01689e-16 -4.12244
8496 1 21.4308 24.2282 46.6273 3 4.01691e-16 -4.12244
8497 1 23.9036 24.2282 46.6273 3 1.0169e-16 -4.12244
8498 1 23.0793 24.2282 44.2959 3 1e-16 -4.12244
8499 1 25.5521 24.2282 44.2959 3 1.51461e-28 -4.12244
8500 1 24.7278 24.2282 41.9645 3 0 -4.12244
8501 1 27.2006 24.2282 41.9645 3 1e-16 -4.12244
8502 1 26.3764 24.2282 39.6332 3 1e-16 -4.12244
8503 1 28.8491 24.2282 39.6332 3 4e-16 -4.12244
8504 1 28.0249 24.2282 37.3018 3 3.99999e-16 -4.12244
8505 1 30.4977 24.2282 37.3018 3 9.99999e-17 -4.12244
8506 1 29.6734 24.2282 34.9704 3 1e-16 -4.12244
8507 1 32.1462 24.2282 34.9704 3 9.99999e-17 -4.12244
8508 1 31.3219 24.2282 32.6391 3 2.01948e-28 -4.12244
8509 1 33.7947 24.2282 32.6391 3 4.00001e-16 -4.12244
8510 1 32.9705 24.2282 30.3077 3 9.99999e-17 -4.12244
8511 1 35.4432 24.2282 30.3077 3 1e-16 -4.12244
8512 1 34.619 24.2282 27.9764 3 4e-16 -4.12244
8513 1 37.0918 24.2282 27.9764 3 1.51461e-28 -4.12244
8514 1 36.2675 24.2282 25.645 3 1e-16 -4.12244
8515 1 38.7403 24.2282 25.645 3 1e-16 -4.12244
8516 1 37.916 24.2282 23.3136 3 8.07794e-28 -4.12244
8517 1 40.3888 24.2282 23.3136 3 3.99999e-16 -4.12244
8518 1 39.5645 24.2282 20.9823 3 1e-16 -4.12244
8519 1 42.0373 24.2282 20.9823 3 1e-16 -4.12244
8520 1 41.2131 24.2282 18.6509 3 4.00001e-16 -4.12244
8521 1 43.6859 24.2282 18.6509 3 2.01948e-28 -4.12244
8522 1 42.8616 24.2282 16.3195 3 9.99999e-17 -4.12244
8523 1 45.3344 24.2282 16.3195 3 9.99999e-17 -4.12244
8524 1 44.5101 24.2282 13.9882 3 2.27192e-28 -4.12244
8525 1 46.9829 24.2282 13.9882 3 3.99999e-16 -4.12244
8526 1 46.1586 24.2282 11.6568 3 9.99999e-17 -4.12244
8527 1 48.6314 24.2282 11.6568 3 9.99999e-17 -4.12244
8528 1 47.8072 24.2282 9.32545 3 3.99999e-16 -4.12244
8529 1 50.2799 24.2282 9.32545 3 2.01948e-28 -4.12244
8530 1 49.4557 24.2282 6.99409 3 9.99999e-17 -4.12244
8531 1 51.9285 24.2282 6.99409 3 1e-16 -4.12244
8532 1 51.1042 24.2282 4.66273 3 9.99999e-17 -4.12244
8533 1 53.577 24.2282 4.66273 3 3.99999e-16 -4.12244
8534 1 52.7527 24.2282 2.33136 3 4.00001e-16 -4.12244
8535 1 55.2255 24.2282 2.33136 3 1e-16 -4.12244
8536 1 54.4012 24.2282 0 3 1.0507e-16 -4.12244
8537 1 56.874 24.2282 0 3 5.07001e-18 -4.12244
8538 1 23.0793 22.2092 47.7929 3 1.0507e-16 -4.12244
8539 1 25.5521 22.2092 47.7929 3 5.06996e-18 -4.12244
8540 1 24.7278 22.2092 45.4616 3 0 -4.12244
8541 1 27.2006 22.2092 45.4616 3 1e-16 -4.12244
8542 1 26.3764 22.2092 43.1302 3 1e-16 -4.12244
8543 1 28.8491 22.2092 43.1302 3 4e-16 -4.12244
8544 1 28.0249 22.2092 40.7989 3 3.99999e-16 -4.12244
8545 1 30.4977 22.2092 40.7989 3 9.99999e-17 -4.12244
8546 1 29.6734 22.2092 38.4675 3 1e-16 -4.12244
8547 1 32.1462 22.2092 38.4675 3 9.99999e-17 -4.12244
8548 1 31.3219 22.2092 36.1361 3 6.05845e-28 -4.12244
8549 1 33.7947 22.2092 36.1361 3 4.00001e-16 -4.12244
8550 1 32.9705 22.2092 33.8048 3 9.99999e-17 -4.12244
8551 1 35.4432 22.2092 33.8048 3 1e-16 -4.12244
8552 1 34.619 22.2092 31.4734 3 4e-16 -4.12244
8553 1 37.0918 22.2092 31.4734 3 5.04871e-29 -4.12244
8554 1 36.2675 22.2092 29.142 3 1e-16 -4.12244
8555 1 38.7403 22.2092 29.142 3 1e-16 -4.12244
8556 1 37.916 22.2092 26.8107 3 8.07794e-28 -4.12244
8557 1 40.3888 22.2092 26.8107 3 3.99999e-16 -4.12244
8558 1 39.5645 22.2092 24.4793 3 1e-16 -4.12244
8559 1 42.0373 22.2092 24.4793 3 1e-16 -4.12244
8560 1 41.2131 22.2092 22.1479 3 4.00001e-16 -4.12244
8561 1 43.6859 22.2092 22.1479 3 2.01948e-28 -4.12244
8562 1 42.8616 22.2092 19.8166 3 9.99999e-17 -4.12244
8563 1 45.3344 22.2092 19.8166 3 9.99999e-17 -4.12244
8564 1 44.5101 22.2092 17.4852 3 3.02923e-28 -4.12244
8565 1 46.9829 22.2092 17.4852 3 3.99999e-16 -4.12244
8566 1 46.1586 22.2092 15.1539 3 9.99999e-17 -4.12244
8567 1 48.6314 22.2092 15.1539 3 9.99999e-17 -4.12244
8568 1 47.8072 22.2092 12.8225 3 3.99999e-16 -4.12244
8569 1 50.2799 22.2092 12.8225 3 2.39814e-28 -4.12244
8570 1 49.4557 22.2092 10.4911 3 9.99999e-17 -4.12244
8571 1 51.9285 22.2092 10.4911 3 1e-16 -4.12244
8572 1 51.1042 22.2092 8.15977 3 9.99999e-17 -4.12244
8573 1 53.577 22.2092 8.15977 3 3.99999e-16 -4.12244
8574 1 52.7527 22.2092 5.82841 3 4.00001e-16 -4.12244
8575 1 55.2255 22.2092 5.82841 3 1e-16 -4.12244
8576 1 54.4012 22.2092 3.49704 3 1e-16 -4.12244
8577 1 56.874 22.2092 3.49704 3 7.88861e-31 -4.12244
8578 1 56.0498 22.2092 1.16568 3 1.69e-18 -4.12244
8579 1 58.5226 22.2092 1.16568 3 1.0169e-16 -4.12244
8580 1 26.3764 20.1902 46.6273 3 1.0169e-16 -4.12244
8581 1 28.8491 20.1902 46.6273 3 4.0169e-16 -4.12244
8582 1 28.0249 20.1902 44.2959 3 3.99999e-16 -4.12244
8583 1 30.4977 20.1902 44.2959 3 9.99999e-17 -4.12244
8584 1 29.6734 20.1902 41.9645 3 1e-16 -4.12244
8585 1 32.1462 20.1902 41.9645 3 9.99999e-17 -4.12244
8586 1 31.3219 20.1902 39.6332 3 0 -4.12244
8587 1 33.7947 20.1902 39.6332 3 4.00001e-16 -4.12244
8588 1 32.9705 20.1902 37.3018 3 9.99999e-17 -4.12244
8589 1 35.4432 20.1902 37.3018 3 1e-16 -4.12244
8590 1 34.619 20.1902 34.9704 3 4e-16 -4.12244
8591 1 37.0918 20.1902 34.9704 3 2.01948e-28 -4.12244
8592 1 36.2675 20.1902 32.6391 3 1e-16 -4.12244
8593 1 38.7403 20.1902 32.6391 3 1e-16 -4.12244
8594 1 37.916 20.1902 30.3077 3 8.07794e-28 -4.12244
8595 1 40.3888 20.1902 30.3077 3 3.99999e-16 -4.12244
8596 1 39.5645 20.1902 27.9764 3 1e-16 -4.12244
8597 1 42.0373 20.1902 27.9764 3 1e-16 -4.12244
8598 1 41.2131 20.1902 25.645 3 4.00001e-16 -4.12244
8599 1 43.6859 20.1902 25.645 3 3.5341e-28 -4.12244
8600 1 42.8616 20.1902 23.3136 3 9.99999e-17 -4.12244
8601 1 45.3344 20.1902 23.3136 3 9.99999e-17 -4.12244
8602 1 44.5101 20.1902 20.9823 3 2.01948e-28 -4.12244
8603 1 46.9829 20.1902 20.9823 3 3.99999e-16 -4.12244
8604 1 46.1586 20.1902 18.6509 3 9.99999e-17 -4.12244
8605 1 48.6314 20.1902 18.6509 3 9.99999e-17 -4.12244
8606 1 47.8072 20.1902 16.3195 3 3.99999e-16 -4.12244
8607 1 50.2799 20.1902 16.3195 3 3.02923e-28 -4.12244
8608 1 49.4557 20.1902 13.9882 3 9.99999e-17 -4.12244
8609 1 51.9285 20.1902 13.9882 3 1e-16 -4.12244
8610 1 51.1042 20.1902 11.6568 3 9.99999e-17 -4.12244
8611 1 53.577 20.1902 11.6568 3 3.99999e-16 -4.12244
8612 1 52.7527 20.1902 9.32545 3 4.00001e-16 -4.12244
8613 1 55.2255 20.1902 9.32545 3 1e-16 -4.12244
8614 1 54.4012 20.1902 6.99409 3 1e-16 -4.12244
8615 1 56.874 20.1902 6.99409 3 0 -4.12244
8616 1 56.0498 20.1902 4.66273 3 0 -4.12244
8617 1 58.5226 20.1902 4.66273 3 9.99999e-17 -4.12244
8618 1 57.6983 20.1902 2.33136 3 1e-16 -4.12244
8619 1 60.1711 20.1902 2.33136 3 3.99999e-16 -4.12244
8620 1 59.3468 20.1902 0 3 4.0507e-16 -4.12244
8621 1 61.8196 20.1902 0 3 6.28299e-17 -4.12244
8622 1 28.0249 18.1712 47.7929 3 4.05069e-16 -4.12244
8623 1 30.4977 18.1712 47.7929 3 1.0507e-16 -4.12244
8624 1 29.6734 18.1712 45.4616 3 1e-16 -4.12244
8625 1 32.1462 18.1712 45.4616 3 9.99999e-17 -4.12244
8626 1 31.3219 18.1712 43.1302 3 7.06819e-28 -4.12244
8627 1 33.7947 18.1712 43.1302 3 4.00001e-16 -4.12244
8628 1 32.9705 18.1712 40.7989 3 9.99999e-17 -4.12244
8629 1 35.4432 18.1712 40.7989 3 1e-16 -4.12244
8630 1 34.619 18.1712 38.4675 3 4e-16 -4.12244
8631 1 37.0918 18.1712 38.4675 3 1.00974e-28 -4.12244
8632 1 36.2675 18.1712 36.1361 3 1e-16 -4.12244
8633 1 38.7403 18.1712 36.1361 3 1e-16 -4.12244
8634 1 37.916 18.1712 33.8048 3 9.08768e-28 -4.12244
8635 1 40.3888 18.1712 33.8048 3 3.99999e-16 -4.12244
8636 1 39.5645 18.1712 31.4734 3 1e-16 -4.12244
8637 1 42.0373 18.1712 31.4734 3 1e-16 -4.12244
8638 1 41.2131 18.1712 29.142 3 4.00001e-16 -4.12244
8639 1 43.6859 18.1712 29.142 3 4.54384e-28 -4.12244
8640 1 42.8616 18.1712 26.8107 3 9.99999e-17 -4.12244
8641 1 45.3344 18.1712 26.8107 3 9.99999e-17 -4.12244
8642 1 44.5101 18.1712 24.4793 3 4.03897e-28 -4.12244
8643 1 46.9829 18.1712 24.4793 3 3.99999e-16 -4.12244
8644 1 46.1586 18.1712 22.1479 3 9.99999e-17 -4.12244
8645 1 48.6314 18.1712 22.1479 3 9.99999e-17 -4.12244
8646 1 47.8072 18.1712 19.8166 3 3.99999e-16 -4.12244
8647 1 50.2799 18.1712 19.8166 3 3.02923e-28 -4.12244
8648 1 49.4557 18.1712 17.4852 3 9.99999e-17 -4.12244
8649 1 51.9285 18.1712 17.4852 3 1e-16 -4.12244
8650 1 51.1042 18.1712 15.1539 3 9.99999e-17 -4.12244
8651 1 53.577 18.1712 15.1539 3 3.99999e-16 -4.12244
8652 1 52.7527 18.1712 12.8225 3 4.00001e-16 -4.12244
8653 1 55.2255 18.1712 12.8225 3 1e-16 -4.12244
8654 1 54.4012 18.1712 10.4911 3 1e-16 -4.12244
8655 1 56.874 18.1712 10.4911 3 1.00974e-28 -4.12244
8656 1 56.0498 18.1712 8.15977 3 1.13596e-28 -4.12244
8657 1 58.5226 18.1712 8.15977 3 9.99999e-17 -4.12244
8658 1 57.6983 18.1712 5.82841 3 1e-16 -4.12244
8659 1 60.1711 18.1712 5.82841 3 3.99999e-16 -4.12244
8660 1 59.3468 18.1712 3.49704 3 3.99999e-16 -4.12244
8661 1 61.8196 18.1712 3.49704 3 5.77599e-17 -4.12244
8662 1 60.9953 18.1712 1.16568 3 1.0169e-16 -4.12244
8663 1 63.4681 18.1712 1.16568 3 2.473e-17 -4.12244
8664 1 31.3219 16.1522 46.6273 3 1.69002e-18 -4.12244
8665 1 33.7947 16.1522 46.6273 3 4.01691e-16 -4.12244
8666 1 32.9705 16.1522 44.2959 3 9.99999e-17 -4.12244
8667 1 35.4432 16.1522 44.2959 3 1e-16 -4.12244
8668 1 34.619 16.1522 41.9645 3 4e-16 -4.12244
8669 1 37.0918 16.1522 41.9645 3 0 -4.12244
8670 1 36.2675 16.1522 39.6332 3 1e-16 -4.12244
8671 1 38.7403 16.1522 39.6332 3 1e-16 -4.12244
8672 1 37.916 16.1522 37.3018 3 8.07794e-28 -4.12244
8673 1 40.3888 16.1522 37.3018 3 3.99999e-16 -4.12244
8674 1 39.5645 16.1522 34.9704 3 1e-16 -4.12244
8675 1 42.0373 16.1522 34.9704 3 1e-16 -4.12244
8676 1 41.2131 16.1522 32.6391 3 4.00001e-16 -4.12244
8677 1 43.6859 16.1522 32.6391 3 4.03897e-28 -4.12244
8678 1 42.8616 16.1522 30.3077 3 9.99999e-17 -4.12244
8679 1 45.3344 16.1522 30.3077 3 9.99999e-17 -4.12244
8680 1 44.5101 16.1522 27.9764 3 3.5341e-28 -4.12244
8681 1 46.9829 16.1522 27.9764 3 3.99999e-16 -4.12244
8682 1 46.1586 16.1522 25.645 3 9.99999e-17 -4.12244
8683 1 48.6314 16.1522 25.645 3 9.99999e-17 -4.12244
8684 1 47.8072 16.1522 23.3136 3 3.99999e-16 -4.12244
8685 1 50.2799 16.1522 23.3136 3 2.01948e-28 -4.12244
8686 1 49.4557 16.1522 20.9823 3 9.99999e-17 -4.12244
8687 1 51.9285 16.1522 20.9823 3 1e-16 -4.12244
8688 1 51.1042 16.1522 18.6509 3 9.99999e-17 -4.12244
8689 1 53.577 16.1522 18.6509 3 3.99999e-16 -4.12244
8690 1 52.7527 16.1522 16.3195 3 4.00001e-16 -4.12244
8691 1 55.2255 16.1522 16.3195 3 1e-16 -4.12244
8692 1 54.4012 16.1522 13.9882 3 1e-16 -4.12244
8693 1 56.874 16.1522 13.9882 3 2.52435e-29 -4.12244
8694 1 56.0498 16.1522 11.6568 3 0 -4.12244
8695 1 58.5226 16.1522 11.6568 3 9.99999e-17 -4.12244
8696 1 57.6983 16.1522 9.32545 3 1e-16 -4.12244
8697 1 60.1711 16.1522 9.32545 3 3.99999e-16 -4.12244
8698 1 59.3468 16.1522 6.99409 3 3.99999e-16 -4.12244
8699 1 61.8196 16.1522 6.99409 3 5.77599e-17 -4.12244
8700 1 60.9953 16.1522 4.66273 3 9.99999e-17 -4.12244
8701 1 63.4681 16.1522 4.66273 3 2.304e-17 -4.12244
8702 1 62.6439 16.1522 2.33136 3 5.76e-18 -4.12244
8703 1 32.9705 14.1331 47.7929 3 1.0507e-16 -4.12244
8704 1 35.4432 14.1331 47.7929 3 1.0507e-16 -4.12244
8705 1 34.619 14.1331 45.4616 3 4e-16 -4.12244
8706 1 37.0918 14.1331 45.4616 3 0 -4.12244
8707 1 36.2675 14.1331 43.1302 3 1e-16 -4.12244
8708 1 38.7403 14.1331 43.1302 3 1e-16 -4.12244
8709 1 37.916 14.1331 40.7989 3 1.41364e-27 -4.12244
8710 1 40.3888 14.1331 40.7989 3 3.99999e-16 -4.12244
8711 1 39.5645 14.1331 38.4675 3 1e-16 -4.12244
8712 1 42.0373 14.1331 38.4675 3 1e-16 -4.12244
8713 1 41.2131 14.1331 36.1361 3 4.00001e-16 -4.12244
8714 1 43.6859 14.1331 36.1361 3 8.07794e-28 -4.12244
8715 1 42.8616 14.1331 33.8048 3 9.99999e-17 -4.12244
8716 1 45.3344 14.1331 33.8048 3 9.99999e-17 -4.12244
8717 1 44.5101 14.1331 31.4734 3 2.52435e-28 -4.12244
8718 1 46.9829 14.1331 31.4734 3 3.99999e-16 -4.12244
8719 1 46.1586 14.1331 29.142 3 9.99999e-17 -4.12244
8720 1 48.6314 14.1331 29.142 3 9.99999e-17 -4.12244
8721 1 47.8072 14.1331 26.8107 3 3.99999e-16 -4.12244
8722 1 50.2799 14.1331 26.8107 3 2.01948e-28 -4.12244
8723 1 49.4557 14.1331 24.4793 3 9.99999e-17 -4.12244
8724 1 51.9285 14.1331 24.4793 3 1e-16 -4.12244
8725 1 51.1042 14.1331 22.1479 3 9.99999e-17 -4.12244
8726 1 53.577 14.1331 22.1479 3 3.99999e-16 -4.12244
8727 1 52.7527 14.1331 19.8166 3 4.00001e-16 -4.12244
8728 1 55.2255 14.1331 19.8166 3 1e-16 -4.12244
8729 1 54.4012 14.1331 17.4852 3 1e-16 -4.12244
8730 1 56.874 14.1331 17.4852 3 1.00974e-28 -4.12244
8731 1 56.0498 14.1331 15.1539 3 0 -4.12244
8732 1 58.5226 14.1331 15.1539 3 9.99999e-17 -4.12244
8733 1 57.6983 14.1331 12.8225 3 1e-16 -4.12244
8734 1 60.1711 14.1331 12.8225 3 3.99999e-16 -4.12244
8735 1 59.3468 14.1331 10.4911 3 3.99999e-16 -4.12244
8736 1 61.8196 14.1331 10.4911 3 5.77599e-17 -4.12244
8737 1 60.9953 14.1331 8.15977 3 9.99999e-17 -4.12244
8738 1 63.4681 14.1331 8.15977 3 2.304e-17 -4.12244
8739 1 62.6439 14.1331 5.82841 3 5.76e-18 -4.12244
8740 1 36.2675 12.1141 46.6273 3 1.0169e-16 -4.12244
8741 1 38.7403 12.1141 46.6273 3 1.0169e-16 -4.12244
8742 1 37.916 12.1141 44.2959 3 8.07794e-28 -4.12244
8743 1 40.3888 12.1141 44.2959 3 3.99999e-16 -4.12244
8744 1 39.5645 12.1141 41.9645 3 1e-16 -4.12244
8745 1 42.0373 12.1141 41.9645 3 1e-16 -4.12244
8746 1 41.2131 12.1141 39.6332 3 4.00001e-16 -4.12244
8747 1 43.6859 12.1141 39.6332 3 2.01948e-28 -4.12244
8748 1 42.8616 12.1141 37.3018 3 9.99999e-17 -4.12244
8749 1 45.3344 12.1141 37.3018 3 9.99999e-17 -4.12244
8750 1 44.5101 12.1141 34.9704 3 4.03897e-28 -4.12244
8751 1 46.9829 12.1141 34.9704 3 3.99999e-16 -4.12244
8752 1 46.1586 12.1141 32.6391 3 9.99999e-17 -4.12244
8753 1 48.6314 12.1141 32.6391 3 9.99999e-17 -4.12244
8754 1 47.8072 12.1141 30.3077 3 3.99999e-16 -4.12244
8755 1 50.2799 12.1141 30.3077 3 2.01948e-28 -4.12244
8756 1 49.4557 12.1141 27.9764 3 9.99999e-17 -4.12244
8757 1 51.9285 12.1141 27.9764 3 1e-16 -4.12244
8758 1 51.1042 12.1141 25.645 3 9.99999e-17 -4.12244
8759 1 53.577 12.1141 25.645 3 3.99999e-16 -4.12244
8760 1 52.7527 12.1141 23.3136 3 4.00001e-16 -4.12244
8761 1 55.2255 12.1141 23.3136 3 1e-16 -4.12244
8762 1 54.4012 12.1141 20.9823 3 1e-16 -4.12244
8763 1 56.874 12.1141 20.9823 3 0 -4.12244
8764 1 56.0498 12.1141 18.6509 3 0 -4.12244
8765 1 58.5226 12.1141 18.6509 3 9.99999e-17 -4.12244
8766 1 57.6983 12.1141 16.3195 3 1e-16 -4.12244
8767 1 60.1711 12.1141 16.3195 3 3.99999e-16 -4.12244
8768 1 59.3468 12.1141 13.9882 3 3.99999e-16 -4.12244
8769 1 61.8196 12.1141 13.9882 3 5.77599e-17 -4.12244
8770 1 60.9953 12.1141 11.6568 3 9.99999e-17 -4.12244
8771 1 63.4681 12.1141 11.6568 3 2.304e-17 -4.12244
8772 1 62.6439 12.1141 9.32545 3 5.76e-18 -4.12244
8773 1 37.916 10.0951 47.7929 3 5.06996e-18 -4.12244
8774 1 40.3888 10.0951 47.7929 3 4.05069e-16 -4.12244
8775 1 39.5645 10.0951 45.4616 3 1e-16 -4.12244
8776 1 42.0373 10.0951 45.4616 3 1e-16 -4.12244
8777 1 41.2131 10.0951 43.1302 3 4.00001e-16 -4.12244
8778 1 43.6859 10.0951 43.1302 3 8.07794e-28 -4.12244
8779 1 42.8616 10.0951 40.7989 3 9.99999e-17 -4.12244
8780 1 45.3344 10.0951 40.7989 3 9.99999e-17 -4.12244
8781 1 44.5101 10.0951 38.4675 3 2.01948e-28 -4.12244
8782 1 46.9829 10.0951 38.4675 3 3.99999e-16 -4.12244
8783 1 46.1586 10.0951 36.1361 3 9.99999e-17 -4.12244
8784 1 48.6314 10.0951 36.1361 3 9.99999e-17 -4.12244
8785 1 47.8072 10.0951 33.8048 3 3.99999e-16 -4.12244
8786 1 50.2799 10.0951 33.8048 3 2.01948e-28 -4.12244
8787 1 49.4557 10.0951 31.4734 3 9.99999e-17 -4.12244
8788 1 51.9285 10.0951 31.4734 3 1e-16 -4.12244
8789 1 51.1042 10.0951 29.142 3 9.99999e-17 -4.12244
8790 1 53.577 10.0951 29.142 3 3.99999e-16 -4.12244
8791 1 52.7527 10.0951 26.8107 3 4.00001e-16 -4.12244
8792 1 55.2255 10.0951 26.8107 3 1e-16 -4.12244
8793 1 54.4012 10.0951 24.4793 3 1e-16 -4.12244
8794 1 56.874 10.0951 24.4793 3 1.00974e-28 -4.12244
8795 1 56.0498 10.0951 22.1479 3 0 -4.12244
8796 1 58.5226 10.0951 22.1479 3 9.99999e-17 -4.12244
8797 1 57.6983 10.0951 19.8166 3 1e-16 -4.12244
8798 1 60.1711 10.0951 19.8166 3 3.99999e-16 -4.12244
8799 1 59.3468 10.0951 17.4852 3 3.99999e-16 -4.12244
8800 1 61.8196 10.0951 17.4852 3 5.77599e-17 -4.12244
8801 1 60.9953 10.0951 15.1539 3 9.99999e-17 -4.12244
8802 1 63.4681 10.0951 15.1539 3 2.304e-17 -4.12244
8803 1 62.6439 10.0951 12.8225 3 5.76e-18 -4.12244
8804 1 41.2131 8.07608 46.6273 3 4.01691e-16 -4.12244
8805 1 43.6859 8.07608 46.6273 3 1.69002e-18 -4.12244
8806 1 42.8616 8.07608 44.2959 3 9.99999e-17 -4.12244
8807 1 45.3344 8.07608 44.2959 3 9.99999e-17 -4.12244
8808 1 44.5101 8.07608 41.9645 3 2.01948e-28 -4.12244
8809 1 46.9829 8.07608 41.9645 3 3.99999e-16 -4.12244
8810 1 46.1586 8.07608 39.6332 3 9.99999e-17 -4.12244
8811 1 48.6314 8.07608 39.6332 3 9.99999e-17 -4.12244
8812 1 47.8072 8.07608 37.3018 3 3.99999e-16 -4.12244
8813 1 50.2799 8.07608 37.3018 3 2.01948e-28 -4.12244
8814 1 49.4557 8.07608 34.9704 3 9.99999e-17 -4.12244
8815 1 51.9285 8.07608 34.9704 3 1e-16 -4.12244
8816 1 51.1042 8.07608 32.6391 3 9.99999e-17 -4.12244
8817 1 53.577 8.07608 32.6391 3 3.99999e-16 -4.12244
8818 1 52.7527 8.07608 30.3077 3 4.00001e-16 -4.12244
8819 1 55.2255 8.07608 30.3077 3 1e-16 -4.12244
8820 1 54.4012 8.07608 27.9764 3 1e-16 -4.12244
8821 1 56.874 8.07608 27.9764 3 1.51461e-28 -4.12244
8822 1 56.0498 8.07608 25.645 3 1.51461e-28 -4.12244
8823 1 58.5226 8.07608 25.645 3 9.99999e-17 -4.12244
8824 1 57.6983 8.07608 23.3136 3 1e-16 -4.12244
8825 1 60.1711 8.07608 23.3136 3 3.99999e-16 -4.12244
8826 1 59.3468 8.07608 20.9823 3 3.99999e-16 -4.12244
8827 1 61.8196 8.07608 20.9823 3 5.77599e-17 -4.12244
8828 1 60.9953 8.07608 18.6509 3 9.99999e-17 -4.12244
8829 1 63.4681 8.07608 18.6509 3 2.304e-17 -4.12244
8830 1 62.6439 8.07608 16.3195 3 5.76e-18 -4.12244
8831 1 42.8616 6.05706 47.7929 3 1.0507e-16 -4.12244
8832 1 45.3344 6.05706 47.7929 3 1.0507e-16 -4.12244
8833 1 44.5101 6.05706 45.4616 3 2.01948e-28 -4.12244
8834 1 46.9829 6.05706 45.4616 3 3.99999e-16 -4.12244
8835 1 46.1586 6.05706 43.1302 3 9.99999e-17 -4.12244
8836 1 48.6314 6.05706 43.1302 3 9.99999e-17 -4.12244
8837 1 47.8072 6.05706 40.7989 3 3.99999e-16 -4.12244
8838 1 50.2799 6.05706 40.7989 3 8.07794e-28 -4.12244
8839 1 49.4557 6.05706 38.4675 3 9.99999e-17 -4.12244
8840 1 51.9285 6.05706 38.4675 3 1e-16 -4.12244
8841 1 51.1042 6.05706 36.1361 3 9.99999e-17 -4.12244
8842 1 53.577 6.05706 36.1361 3 3.99999e-16 -4.12244
8843 1 52.7527 6.05706 33.8048 3 4.00001e-16 -4.12244
8844 1 55.2255 6.05706 33.8048 3 1e-16 -4.12244
8845 1 54.4012 6.05706 31.4734 3 1e-16 -4.12244
8846 1 56.874 6.05706 31.4734 3 5.04871e-29 -4.12244
8847 1 56.0498 6.05706 29.142 3 1.51461e-28 -4.12244
8848 1 58.5226 6.05706 29.142 3 9.99999e-17 -4.12244
8849 1 57.6983 6.05706 26.8107 3 1e-16 -4.12244
8850 1 60.1711 6.05706 26.8107 3 3.99999e-16 -4.12244
8851 1 59.3468 6.05706 24.4793 3 3.99999e-16 -4.12244
8852 1 61.8196 6.05706 24.4793 3 5.77599e-17 -4.12244
8853 1 60.9953 6.05706 22.1479 3 9.99999e-17 -4.12244
8854 1 63.4681 6.05706 22.1479 3 2.304e-17 -4.12244
8855 1 62.6439 6.05706 19.8166 3 5.76e-18 -4.12244
8856 1 46.1586 4.03804 46.6273 3 1.0169e-16 -4.12244
8857 1 48.6314 4.03804 46.6273 3 1.0169e-16 -4.12244
8858 1 47.8072 4.03804 44.2959 3 3.99999e-16 -4.12244
8859 1 50.2799 4.03804 44.2959 3 2.01948e-28 -4.12244
8860 1 49.4557 4.03804 41.9645 3 9.99999e-17 -4.12244
8861 1 51.9285 4.03804 41.9645 3 1e-16 -4.12244
8862 1 51.1042 4.03804 39.6332 3 9.99999e-17 -4.12244
8863 1 53.577 4.03804 39.6332 3 3.99999e-16 -4.12244
8864 1 52.7527 4.03804 37.3018 3 4.00001e-16 -4.12244
8865 1 55.2255 4.03804 37.3018 3 1e-16 -4.12244
8866 1 54.4012 4.03804 34.9704 3 1e-16 -4.12244
8867 1 56.874 4.03804 34.9704 3 2.01948e-28 -4.12244
8868 1 56.0498 4.03804 32.6391 3 2.01948e-28 -4.12244
8869 1 58.5226 4.03804 32.6391 3 9.99999e-17 -4.12244
8870 1 57.6983 4.03804 30.3077 3 1e-16 -4.12244
8871 1 60.1711 4.03804 30.3077 3 3.99999e-16 -4.12244
8872 1 59.3468 4.03804 27.9764 3 3.99999e-16 -4.12244
8873 1 61.8196 4.03804 27.9764 3 5.77599e-17 -4.12244
8874 1 60.9953 4.03804 25.645 3 9.99999e-17 -4.12244
8875 1 63.4681 4.03804 25.645 3 2.304e-17 -4.12244
8876 1 62.6439 4.03804 23.3136 3 5.76e-18 -4.12244
8877 1 47.8072 2.01902 47.7929 3 4.05069e-16 -4.10627
8878 1 50.2799 2.01902 47.7929 3 5.06996e-18 -4.10627
8879 1 49.4557 2.01902 45.4616 3 9.99999e-17 -4.10627
8880 1 51.9285 2.01902 45.4616 3 1e-16 -4.10627
8881 1 51.1042 2.01902 43.1302 3 9.99999e-17 -4.10627
8882 1 53.577 2.01902 43.1302 3 3.99999e-16 -4.10627
8883 1 52.7527 2.01902 40.7989 3 4.00001e-16 -4.10627
8884 1 55.2255 2.01902 40.7989 3 1e-16 -4.10627
8885 1 54.4012 2.01902 38.4675 3 1e-16 -4.10627
8886 1 56.874 2.01902 38.4675 3 0 -4.10627
8887 1 56.0498 2.01902 36.1361 3 6.05845e-28 -4.10627
8888 1 58.5226 2.01902 36.1361 3 9.99999e-17 -4.10627
8889 1 57.6983 2.01902 33.8048 3 1e-16 -4.10627
8890 1 60.1711 2.01902 33.8048 3 3.99999e-16 -4.10627
8891 1 59.3468 2.01902 31.4734 3 3.99999e-16 -4.10627
8892 1 61.8196 2.01902 31.4734 3 5.77599e-17 -4.10627
8893 1 60.9953 2.01902 29.142 3 9.99999e-17 -4.10627
8894 1 63.4681 2.01902 29.142 3 2.304e-17 -4.10627
8895 1 62.6439 2.01902 26.8107 3 5.76e-18 -4.10627
8896 1 51.1042 0 46.6273 5 12.2293 -3.54465
8897 1 53.577 -0 46.6273 5 12.2293 -3.54465
8898 1 52.7527 0 44.2959 5 12.2293 -3.54465
8899 1 55.2255 -0 44.2959 5 12.2293 -3.54465
8900 1 54.4012 0 41.9645 5 12.2293 -3.54465
8901 1 56.874 -0 41.9645 5 12.2293 -3.54465
8902 1 56.0498 0 39.6332 5 12.2293 -3.54465
8903 1 58.5226 -0 39.6332 5 12.2293 -3.54465
8904 1 57.6983 0 37.3018 5 12.2293 -3.54465
8905 1 60.1711 -0 37.3018 5 12.2293 -3.54465
8906 1 59.3468 0 34.9704 5 12.2293 -3.54465
8907 1 61.8196 -0 34.9704 5 12.2293 -3.54465
8908 1 60.9953 0 32.6391 5 12.2293 -3.54465
8909 1 63.4681 -0 32.6391 5 12.2293 -3.54465
8910 1 62.6439 0 30.3077 5 12.2293 -3.54465
8911 1 0.824261 62.5896 19.8166 5 12.2293 -3.54465
8912 1 0 62.5896 17.4852 5 12.2293 -3.54465
8913 1 2.47278 62.5896 17.4852 5 12.2293 -3.54465
8914 1 1.64852 62.5896 15.1539 5 12.2293 -3.54465
8915 1 4.12131 62.5896 15.1539 5 12.2293 -3.54465
8916 1 3.29705 62.5896 12.8225 5 12.2293 -3.54465
8917 1 5.76983 62.5896 12.8225 5 12.2293 -3.54465
8918 1 4.94557 62.5896 10.4911 5 12.2293 -3.54465
8919 1 7.41835 62.5896 10.4911 5 12.2293 -3.54465
8920 1 6.59409 62.5896 8.15977 5 12.2293 -3.54465
8921 1 9.06687 62.5896 8.15977 5 12.2293 -3.54465
8922 1 8.24261 62.5896 5.82841 5 12.2293 -3.54465
8923 1 10.7154 62.5896 5.82841 5 12.2293 -3.54465
8924 1 9.89114 62.5896 3.49704 5 12.2293 -3.54465
8925 1 12.3639 62.5896 3.49704 5 12.2293 -3.54465
8926 1 11.5397 62.5896 1.16568 5 12.2293 -3.54465
8927 1 14.0124 62.5896 1.16568 5 12.2293 -3.54465
8928 1 0.824261 60.5706 23.3136 3 5.776e-17 -4.10627
8929 1 0 60.5706 20.9823 3 2.304e-17 -4.10627
8930 1 2.47278 60.5706 20.9823 3 4e-16 -4.10627
8931 1 1.64852 60.5706 18.6509 3 5.776e-17 -4.10627
8932 1 4.12131 60.5706 18.6509 3 1e-16 -4.10627
8933 1 3.29705 60.5706 16.3195 3 4e-16 -4.10627
8934 1 5.76983 60.5706 16.3195 3 5.04871e-28 -4.10627
8935 1 4.94557 60.5706 13.9882 3 1e-16 -4.10627
8936 1 7.41835 60.5706 13.9882 3 1e-16 -4.10627
8937 1 6.59409 60.5706 11.6568 3 4.03897e-28 -4.10627
8938 1 9.06687 60.5706 11.6568 3 4e-16 -4.10627
8939 1 8.24261 60.5706 9.32545 3 9.99999e-17 -4.10627
8940 1 10.7154 60.5706 9.32545 3 1e-16 -4.10627
8941 1 9.89114 60.5706 6.99409 3 4e-16 -4.10627
8942 1 12.3639 60.5706 6.99409 3 4.03897e-28 -4.10627
8943 1 11.5397 60.5706 4.66273 3 1e-16 -4.10627
8944 1 14.0124 60.5706 4.66273 3 1e-16 -4.10627
8945 1 13.1882 60.5706 2.33136 3 4.03897e-28 -4.10627
8946 1 15.661 60.5706 2.33136 3 4e-16 -4.10627
8947 1 14.8367 60.5706 0 3 1.0507e-16 -4.10627
8948 1 17.3095 60.5706 0 3 1.0507e-16 -4.10627
8949 1 0.824261 58.5516 26.8107 3 5.776e-17 -4.12244
8950 1 0 58.5516 24.4793 3 2.304e-17 -4.12244
8951 1 2.47278 58.5516 24.4793 3 4e-16 -4.12244
8952 1 1.64852 58.5516 22.1479 3 5.776e-17 -4.12244
8953 1 4.12131 58.5516 22.1479 3 1e-16 -4.12244
8954 1 3.29705 58.5516 19.8166 3 4e-16 -4.12244
8955 1 5.76983 58.5516 19.8166 3 0 -4.12244
8956 1 4.94557 58.5516 17.4852 3 1e-16 -4.12244
8957 1 7.41835 58.5516 17.4852 3 1e-16 -4.12244
8958 1 6.59409 58.5516 15.1539 3 0 -4.12244
8959 1 9.06687 58.5516 15.1539 3 4e-16 -4.12244
8960 1 8.24261 58.5516 12.8225 3 9.99999e-17 -4.12244
8961 1 10.7154 58.5516 12.8225 3 1e-16 -4.12244
8962 1 9.89114 58.5516 10.4911 3 4e-16 -4.12244
8963 1 12.3639 58.5516 10.4911 3 0 -4.12244
8964 1 11.5397 58.5516 8.15977 3 1e-16 -4.12244
8965 1 14.0124 58.5516 8.15977 3 1e-16 -4.12244
8966 1 13.1882 58.5516 5.82841 3 3.15544e-30 -4.12244
8967 1 15.661 58.5516 5.82841 3 4e-16 -4.12244
8968 1 14.8367 58.5516 3.49704 3 9.99999e-17 -4.12244
8969 1 17.3095 58.5516 3.49704 3 1e-16 -4.12244
8970 1 16.4852 58.5516 1.16568 3 4.0169e-16 -4.12244
8971 1 18.958 58.5516 1.16568 3 1.69e-18 -4.12244
8972 1 0.824261 56.5326 30.3077 3 5.776e-17 -4.12244
8973 1 0 56.5326 27.9764 3 2.304e-17 -4.12244
8974 1 2.47278 56.5326 27.9764 3 4e-16 -4.12244
8975 1 1.64852 56.5326 25.645 3 5.776e-17 -4.12244
8976 1 4.12131 56.5326 25.645 3 1e-16 -4.12244
8977 1 3.29705 56.5326 23.3136 3 4e-16 -4.12244
8978 1 5.76983 56.5326 23.3136 3 0 -4.12244
8979 1 4.94557 56.5326 20.9823 3 1e-16 -4.12244
8980 1 7.41835 56.5326 20.9823 3 1e-16 -4.12244
8981 1 6.59409 56.5326 18.6509 3 0 -4.12244
8982 1 9.06687 56.5326 18.6509 3 4e-16 -4.12244
8983 1 8.24261 56.5326 16.3195 3 9.99999e-17 -4.12244
8984 1 10.7154 56.5326 16.3195 3 1e-16 -4.12244
8985 1 9.89114 56.5326 13.9882 3 4e-16 -4.12244
8986 1 12.3639 56.5326 13.9882 3 2.52435e-29 -4.12244
8987 1 11.5397 56.5326 11.6568 3 1e-16 -4.12244
8988 1 14.0124 56.5326 11.6568 3 1e-16 -4.12244
8989 1 13.1882 56.5326 9.32545 3 0 -4.12244
8990 1 15.661 56.5326 9.32545 3 4e-16 -4.12244
8991 1 14.8367 56.5326 6.99409 3 9.99999e-17 -4.12244
8992 1 17.3095 56.5326 6.99409 3 1e-16 -4.12244
8993 1 16.4852 56.5326 4.66273 3 4e-16 -4.12244
8994 1 18.958 56.5326 4.66273 3 2.01948e-28 -4.12244
8995 1 18.1337 56.5326 2.33136 3 1e-16 -4.12244
8996 1 20.6065 56.5326 2.33136 3 1e-16 -4.12244
8997 1 19.7823 56.5326 0 3 1.0507e-16 -4.12244
8998 1 22.2551 56.5326 0 3 4.0507e-16 -4.12244
8999 1 0.824261 54.5135 33.8048 3 5.776e-17 -4.12244
9000 1 0 54.5135 31.4734 3 2.304e-17 -4.12244
9001 1 2.47278 54.5135 31.4734 3 4e-16 -4.12244
9002 1 1.64852 54.5135 29.142 3 5.776e-17 -4.12244
9003 1 4.12131 54.5135 29.142 3 1e-16 -4.12244
9004 1 3.29705 54.5135 26.8107 3 4e-16 -4.12244
9005 1 5.76983 54.5135 26.8107 3 0 -4.12244
9006 1 4.94557 54.5135 24.4793 3 1e-16 -4.12244
9007 1 7.41835 54.5135 24.4793 3 1e-16 -4.12244
9008 1 6.59409 54.5135 22.1479 3 0 -4.12244
9009 1 9.06687 54.5135 22.1479 3 4e-16 -4.12244
9010 1 8.24261 54.5135 19.8166 3 9.99999e-17 -4.12244
9011 1 10.7154 54.5135 19.8166 3 1e-16 -4.12244
9012 1 9.89114 54.5135 17.4852 3 4e-16 -4.12244
9013 1 12.3639 54.5135 17.4852 3 1.00974e-28 -4.12244
9014 1 11.5397 54.5135 15.1539 3 1e-16 -4.12244
9015 1 14.0124 54.5135 15.1539 3 1e-16 -4.12244
9016 1 13.1882 54.5135 12.8225 3 3.78653e-29 -4.12244
9017 1 15.661 54.5135 12.8225 3 4e-16 -4.12244
9018 1 14.8367 54.5135 10.4911 3 9.99999e-17 -4.12244
9019 1 17.3095 54.5135 10.4911 3 1e-16 -4.12244
9020 1 16.4852 54.5135 8.15977 3 4e-16 -4.12244
9021 1 18.958 54.5135 8.15977 3 2.1457e-28 -4.12244
9022 1 18.1337 54.5135 5.82841 3 1e-16 -4.12244
9023 1 20.6065 54.5135 5.82841 3 1e-16 -4.12244
9024 1 19.7823 54.5135 3.49704 3 1e-16 -4.12244
9025 1 22.2551 54.5135 3.49704 3 4e-16 -4.12244
9026 1 21.4308 54.5135 1.16568 3 4.0169e-16 -4.12244
9027 1 23.9036 54.5135 1.16568 3 1.0169e-16 -4.12244
9028 1 0.824261 52.4945 37.3018 3 5.776e-17 -4.12244
9029 1 0 52.4945 34.9704 3 2.304e-17 -4.12244
9030 1 2.47278 52.4945 34.9704 3 4e-16 -4.12244
9031 1 1.64852 52.4945 32.6391 3 5.776e-17 -4.12244
9032 1 4.12131 52.4945 32.6391 3 1e-16 -4.12244
9033 1 3.29705 52.4945 30.3077 3 4e-16 -4.12244
9034 1 5.76983 52.4945 30.3077 3 0 -4.12244
9035 1 4.94557 52.4945 27.9764 3 1e-16 -4.12244
9036 1 7.41835 52.4945 27.9764 3 1e-16 -4.12244
9037 1 6.59409 52.4945 25.645 3 1.51461e-28 -4.12244
9038 1 9.06687 52.4945 25.645 3 4e-16 -4.12244
9039 1 8.24261 52.4945 23.3136 3 9.99999e-17 -4.12244
9040 1 10.7154 52.4945 23.3136 3 1e-16 -4.12244
9041 1 9.89114 52.4945 20.9823 3 4e-16 -4.12244
9042 1 12.3639 52.4945 20.9823 3 0 -4.12244
9043 1 11.5397 52.4945 18.6509 3 1e-16 -4.12244
9044 1 14.0124 52.4945 18.6509 3 1e-16 -4.12244
9045 1 13.1882 52.4945 16.3195 3 1.00974e-28 -4.12244
9046 1 15.661 52.4945 16.3195 3 4e-16 -4.12244
9047 1 14.8367 52.4945 13.9882 3 9.99999e-17 -4.12244
9048 1 17.3095 52.4945 13.9882 3 1e-16 -4.12244
9049 1 16.4852 52.4945 11.6568 3 4e-16 -4.12244
9050 1 18.958 52.4945 11.6568 3 2.01948e-28 -4.12244
9051 1 18.1337 52.4945 9.32545 3 1e-16 -4.12244
9052 1 20.6065 52.4945 9.32545 3 1e-16 -4.12244
9053 1 19.7823 52.4945 6.99409 3 1e-16 -4.12244
9054 1 22.2551 52.4945 6.99409 3 4e-16 -4.12244
9055 1 21.4308 52.4945 4.66273 3 4e-16 -4.12244
9056 1 23.9036 52.4945 4.66273 3 1e-16 -4.12244
9057 1 23.0793 52.4945 2.33136 3 1e-16 -4.12244
9058 1 25.5521 52.4945 2.33136 3 1.51461e-28 -4.12244
9059 1 24.7278 52.4945 0 3 5.07001e-18 -4.12244
9060 1 27.2006 52.4945 0 3 1.0507e-16 -4.12244
9061 1 0.824261 50.4755 40.7989 3 5.776e-17 -4.12244
9062 1 0 50.4755 38.4675 3 2.304e-17 -4.12244
9063 1 2.47278 50.4755 38.4675 3 4e-16 -4.12244
9064 1 1.64852 50.4755 36.1361 3 5.776e-17 -4.12244
9065 1 4.12131 50.4755 36.1361 3 1e-16 -4.12244
9066 1 3.29705 50.4755 33.8048 3 4e-16 -4.12244
9067 1 5.76983 50.4755 33.8048 3 0 -4.12244
9068 1 4.94557 50.4755 31.4734 3 1e-16 -4.12244
9069 1 7.41835 50.4755 31.4734 3 1e-16 -4.12244
9070 1 6.59409 50.4755 29.142 3 1.51461e-28 -4.12244
9071 1 9.06687 50.4755 29.142 3 4e-16 -4.12244
9072 1 8.24261 50.4755 26.8107 3 9.99999e-17 -4.12244
9073 1 10.7154 50.4755 26.8107 3 1e-16 -4.12244
9074 1 9.89114 50.4755 24.4793 3 4e-16 -4.12244
9075 1 12.3639 50.4755 24.4793 3 1.00974e-28 -4.12244
9076 1 11.5397 50.4755 22.1479 3 1e-16 -4.12244
9077 1 14.0124 50.4755 22.1479 3 1e-16 -4.12244
9078 1 13.1882 50.4755 19.8166 3 0 -4.12244
9079 1 15.661 50.4755 19.8166 3 4e-16 -4.12244
9080 1 14.8367 50.4755 17.4852 3 9.99999e-17 -4.12244
9081 1 17.3095 50.4755 17.4852 3 1e-16 -4.12244
9082 1 16.4852 50.4755 15.1539 3 4e-16 -4.12244
9083 1 18.958 50.4755 15.1539 3 2.01948e-28 -4.12244
9084 1 18.1337 50.4755 12.8225 3 1e-16 -4.12244
9085 1 20.6065 50.4755 12.8225 3 1e-16 -4.12244
9086 1 19.7823 50.4755 10.4911 3 1e-16 -4.12244
9087 1 22.2551 50.4755 10.4911 3 4e-16 -4.12244
9088 1 21.4308 50.4755 8.15977 3 4e-16 -4.12244
9089 1 23.9036 50.4755 8.15977 3 1e-16 -4.12244
9090 1 23.0793 50.4755 5.82841 3 1e-16 -4.12244
9091 1 25.5521 50.4755 5.82841 3 1.54617e-28 -4.12244
9092 1 24.7278 50.4755 3.49704 3 7.88861e-31 -4.12244
9093 1 27.2006 50.4755 3.49704 3 1e-16 -4.12244
9094 1 26.3764 50.4755 1.16568 3 1.0169e-16 -4.12244
9095 1 28.8491 50.4755 1.16568 3 4.0169e-16 -4.12244
9096 1 0.824261 48.4565 44.2959 3 5.776e-17 -4.12244
9097 1 0 48.4565 41.9645 3 2.304e-17 -4.12244
9098 1 2.47278 48.4565 41.9645 3 4e-16 -4.12244
9099 1 1.64852 48.4565 39.6332 3 5.776e-17 -4.12244
9100 1 4.12131 48.4565 39.6332 3 1e-16 -4.12244
9101 1 3.29705 48.4565 37.3018 3 4e-16 -4.12244
9102 1 5.76983 48.4565 37.3018 3 0 -4.12244
9103 1 4.94557 48.4565 34.9704 3 1e-16 -4.12244
9104 1 7.41835 48.4565 34.9704 3 1e-16 -4.12244
9105 1 6.59409 48.4565 32.6391 3 2.01948e-28 -4.12244
9106 1 9.06687 48.4565 32.6391 3 4e-16 -4.12244
9107 1 8.24261 48.4565 30.3077 3 9.99999e-17 -4.12244
9108 1 10.7154 48.4565 30.3077 3 1e-16 -4.12244
9109 1 9.89114 48.4565 27.9764 3 4e-16 -4.12244
9110 1 12.3639 48.4565 27.9764 3 1.51461e-28 -4.12244
9111 1 11.5397 48.4565 25.645 3 1e-16 -4.12244
9112 1 14.0124 48.4565 25.645 3 1e-16 -4.12244
9113 1 13.1882 48.4565 23.3136 3 0 -4.12244
9114 1 15.661 48.4565 23.3136 3 4e-16 -4.12244
9115 1 14.8367 48.4565 20.9823 3 9.99999e-17 -4.12244
9116 1 17.3095 48.4565 20.9823 3 1e-16 -4.12244
9117 1 16.4852 48.4565 18.6509 3 4e-16 -4.12244
9118 1 18.958 48.4565 18.6509 3 2.01948e-28 -4.12244
9119 1 18.1337 48.4565 16.3195 3 1e-16 -4.12244
9120 1 20.6065 48.4565 16.3195 3 1e-16 -4.12244
9121 1 19.7823 48.4565 13.9882 3 1e-16 -4.12244
9122 1 22.2551 48.4565 13.9882 3 4e-16 -4.12244
9123 1 21.4308 48.4565 11.6568 3 4e-16 -4.12244
9124 1 23.9036 48.4565 11.6568 3 1e-16 -4.12244
9125 1 23.0793 48.4565 9.32545 3 1e-16 -4.12244
9126 1 25.5521 48.4565 9.32545 3 1.51461e-28 -4.12244
9127 1 24.7278 48.4565 6.99409 3 0 -4.12244
9128 1 27.2006 48.4565 6.99409 3 1e-16 -4.12244
9129 1 26.3764 48.4565 4.66273 3 1e-16 -4.12244
9130 1 28.8491 48.4565 4.66273 3 4e-16 -4.12244
9131 1 28.0249 48.4565 2.33136 3 3.99999e-16 -4.12244
9132 1 30.4977 48.4565 2.33136 3 9.99999e-17 -4.12244
9133 1 29.6734 48.4565 0 3 1.0507e-16 -4.12244
9134 1 32.1462 48.4565 0 3 1.0507e-16 -4.12244
9135 1 0.824261 46.4375 47.7929 3 6.28299e-17 -4.12244
9136 1 0 46.4375 45.4616 3 2.304e-17 -4.12244
9137 1 2.47278 46.4375 45.4616 3 4e-16 -4.12244
9138 1 1.64852 46.4375 43.1302 3 5.776e-17 -4.12244
9139 1 4.12131 46.4375 43.1302 3 1e-16 -4.12244
9140 1 3.29705 46.4375 40.7989 3 4e-16 -4.12244
9141 1 5.76983 46.4375 40.7989 3 6.05845e-28 -4.12244
9142 1 4.94557 46.4375 38.4675 3 1e-16 -4.12244
9143 1 7.41835 46.4375 38.4675 3 1e-16 -4.12244
9144 1 6.59409 46.4375 36.1361 3 6.05845e-28 -4.12244
9145 1 9.06687 46.4375 36.1361 3 4e-16 -4.12244
9146 1 8.24261 46.4375 33.8048 3 9.99999e-17 -4.12244
9147 1 10.7154 46.4375 33.8048 3 1e-16 -4.12244
9148 1 9.89114 46.4375 31.4734 3 4e-16 -4.12244
9149 1 12.3639 46.4375 31.4734 3 5.04871e-29 -4.12244
9150 1 11.5397 46.4375 29.142 3 1e-16 -4.12244
9151 1 14.0124 46.4375 29.142 3 1e-16 -4.12244
9152 1 13.1882 46.4375 26.8107 3 0 -4.12244
9153 1 15.661 46.4375 26.8107 3 4e-16 -4.12244
9154 1 14.8367 46.4375 24.4793 3 9.99999e-17 -4.12244
9155 1 17.3095 46.4375 24.4793 3 1e-16 -4.12244
9156 1 16.4852 46.4375 22.1479 3 4e-16 -4.12244
9157 1 18.958 46.4375 22.1479 3 2.01948e-28 -4.12244
9158 1 18.1337 46.4375 19.8166 3 1e-16 -4.12244
9159 1 20.6065 46.4375 19.8166 3 1e-16 -4.12244
9160 1 19.7823 46.4375 17.4852 3 1e-16 -4.12244
9161 1 22.2551 46.4375 17.4852 3 4e-16 -4.12244
9162 1 21.4308 46.4375 15.1539 3 4e-16 -4.12244
9163 1 23.9036 46.4375 15.1539 3 1e-16 -4.12244
9164 1 23.0793 46.4375 12.8225 3 1e-16 -4.12244
9165 1 25.5521 46.4375 12.8225 3 1.89327e-28 -4.12244
9166 1 24.7278 46.4375 10.4911 3 0 -4.12244
9167 1 27.2006 46.4375 10.4911 3 1e-16 -4.12244
9168 1 26.3764 46.4375 8.15977 3 1e-16 -4.12244
9169 1 28.8491 46.4375 8.15977 3 4e-16 -4.12244
9170 1 28.0249 46.4375 5.82841 3 3.99999e-16 -4.12244
9171 1 30.4977 46.4375 5.82841 3 9.99999e-17 -4.12244
9172 1 29.6734 46.4375 3.49704 3 1e-16 -4.12244
9173 1 32.1462 46.4375 3.49704 3 9.99999e-17 -4.12244
9174 1 31.3219 46.4375 1.16568 3 1.69e-18 -4.12244
9175 1 33.7947 46.4375 1.16568 3 4.01691e-16 -4.12244
9176 1 1.64852 44.4184 46.6273 3 5.945e-17 -4.12244
9177 1 4.12131 44.4184 46.6273 3 1.0169e-16 -4.12244
9178 1 3.29705 44.4184 44.2959 3 4e-16 -4.12244
9179 1 5.76983 44.4184 44.2959 3 0 -4.12244
9180 1 4.94557 44.4184 41.9645 3 1e-16 -4.12244
9181 1 7.41835 44.4184 41.9645 3 1e-16 -4.12244
9182 1 6.59409 44.4184 39.6332 3 0 -4.12244
9183 1 9.06687 44.4184 39.6332 3 4e-16 -4.12244
9184 1 8.24261 44.4184 37.3018 3 9.99999e-17 -4.12244
9185 1 10.7154 44.4184 37.3018 3 1e-16 -4.12244
9186 1 9.89114 44.4184 34.9704 3 4e-16 -4.12244
9187 1 12.3639 44.4184 34.9704 3 2.01948e-28 -4.12244
9188 1 11.5397 44.4184 32.6391 3 1e-16 -4.12244
9189 1 14.0124 44.4184 32.6391 3 1e-16 -4.12244
9190 1 13.1882 44.4184 30.3077 3 0 -4.12244
9191 1 15.661 44.4184 30.3077 3 4e-16 -4.12244
9192 1 14.8367 44.4184 27.9764 3 9.99999e-17 -4.12244
9193 1 17.3095 44.4184 27.9764 3 1e-16 -4.12244
9194 1 16.4852 44.4184 25.645 3 4e-16 -4.12244
9195 1 18.958 44.4184 25.645 3 3.5341e-28 -4.12244
9196 1 18.1337 44.4184 23.3136 3 1e-16 -4.12244
9197 1 20.6065 44.4184 23.3136 3 1e-16 -4.12244
9198 1 19.7823 44.4184 20.9823 3 1e-16 -4.12244
9199 1 22.2551 44.4184 20.9823 3 4e-16 -4.12244
9200 1 21.4308 44.4184 18.6509 3 4e-16 -4.12244
9201 1 23.9036 44.4184 18.6509 3 1e-16 -4.12244
9202 1 23.0793 44.4184 16.3195 3 1e-16 -4.12244
9203 1 25.5521 44.4184 16.3195 3 2.52435e-28 -4.12244
9204 1 24.7278 44.4184 13.9882 3 2.52435e-29 -4.12244
9205 1 27.2006 44.4184 13.9882 3 1e-16 -4.12244
9206 1 26.3764 44.4184 11.6568 3 1e-16 -4.12244
9207 1 28.8491 44.4184 11.6568 3 4e-16 -4.12244
9208 1 28.0249 44.4184 9.32545 3 3.99999e-16 -4.12244
9209 1 30.4977 44.4184 9.32545 3 9.99999e-17 -4.12244
9210 1 29.6734 44.4184 6.99409 3 1e-16 -4.12244
9211 1 32.1462 44.4184 6.99409 3 9.99999e-17 -4.12244
9212 1 31.3219 44.4184 4.66273 3 0 -4.12244
9213 1 33.7947 44.4184 4.66273 3 4.00001e-16 -4.12244
9214 1 32.9705 44.4184 2.33136 3 9.99999e-17 -4.12244
9215 1 35.4432 44.4184 2.33136 3 1e-16 -4.12244
9216 1 34.619 44.4184 0 3 4.0507e-16 -4.12244
9217 1 37.0918 44.4184 0 3 5.07001e-18 -4.12244
9218 1 3.29705 42.3994 47.7929 3 4.0507e-16 -4.12244
9219 1 5.76983 42.3994 47.7929 3 5.06996e-18 -4.12244
9220 1 4.94557 42.3994 45.4616 3 1e-16 -4.12244
9221 1 7.41835 42.3994 45.4616 3 1e-16 -4.12244
9222 1 6.59409 42.3994 43.1302 3 6.05845e-28 -4.12244
9223 1 9.06687 42.3994 43.1302 3 4e-16 -4.12244
9224 1 8.24261 42.3994 40.7989 3 9.99999e-17 -4.12244
9225 1 10.7154 42.3994 40.7989 3 1e-16 -4.12244
9226 1 9.89114 42.3994 38.4675 3 4e-16 -4.12244
9227 1 12.3639 42.3994 38.4675 3 0 -4.12244
9228 1 11.5397 42.3994 36.1361 3 1e-16 -4.12244
9229 1 14.0124 42.3994 36.1361 3 1e-16 -4.12244
9230 1 13.1882 42.3994 33.8048 3 0 -4.12244
9231 1 15.661 42.3994 33.8048 3 4e-16 -4.12244
9232 1 14.8367 42.3994 31.4734 3 9.99999e-17 -4.12244
9233 1 17.3095 42.3994 31.4734 3 1e-16 -4.12244
9234 1 16.4852 42.3994 29.142 3 4e-16 -4.12244
9235 1 18.958 42.3994 29.142 3 3.5341e-28 -4.12244
9236 1 18.1337 42.3994 26.8107 3 1e-16 -4.12244
9237 1 20.6065 42.3994 26.8107 3 1e-16 -4.12244
9238 1 19.7823 42.3994 24.4793 3 1e-16 -4.12244
9239 1 22.2551 42.3994 24.4793 3 4e-16 -4.12244
9240 1 21.4308 42.3994 22.1479 3 4e-16 -4.12244
9241 1 23.9036 42.3994 22.1479 3 1e-16 -4.12244
9242 1 23.0793 42.3994 19.8166 3 1e-16 -4.12244
9243 1 25.5521 42.3994 19.8166 3 1.51461e-28 -4.12244
9244 1 24.7278 42.3994 17.4852 3 1.00974e-28 -4.12244
9245 1 27.2006 42.3994 17.4852 3 1e-16 -4.12244
9246 1 26.3764 42.3994 15.1539 3 1e-16 -4.12244
9247 1 28.8491 42.3994 15.1539 3 4e-16 -4.12244
9248 1 28.0249 42.3994 12.8225 3 3.99999e-16 -4.12244
9249 1 30.4977 42.3994 12.8225 3 9.99999e-17 -4.12244
9250 1 29.6734 42.3994 10.4911 3 1e-16 -4.12244
9251 1 32.1462 42.3994 10.4911 3 9.99999e-17 -4.12244
9252 1 31.3219 42.3994 8.15977 3 1.26218e-29 -4.12244
9253 1 33.7947 42.3994 8.15977 3 4.00001e-16 -4.12244
9254 1 32.9705 42.3994 5.82841 3 9.99999e-17 -4.12244
9255 1 35.4432 42.3994 5.82841 3 1e-16 -4.12244
9256 1 34.619 42.3994 3.49704 3 4e-16 -4.12244
9257 1 37.0918 42.3994 3.49704 3 7.88861e-31 -4.12244
9258 1 36.2675 42.3994 1.16568 3 1.0169e-16 -4.12244
9259 1 38.7403 42.3994 1.16568 3 1.0169e-16 -4.12244
9260 1 6.59409 40.3804 46.6273 3 1.69002e-18 -4.12244
9261 1 9.06687 40.3804 46.6273 3 4.0169e-16 -4.12244
9262 1 8.24261 40.3804 44.2959 3 9.99999e-17 -4.12244
9263 1 10.7154 40.3804 44.2959 3 1e-16 -4.12244
9264 1 9.89114 40.3804 41.9645 3 4e-16 -4.12244
9265 1 12.3639 40.3804 41.9645 3 0 -4.12244
9266 1 11.5397 40.3804 39.6332 3 1e-16 -4.12244
9267 1 14.0124 40.3804 39.6332 3 1e-16 -4.12244
9268 1 13.1882 40.3804 37.3018 3 0 -4.12244
9269 1 15.661 40.3804 37.3018 3 4e-16 -4.12244
9270 1 14.8367 40.3804 34.9704 3 9.99999e-17 -4.12244
9271 1 17.3095 40.3804 34.9704 3 1e-16 -4.12244
9272 1 16.4852 40.3804 32.6391 3 4e-16 -4.12244
9273 1 18.958 40.3804 32.6391 3 4.03897e-28 -4.12244
9274 1 18.1337 40.3804 30.3077 3 1e-16 -4.12244
9275 1 20.6065 40.3804 30.3077 3 1e-16 -4.12244
9276 1 19.7823 40.3804 27.9764 3 1e-16 -4.12244
9277 1 22.2551 40.3804 27.9764 3 4e-16 -4.12244
9278 1 21.4308 40.3804 25.645 3 4e-16 -4.12244
9279 1 23.9036 40.3804 25.645 3 1e-16 -4.12244
9280 1 23.0793 40.3804 23.3136 3 1e-16 -4.12244
9281 1 25.5521 40.3804 23.3136 3 1.51461e-28 -4.12244
9282 1 24.7278 40.3804 20.9823 3 0 -4.12244
9283 1 27.2006 40.3804 20.9823 3 1e-16 -4.12244
9284 1 26.3764 40.3804 18.6509 3 1e-16 -4.12244
9285 1 28.8491 40.3804 18.6509 3 4e-16 -4.12244
9286 1 28.0249 40.3804 16.3195 3 3.99999e-16 -4.12244
9287 1 30.4977 40.3804 16.3195 3 9.99999e-17 -4.12244
9288 1 29.6734 40.3804 13.9882 3 1e-16 -4.12244
9289 1 32.1462 40.3804 13.9882 3 9.99999e-17 -4.12244
9290 1 31.3219 40.3804 11.6568 3 0 -4.12244
9291 1 33.7947 40.3804 11.6568 3 4.00001e-16 -4.12244
9292 1 32.9705 40.3804 9.32545 3 9.99999e-17 -4.12244
9293 1 35.4432 40.3804 9.32545 3 1e-16 -4.12244
9294 1 34.619 40.3804 6.99409 3 4e-16 -4.12244
9295 1 37.0918 40.3804 6.99409 3 0 -4.12244
9296 1 36.2675 40.3804 4.66273 3 1e-16 -4.12244
9297 1 38.7403 40.3804 4.66273 3 1e-16 -4.12244
9298 1 37.916 40.3804 2.33136 3 8.07794e-28 -4.12244
9299 1 40.3888 40.3804 2.33136 3 3.99999e-16 -4.12244
9300 1 39.5645 40.3804 0 3 1.0507e-16 -4.12244
9301 1 42.0373 40.3804 0 3 1.0507e-16 -4.12244
9302 1 8.24261 38.3614 47.7929 3 1.0507e-16 -4.12244
9303 1 10.7154 38.3614 47.7929 3 1.0507e-16 -4.12244
9304 1 9.89114 38.3614 45.4616 3 4e-16 -4.12244
9305 1 12.3639 38.3614 45.4616 3 0 -4.12244
9306 1 11.5397 38.3614 43.1302 3 1e-16 -4.12244
9307 1 14.0124 38.3614 43.1302 3 1e-16 -4.12244
9308 1 13.1882 38.3614 40.7989 3 6.05845e-28 -4.12244
9309 1 15.661 38.3614 40.7989 3 4e-16 -4.12244
9310 1 14.8367 38.3614 38.4675 3 9.99999e-17 -4.12244
9311 1 17.3095 38.3614 38.4675 3 1e-16 -4.12244
9312 1 16.4852 38.3614 36.1361 3 4e-16 -4.12244
9313 1 18.958 38.3614 36.1361 3 8.07794e-28 -4.12244
9314 1 18.1337 38.3614 33.8048 3 1e-16 -4.12244
9315 1 20.6065 38.3614 33.8048 3 1e-16 -4.12244
9316 1 19.7823 38.3614 31.4734 3 1e-16 -4.12244
9317 1 22.2551 38.3614 31.4734 3 4e-16 -4.12244
9318 1 21.4308 38.3614 29.142 3 4e-16 -4.12244
9319 1 23.9036 38.3614 29.142 3 1e-16 -4.12244
9320 1 23.0793 38.3614 26.8107 3 1e-16 -4.12244
9321 1 25.5521 38.3614 26.8107 3 1.51461e-28 -4.12244
9322 1 24.7278 38.3614 24.4793 3 1.00974e-28 -4.12244
9323 1 27.2006 38.3614 24.4793 3 1e-16 -4.12244
9324 1 26.3764 38.3614 22.1479 3 1e-16 -4.12244
9325 1 28.8491 38.3614 22.1479 3 4e-16 -4.12244
9326 1 28.0249 38.3614 19.8166 3 3.99999e-16 -4.12244
9327 1 30.4977 38.3614 19.8166 3 9.99999e-17 -4.12244
9328 1 29.6734 38.3614 17.4852 3 1e-16 -4.12244
9329 1 32.1462 38.3614 17.4852 3 9.99999e-17 -4.12244
9330 1 31.3219 38.3614 15.1539 3 0 -4.12244
9331 1 33.7947 38.3614 15.1539 3 4.00001e-16 -4.12244
9332 1 32.9705 38.3614 12.8225 3 9.99999e-17 -4.12244
9333 1 35.4432 38.3614 12.8225 3 1e-16 -4.12244
9334 1 34.619 38.3614 10.4911 3 4e-16 -4.12244
9335 1 37.0918 38.3614 10.4911 3 0 -4.12244
9336 1 36.2675 38.3614 8.15977 3 1e-16 -4.12244
9337 1 38.7403 38.3614 8.15977 3 1e-16 -4.12244
9338 1 37.916 38.3614 5.82841 3 8.10949e-28 -4.12244
9339 1 40.3888 38.3614 5.82841 3 3.99999e-16 -4.12244
9340 1 39.5645 38.3614 3.49704 3 1e-16 -4.12244
9341 1 42.0373 38.3614 3.49704 3 1e-16 -4.12244
9342 1 41.2131 38.3614 1.16568 3 4.01691e-16 -4.12244
9343 1 43.6859 38.3614 1.16568 3 1.69e-18 -4.12244
9344 1 11.5397 36.3424 46.6273 3 1.0169e-16 -4.12244
9345 1 14.0124 36.3424 46.6273 3 1.0169e-16 -4.12244
9346 1 13.1882 36.3424 44.2959 3 0 -4.12244
9347 1 15.661 36.3424 44.2959 3 4e-16 -4.12244
9348 1 14.8367 36.3424 41.9645 3 9.99999e-17 -4.12244
9349 1 17.3095 36.3424 41.9645 3 1e-16 -4.12244
9350 1 16.4852 36.3424 39.6332 3 4e-16 -4.12244
9351 1 18.958 36.3424 39.6332 3 2.01948e-28 -4.12244
9352 1 18.1337 36.3424 37.3018 3 1e-16 -4.12244
9353 1 20.6065 36.3424 37.3018 3 1e-16 -4.12244
9354 1 19.7823 36.3424 34.9704 3 1e-16 -4.12244
9355 1 22.2551 36.3424 34.9704 3 4e-16 -4.12244
9356 1 21.4308 36.3424 32.6391 3 4e-16 -4.12244
9357 1 23.9036 36.3424 32.6391 3 1e-16 -4.12244
9358 1 23.0793 36.3424 30.3077 3 1e-16 -4.12244
9359 1 25.5521 36.3424 30.3077 3 1.51461e-28 -4.12244
9360 1 24.7278 36.3424 27.9764 3 1.51461e-28 -4.12244
9361 1 27.2006 36.3424 27.9764 3 1e-16 -4.12244
9362 1 26.3764 36.3424 25.645 3 1e-16 -4.12244
9363 1 28.8491 36.3424 25.645 3 4e-16 -4.12244
9364 1 28.0249 36.3424 23.3136 3 3.99999e-16 -4.12244
9365 1 30.4977 36.3424 23.3136 3 9.99999e-17 -4.12244
9366 1 29.6734 36.3424 20.9823 3 1e-16 -4.12244
9367 1 32.1462 36.3424 20.9823 3 9.99999e-17 -4.12244
9368 1 31.3219 36.3424 18.6509 3 0 -4.12244
9369 1 33.7947 36.3424 18.6509 3 4.00001e-16 -4.12244
9370 1 32.9705 36.3424 16.3195 3 9.99999e-17 -4.12244
9371 1 35.4432 36.3424 16.3195 3 1e-16 -4.12244
9372 1 34.619 36.3424 13.9882 3 4e-16 -4.12244
9373 1 37.0918 36.3424 13.9882 3 2.52435e-29 -4.12244
9374 1 36.2675 36.3424 11.6568 3 1e-16 -4.12244
9375 1 38.7403 36.3424 11.6568 3 1e-16 -4.12244
9376 1 37.916 36.3424 9.32545 3 8.07794e-28 -4.12244
9377 1 40.3888 36.3424 9.32545 3 3.99999e-16 -4.12244
9378 1 39.5645 36.3424 6.99409 3 1e-16 -4.12244
9379 1 42.0373 36.3424 6.99409 3 1e-16 -4.12244
9380 1 41.2131 36.3424 4.66273 3 4.00001e-16 -4.12244
9381 1 43.6859 36.3424 4.66273 3 2.01948e-28 -4.12244
9382 1 42.8616 36.3424 2.33136 3 9.99999e-17 -4.12244
9383 1 45.3344 36.3424 2.33136 3 9.99999e-17 -4.12244
9384 1 44.5101 36.3424 0 3 5.07001e-18 -4.12244
9385 1 46.9829 36.3424 0 3 4.0507e-16 -4.12244
9386 1 13.1882 34.3233 47.7929 3 5.06996e-18 -4.12244
9387 1 15.661 34.3233 47.7929 3 4.0507e-16 -4.12244
9388 1 14.8367 34.3233 45.4616 3 9.99999e-17 -4.12244
9389 1 17.3095 34.3233 45.4616 3 1e-16 -4.12244
9390 1 16.4852 34.3233 43.1302 3 4e-16 -4.12244
9391 1 18.958 34.3233 43.1302 3 8.07794e-28 -4.12244
9392 1 18.1337 34.3233 40.7989 3 1e-16 -4.12244
9393 1 20.6065 34.3233 40.7989 3 1e-16 -4.12244
9394 1 19.7823 34.3233 38.4675 3 1e-16 -4.12244
9395 1 22.2551 34.3233 38.4675 3 4e-16 -4.12244
9396 1 21.4308 34.3233 36.1361 3 4e-16 -4.12244
9397 1 23.9036 34.3233 36.1361 3 1e-16 -4.12244
9398 1 23.0793 34.3233 33.8048 3 1e-16 -4.12244
9399 1 25.5521 34.3233 33.8048 3 1.51461e-28 -4.12244
9400 1 24.7278 34.3233 31.4734 3 5.04871e-29 -4.12244
9401 1 27.2006 34.3233 31.4734 3 1e-16 -4.12244
9402 1 26.3764 34.3233 29.142 3 1e-16 -4.12244
9403 1 28.8491 34.3233 29.142 3 4e-16 -4.12244
9404 1 28.0249 34.3233 26.8107 3 3.99999e-16 -4.12244
9405 1 30.4977 34.3233 26.8107 3 9.99999e-17 -4.12244
9406 1 29.6734 34.3233 24.4793 3 1e-16 -4.12244
9407 1 32.1462 34.3233 24.4793 3 9.99999e-17 -4.12244
9408 1 31.3219 34.3233 22.1479 3 0 -4.12244
9409 1 33.7947 34.3233 22.1479 3 4.00001e-16 -4.12244
9410 1 32.9705 34.3233 19.8166 3 9.99999e-17 -4.12244
9411 1 35.4432 34.3233 19.8166 3 1e-16 -4.12244
9412 1 34.619 34.3233 17.4852 3 4e-16 -4.12244
9413 1 37.0918 34.3233 17.4852 3 1.00974e-28 -4.12244
9414 1 36.2675 34.3233 15.1539 3 1e-16 -4.12244
9415 1 38.7403 34.3233 15.1539 3 1e-16 -4.12244
9416 1 37.916 34.3233 12.8225 3 8.45659e-28 -4.12244
9417 1 40.3888 34.3233 12.8225 3 3.99999e-16 -4.12244
9418 1 39.5645 34.3233 10.4911 3 1e-16 -4.12244
9419 1 42.0373 34.3233 10.4911 3 1e-16 -4.12244
9420 1 41.2131 34.3233 8.15977 3 4.00001e-16 -4.12244
9421 1 43.6859 34.3233 8.15977 3 2.1457e-28 -4.12244
9422 1 42.8616 34.3233 5.82841 3 9.99999e-17 -4.12244
9423 1 45.3344 34.3233 5.82841 3 9.99999e-17 -4.12244
9424 1 44.5101 34.3233 3.49704 3 2.02737e-28 -4.12244
9425 1 46.9829 34.3233 3.49704 3 3.99999e-16 -4.12244
9426 1 46.1586 34.3233 1.16568 3 1.0169e-16 -4.12244
9427 1 48.6314 34.3233 1.16568 3 1.0169e-16 -4.12244
9428 1 16.4852 32.3043 46.6273 3 4.0169e-16 -4.12244
9429 1 18.958 32.3043 46.6273 3 1.69002e-18 -4.12244
9430 1 18.1337 32.3043 44.2959 3 1e-16 -4.12244
9431 1 20.6065 32.3043 44.2959 3 1e-16 -4.12244
9432 1 19.7823 32.3043 41.9645 3 1e-16 -4.12244
9433 1 22.2551 32.3043 41.9645 3 4e-16 -4.12244
9434 1 21.4308 32.3043 39.6332 3 4e-16 -4.12244
9435 1 23.9036 32.3043 39.6332 3 1e-16 -4.12244
9436 1 23.0793 32.3043 37.3018 3 1e-16 -4.12244
9437 1 25.5521 32.3043 37.3018 3 1.51461e-28 -4.12244
9438 1 24.7278 32.3043 34.9704 3 2.01948e-28 -4.12244
9439 1 27.2006 32.3043 34.9704 3 1e-16 -4.12244
9440 1 26.3764 32.3043 32.6391 3 1e-16 -4.12244
9441 1 28.8491 32.3043 32.6391 3 4e-16 -4.12244
9442 1 28.0249 32.3043 30.3077 3 3.99999e-16 -4.12244
9443 1 30.4977 32.3043 30.3077 3 9.99999e-17 -4.12244
9444 1 29.6734 32.3043 27.9764 3 1e-16 -4.12244
9445 1 32.1462 32.3043 27.9764 3 9.99999e-17 -4.12244
9446 1 31.3219 32.3043 25.645 3 1.51461e-28 -4.12244
9447 1 33.7947 32.3043 25.645 3 4.00001e-16 -4.12244
9448 1 32.9705 32.3043 23.3136 3 9.99999e-17 -4.12244
9449 1 35.4432 32.3043 23.3136 3 1e-16 -4.12244
9450 1 34.619 32.3043 20.9823 3 4e-16 -4.12244
9451 1 37.0918 32.3043 20.9823 3 0 -4.12244
9452 1 36.2675 32.3043 18.6509 3 1e-16 -4.12244
9453 1 38.7403 32.3043 18.6509 3 1e-16 -4.12244
9454 1 37.916 32.3043 16.3195 3 9.08768e-28 -4.12244
9455 1 40.3888 32.3043 16.3195 3 3.99999e-16 -4.12244
9456 1 39.5645 32.3043 13.9882 3 1e-16 -4.12244
9457 1 42.0373 32.3043 13.9882 3 1e-16 -4.12244
9458 1 41.2131 32.3043 11.6568 3 4.00001e-16 -4.12244
9459 1 43.6859 32.3043 11.6568 3 2.01948e-28 -4.12244
9460 1 42.8616 32.3043 9.32545 3 9.99999e-17 -4.12244
9461 1 45.3344 32.3043 9.32545 3 9.99999e-17 -4.12244
9462 1 44.5101 32.3043 6.99409 3 2.01948e-28 -4.12244
9463 1 46.9829 32.3043 6.99409 3 3.99999e-16 -4.12244
9464 1 46.1586 32.3043 4.66273 3 9.99999e-17 -4.12244
9465 1 48.6314 32.3043 4.66273 3 9.99999e-17 -4.12244
9466 1 47.8072 32.3043 2.33136 3 3.99999e-16 -4.12244
9467 1 50.2799 32.3043 2.33136 3 2.01948e-28 -4.12244
9468 1 49.4557 32.3043 0 3 1.0507e-16 -4.12244
9469 1 51.9285 32.3043 0 3 1.0507e-16 -4.12244
9470 1 18.1337 30.2853 47.7929 3 1.0507e-16 -4.12244
9471 1 20.6065 30.2853 47.7929 3 1.0507e-16 -4.12244
9472 1 19.7823 30.2853 45.4616 3 1e-16 -4.12244
9473 1 22.2551 30.2853 45.4616 3 4e-16 -4.12244
9474 1 21.4308 30.2853 43.1302 3 4e-16 -4.12244
9475 1 23.9036 30.2853 43.1302 3 1e-16 -4.12244
9476 1 23.0793 30.2853 40.7989 3 1e-16 -4.12244
9477 1 25.5521 30.2853 40.7989 3 8.58281e-28 -4.12244
9478 1 24.7278 30.2853 38.4675 3 1.00974e-28 -4.12244
9479 1 27.2006 30.2853 38.4675 3 1e-16 -4.12244
9480 1 26.3764 30.2853 36.1361 3 1e-16 -4.12244
9481 1 28.8491 30.2853 36.1361 3 4e-16 -4.12244
9482 1 28.0249 30.2853 33.8048 3 3.99999e-16 -4.12244
9483 1 30.4977 30.2853 33.8048 3 9.99999e-17 -4.12244
9484 1 29.6734 30.2853 31.4734 3 1e-16 -4.12244
9485 1 32.1462 30.2853 31.4734 3 9.99999e-17 -4.12244
9486 1 31.3219 30.2853 29.142 3 2.52435e-28 -4.12244
9487 1 33.7947 30.2853 29.142 3 4.00001e-16 -4.12244
9488 1 32.9705 30.2853 26.8107 3 9.99999e-17 -4.12244
9489 1 35.4432 30.2853 26.8107 3 1e-16 -4.12244
9490 1 34.619 30.2853 24.4793 3 4e-16 -4.12244
9491 1 37.0918 30.2853 24.4793 3 2.01948e-28 -4.12244
9492 1 36.2675 30.2853 22.1479 3 1e-16 -4.12244
9493 1 38.7403 30.2853 22.1479 3 1e-16 -4.12244
9494 1 37.916 30.2853 19.8166 3 9.08768e-28 -4.12244
9495 1 40.3888 30.2853 19.8166 3 3.99999e-16 -4.12244
9496 1 39.5645 30.2853 17.4852 3 1e-16 -4.12244
9497 1 42.0373 30.2853 17.4852 3 1e-16 -4.12244
9498 1 41.2131 30.2853 15.1539 3 4.00001e-16 -4.12244
9499 1 43.6859 30.2853 15.1539 3 3.02923e-28 -4.12244
9500 1 42.8616 30.2853 12.8225 3 9.99999e-17 -4.12244
9501 1 45.3344 30.2853 12.8225 3 9.99999e-17 -4.12244
9502 1 44.5101 30.2853 10.4911 3 3.02923e-28 -4.12244
9503 1 46.9829 30.2853 10.4911 3 3.99999e-16 -4.12244
9504 1 46.1586 30.2853 8.15977 3 9.99999e-17 -4.12244
9505 1 48.6314 30.2853 8.15977 3 9.99999e-17 -4.12244
9506 1 47.8072 30.2853 5.82841 3 3.99999e-16 -4.12244
9507 1 50.2799 30.2853 5.82841 3 3.06078e-28 -4.12244
9508 1 49.4557 30.2853 3.49704 3 9.99999e-17 -4.12244
9509 1 51.9285 30.2853 3.49704 3 1e-16 -4.12244
9510 1 51.1042 30.2853 1.16568 3 1.0169e-16 -4.12244
9511 1 53.577 30.2853 1.16568 3 4.01689e-16 -4.12244
9512 1 21.4308 28.2663 46.6273 3 4.01691e-16 -4.12244
9513 1 23.9036 28.2663 46.6273 3 1.0169e-16 -4.12244
9514 1 23.0793 28.2663 44.2959 3 1e-16 -4.12244
9515 1 25.5521 28.2663 44.2959 3 1.51461e-28 -4.12244
9516 1 24.7278 28.2663 41.9645 3 0 -4.12244
9517 1 27.2006 28.2663 41.9645 3 1e-16 -4.12244
9518 1 26.3764 28.2663 39.6332 3 1e-16 -4.12244
9519 1 28.8491 28.2663 39.6332 3 4e-16 -4.12244
9520 1 28.0249 28.2663 37.3018 3 3.99999e-16 -4.12244
9521 1 30.4977 28.2663 37.3018 3 9.99999e-17 -4.12244
9522 1 29.6734 28.2663 34.9704 3 1e-16 -4.12244
9523 1 32.1462 28.2663 34.9704 3 9.99999e-17 -4.12244
9524 1 31.3219 28.2663 32.6391 3 2.01948e-28 -4.12244
9525 1 33.7947 28.2663 32.6391 3 4.00001e-16 -4.12244
9526 1 32.9705 28.2663 30.3077 3 9.99999e-17 -4.12244
9527 1 35.4432 28.2663 30.3077 3 1e-16 -4.12244
9528 1 34.619 28.2663 27.9764 3 4e-16 -4.12244
9529 1 37.0918 28.2663 27.9764 3 1.51461e-28 -4.12244
9530 1 36.2675 28.2663 25.645 3 1e-16 -4.12244
9531 1 38.7403 28.2663 25.645 3 1e-16 -4.12244
9532 1 37.916 28.2663 23.3136 3 8.07794e-28 -4.12244
9533 1 40.3888 28.2663 23.3136 3 3.99999e-16 -4.12244
9534 1 39.5645 28.2663 20.9823 3 1e-16 -4.12244
9535 1 42.0373 28.2663 20.9823 3 1e-16 -4.12244
9536 1 41.2131 28.2663 18.6509 3 4.00001e-16 -4.12244
9537 1 43.6859 28.2663 18.6509 3 2.01948e-28 -4.12244
9538 1 42.8616 28.2663 16.3195 3 9.99999e-17 -4.12244
9539 1 45.3344 28.2663 16.3195 3 9.99999e-17 -4.12244
9540 1 44.5101 28.2663 13.9882 3 2.27192e-28 -4.12244
9541 1 46.9829 28.2663 13.9882 3 3.99999e-16 -4.12244
9542 1 46.1586 28.2663 11.6568 3 9.99999e-17 -4.12244
9543 1 48.6314 28.2663 11.6568 3 9.99999e-17 -4.12244
9544 1 47.8072 28.2663 9.32545 3 3.99999e-16 -4.12244
9545 1 50.2799 28.2663 9.32545 3 2.01948e-28 -4.12244
9546 1 49.4557 28.2663 6.99409 3 9.99999e-17 -4.12244
9547 1 51.9285 28.2663 6.99409 3 1e-16 -4.12244
9548 1 51.1042 28.2663 4.66273 3 9.99999e-17 -4.12244
9549 1 53.577 28.2663 4.66273 3 3.99999e-16 -4.12244
9550 1 52.7527 28.2663 2.33136 3 4.00001e-16 -4.12244
9551 1 55.2255 28.2663 2.33136 3 1e-16 -4.12244
9552 1 54.4012 28.2663 0 3 1.0507e-16 -4.12244
9553 1 56.874 28.2663 0 3 5.07001e-18 -4.12244
9554 1 23.0793 26.2473 47.7929 3 1.0507e-16 -4.12244
9555 1 25.5521 26.2473 47.7929 3 5.06996e-18 -4.12244
9556 1 24.7278 26.2473 45.4616 3 1.00974e-28 -4.12244
9557 1 27.2006 26.2473 45.4616 3 1e-16 -4.12244
9558 1 26.3764 26.2473 43.1302 3 1e-16 -4.12244
9559 1 28.8491 26.2473 43.1302 3 4e-16 -4.12244
9560 1 28.0249 26.2473 40.7989 3 3.99999e-16 -4.12244
9561 1 30.4977 26.2473 40.7989 3 9.99999e-17 -4.12244
9562 1 29.6734 26.2473 38.4675 3 1e-16 -4.12244
9563 1 32.1462 26.2473 38.4675 3 9.99999e-17 -4.12244
9564 1 31.3219 26.2473 36.1361 3 7.06819e-28 -4.12244
9565 1 33.7947 26.2473 36.1361 3 4.00001e-16 -4.12244
9566 1 32.9705 26.2473 33.8048 3 9.99999e-17 -4.12244
9567 1 35.4432 26.2473 33.8048 3 1e-16 -4.12244
9568 1 34.619 26.2473 31.4734 3 4e-16 -4.12244
9569 1 37.0918 26.2473 31.4734 3 1.51461e-28 -4.12244
9570 1 36.2675 26.2473 29.142 3 1e-16 -4.12244
9571 1 38.7403 26.2473 29.142 3 1e-16 -4.12244
9572 1 37.916 26.2473 26.8107 3 9.08768e-28 -4.12244
9573 1 40.3888 26.2473 26.8107 3 3.99999e-16 -4.12244
9574 1 39.5645 26.2473 24.4793 3 1e-16 -4.12244
9575 1 42.0373 26.2473 24.4793 3 1e-16 -4.12244
9576 1 41.2131 26.2473 22.1479 3 4.00001e-16 -4.12244
9577 1 43.6859 26.2473 22.1479 3 3.02923e-28 -4.12244
9578 1 42.8616 26.2473 19.8166 3 9.99999e-17 -4.12244
9579 1 45.3344 26.2473 19.8166 3 9.99999e-17 -4.12244
9580 1 44.5101 26.2473 17.4852 3 4.03897e-28 -4.12244
9581 1 46.9829 26.2473 17.4852 3 3.99999e-16 -4.12244
9582 1 46.1586 26.2473 15.1539 3 9.99999e-17 -4.12244
9583 1 48.6314 26.2473 15.1539 3 9.99999e-17 -4.12244
9584 1 47.8072 26.2473 12.8225 3 3.99999e-16 -4.12244
9585 1 50.2799 26.2473 12.8225 3 3.40788e-28 -4.12244
9586 1 49.4557 26.2473 10.4911 3 9.99999e-17 -4.12244
9587 1 51.9285 26.2473 10.4911 3 1e-16 -4.12244
9588 1 51.1042 26.2473 8.15977 3 9.99999e-17 -4.12244
9589 1 53.577 26.2473 8.15977 3 3.99999e-16 -4.12244
9590 1 52.7527 26.2473 5.82841 3 4.00001e-16 -4.12244
9591 1 55.2255 26.2473 5.82841 3 1e-16 -4.12244
9592 1 54.4012 26.2473 3.49704 3 1e-16 -4.12244
9593 1 56.874 26.2473 3.49704 3 1.01763e-28 -4.12244
9594 1 56.0498 26.2473 1.16568 3 1.69e-18 -4.12244
9595 1 58.5226 26.2473 1.16568 3 1.0169e-16 -4.12244
9596 1 26.3764 24.2282 46.6273 3 1.0169e-16 -4.12244
9597 1 28.8491 24.2282 46.6273 3 4.0169e-16 -4.12244
9598 1 28.0249 24.2282 44.2959 3 3.99999e-16 -4.12244
9599 1 30.4977 24.2282 44.2959 3 9.99999e-17 -4.12244
9600 1 29.6734 24.2282 41.9645 3 1e-16 -4.12244
9601 1 32.1462 24.2282 41.9645 3 9.99999e-17 -4.12244
9602 1 31.3219 24.2282 39.6332 3 0 -4.12244
9603 1 33.7947 24.2282 39.6332 3 4.00001e-16 -4.12244
9604 1 32.9705 24.2282 37.3018 3 9.99999e-17 -4.12244
9605 1 35.4432 24.2282 37.3018 3 1e-16 -4.12244
9606 1 34.619 24.2282 34.9704 3 4e-16 -4.12244
9607 1 37.0918 24.2282 34.9704 3 2.01948e-28 -4.12244
9608 1 36.2675 24.2282 32.6391 3 1e-16 -4.12244
9609 1 38.7403 24.2282 32.6391 3 1e-16 -4.12244
9610 1 37.916 24.2282 30.3077 3 8.07794e-28 -4.12244
9611 1 40.3888 24.2282 30.3077 3 3.99999e-16 -4.12244
9612 1 39.5645 24.2282 27.9764 3 1e-16 -4.12244
9613 1 42.0373 24.2282 27.9764 3 1e-16 -4.12244
9614 1 41.2131 24.2282 25.645 3 4.00001e-16 -4.12244
9615 1 43.6859 24.2282 25.645 3 3.5341e-28 -4.12244
9616 1 42.8616 24.2282 23.3136 3 9.99999e-17 -4.12244
9617 1 45.3344 24.2282 23.3136 3 9.99999e-17 -4.12244
9618 1 44.5101 24.2282 20.9823 3 2.01948e-28 -4.12244
9619 1 46.9829 24.2282 20.9823 3 3.99999e-16 -4.12244
9620 1 46.1586 24.2282 18.6509 3 9.99999e-17 -4.12244
9621 1 48.6314 24.2282 18.6509 3 9.99999e-17 -4.12244
9622 1 47.8072 24.2282 16.3195 3 3.99999e-16 -4.12244
9623 1 50.2799 24.2282 16.3195 3 3.02923e-28 -4.12244
9624 1 49.4557 24.2282 13.9882 3 9.99999e-17 -4.12244
9625 1 51.9285 24.2282 13.9882 3 1e-16 -4.12244
9626 1 51.1042 24.2282 11.6568 3 9.99999e-17 -4.12244
9627 1 53.577 24.2282 11.6568 3 3.99999e-16 -4.12244
9628 1 52.7527 24.2282 9.32545 3 4.00001e-16 -4.12244
9629 1 55.2255 24.2282 9.32545 3 1e-16 -4.12244
9630 1 54.4012 24.2282 6.99409 3 1e-16 -4.12244
9631 1 56.874 24.2282 6.99409 3 0 -4.12244
9632 1 56.0498 24.2282 4.66273 3 0 -4.12244
9633 1 58.5226 24.2282 4.66273 3 9.99999e-17 -4.12244
9634 1 57.6983 24.2282 2.33136 3 1e-16 -4.12244
9635 1 60.1711 24.2282 2.33136 3 3.99999e-16 -4.12244
9636 1 59.3468 24.2282 0 3 4.0507e-16 -4.12244
9637 1 61.8196 24.2282 0 3 6.28299e-17 -4.12244
9638 1 28.0249 22.2092 47.7929 3 4.05069e-16 -4.12244
9639 1 30.4977 22.2092 47.7929 3 1.0507e-16 -4.12244
9640 1 29.6734 22.2092 45.4616 3 1e-16 -4.12244
9641 1 32.1462 22.2092 45.4616 3 9.99999e-17 -4.12244
9642 1 31.3219 22.2092 43.1302 3 6.05845e-28 -4.12244
9643 1 33.7947 22.2092 43.1302 3 4.00001e-16 -4.12244
9644 1 32.9705 22.2092 40.7989 3 9.99999e-17 -4.12244
9645 1 35.4432 22.2092 40.7989 3 1e-16 -4.12244
9646 1 34.619 22.2092 38.4675 3 4e-16 -4.12244
9647 1 37.0918 22.2092 38.4675 3 0 -4.12244
9648 1 36.2675 22.2092 36.1361 3 1e-16 -4.12244
9649 1 38.7403 22.2092 36.1361 3 1e-16 -4.12244
9650 1 37.916 22.2092 33.8048 3 8.07794e-28 -4.12244
9651 1 40.3888 22.2092 33.8048 3 3.99999e-16 -4.12244
9652 1 39.5645 22.2092 31.4734 3 1e-16 -4.12244
9653 1 42.0373 22.2092 31.4734 3 1e-16 -4.12244
9654 1 41.2131 22.2092 29.142 3 4.00001e-16 -4.12244
9655 1 43.6859 22.2092 29.142 3 3.5341e-28 -4.12244
9656 1 42.8616 22.2092 26.8107 3 9.99999e-17 -4.12244
9657 1 45.3344 22.2092 26.8107 3 9.99999e-17 -4.12244
9658 1 44.5101 22.2092 24.4793 3 3.02923e-28 -4.12244
9659 1 46.9829 22.2092 24.4793 3 3.99999e-16 -4.12244
9660 1 46.1586 22.2092 22.1479 3 9.99999e-17 -4.12244
9661 1 48.6314 22.2092 22.1479 3 9.99999e-17 -4.12244
9662 1 47.8072 22.2092 19.8166 3 3.99999e-16 -4.12244
9663 1 50.2799 22.2092 19.8166 3 2.01948e-28 -4.12244
9664 1 49.4557 22.2092 17.4852 3 9.99999e-17 -4.12244
9665 1 51.9285 22.2092 17.4852 3 1e-16 -4.12244
9666 1 51.1042 22.2092 15.1539 3 9.99999e-17 -4.12244
9667 1 53.577 22.2092 15.1539 3 3.99999e-16 -4.12244
9668 1 52.7527 22.2092 12.8225 3 4.00001e-16 -4.12244
9669 1 55.2255 22.2092 12.8225 3 1e-16 -4.12244
9670 1 54.4012 22.2092 10.4911 3 1e-16 -4.12244
9671 1 56.874 22.2092 10.4911 3 0 -4.12244
9672 1 56.0498 22.2092 8.15977 3 1.26218e-29 -4.12244
9673 1 58.5226 22.2092 8.15977 3 9.99999e-17 -4.12244
9674 1 57.6983 22.2092 5.82841 3 1e-16 -4.12244
9675 1 60.1711 22.2092 5.82841 3 3.99999e-16 -4.12244
9676 1 59.3468 22.2092 3.49704 3 3.99999e-16 -4.12244
9677 1 61.8196 22.2092 3.49704 3 5.77599e-17 -4.12244
9678 1 60.9953 22.2092 1.16568 3 1.0169e-16 -4.12244
9679 1 63.4681 22.2092 1.16568 3 2.473e-17 -4.12244
9680 1 31.3219 20.1902 46.6273 3 1.69002e-18 -4.12244
9681 1 33.7947 20.1902 46.6273 3 4.01691e-16 -4.12244
9682 1 32.9705 20.1902 44.2959 3 9.99999e-17 -4.12244
9683 1 35.4432 20.1902 44.2959 3 1e-16 -4.12244
9684 1 34.619 20.1902 41.9645 3 4e-16 -4.12244
9685 1 37.0918 20.1902 41.9645 3 0 -4.12244
9686 1 36.2675 20.1902 39.6332 3 1e-16 -4.12244
9687 1 38.7403 20.1902 39.6332 3 1e-16 -4.12244
9688 1 37.916 20.1902 37.3018 3 8.07794e-28 -4.12244
9689 1 40.3888 20.1902 37.3018 3 3.99999e-16 -4.12244
9690 1 39.5645 20.1902 34.9704 3 1e-16 -4.12244
9691 1 42.0373 20.1902 34.9704 3 1e-16 -4.12244
9692 1 41.2131 20.1902 32.6391 3 4.00001e-16 -4.12244
9693 1 43.6859 20.1902 32.6391 3 4.03897e-28 -4.12244
9694 1 42.8616 20.1902 30.3077 3 9.99999e-17 -4.12244
9695 1 45.3344 20.1902 30.3077 3 9.99999e-17 -4.12244
9696 1 44.5101 20.1902 27.9764 3 3.5341e-28 -4.12244
9697 1 46.9829 20.1902 27.9764 3 3.99999e-16 -4.12244
9698 1 46.1586 20.1902 25.645 3 9.99999e-17 -4.12244
9699 1 48.6314 20.1902 25.645 3 9.99999e-17 -4.12244
9700 1 47.8072 20.1902 23.3136 3 3.99999e-16 -4.12244
9701 1 50.2799 20.1902 23.3136 3 2.01948e-28 -4.12244
9702 1 49.4557 20.1902 20.9823 3 9.99999e-17 -4.12244
9703 1 51.9285 20.1902 20.9823 3 1e-16 -4.12244
9704 1 51.1042 20.1902 18.6509 3 9.99999e-17 -4.12244
9705 1 53.577 20.1902 18.6509 3 3.99999e-16 -4.12244
9706 1 52.7527 20.1902 16.3195 3 4.00001e-16 -4.12244
9707 1 55.2255 20.1902 16.3195 3 1e-16 -4.12244
9708 1 54.4012 20.1902 13.9882 3 1e-16 -4.12244
9709 1 56.874 20.1902 13.9882 3 2.52435e-29 -4.12244
9710 1 56.0498 20.1902 11.6568 3 0 -4.12244
9711 1 58.5226 20.1902 11.6568 3 9.99999e-17 -4.12244
9712 1 57.6983 20.1902 9.32545 3 1e-16 -4.12244
9713 1 60.1711 20.1902 9.32545 3 3.99999e-16 -4.12244
9714 1 59.3468 20.1902 6.99409 3 3.99999e-16 -4.12244
9715 1 61.8196 20.1902 6.99409 3 5.77599e-17 -4.12244
9716 1 60.9953 20.1902 4.66273 3 9.99999e-17 -4.12244
9717 1 63.4681 20.1902 4.66273 3 2.304e-17 -4.12244
9718 1 62.6439 20.1902 2.33136 3 5.76e-18 -4.12244
9719 1 32.9705 18.1712 47.7929 3 1.0507e-16 -4.12244
9720 1 35.4432 18.1712 47.7929 3 1.0507e-16 -4.12244
9721 1 34.619 18.1712 45.4616 3 4e-16 -4.12244
9722 1 37.0918 18.1712 45.4616 3 1.00974e-28 -4.12244
9723 1 36.2675 18.1712 43.1302 3 1e-16 -4.12244
9724 1 38.7403 18.1712 43.1302 3 1e-16 -4.12244
9725 1 37.916 18.1712 40.7989 3 1.51461e-27 -4.12244
9726 1 40.3888 18.1712 40.7989 3 3.99999e-16 -4.12244
9727 1 39.5645 18.1712 38.4675 3 1e-16 -4.12244
9728 1 42.0373 18.1712 38.4675 3 1e-16 -4.12244
9729 1 41.2131 18.1712 36.1361 3 4.00001e-16 -4.12244
9730 1 43.6859 18.1712 36.1361 3 9.08768e-28 -4.12244
9731 1 42.8616 18.1712 33.8048 3 9.99999e-17 -4.12244
9732 1 45.3344 18.1712 33.8048 3 9.99999e-17 -4.12244
9733 1 44.5101 18.1712 31.4734 3 3.5341e-28 -4.12244
9734 1 46.9829 18.1712 31.4734 3 3.99999e-16 -4.12244
9735 1 46.1586 18.1712 29.142 3 9.99999e-17 -4.12244
9736 1 48.6314 18.1712 29.142 3 9.99999e-17 -4.12244
9737 1 47.8072 18.1712 26.8107 3 3.99999e-16 -4.12244
9738 1 50.2799 18.1712 26.8107 3 3.02923e-28 -4.12244
9739 1 49.4557 18.1712 24.4793 3 9.99999e-17 -4.12244
9740 1 51.9285 18.1712 24.4793 3 1e-16 -4.12244
9741 1 51.1042 18.1712 22.1479 3 9.99999e-17 -4.12244
9742 1 53.577 18.1712 22.1479 3 3.99999e-16 -4.12244
9743 1 52.7527 18.1712 19.8166 3 4.00001e-16 -4.12244
9744 1 55.2255 18.1712 19.8166 3 1e-16 -4.12244
9745 1 54.4012 18.1712 17.4852 3 1e-16 -4.12244
9746 1 56.874 18.1712 17.4852 3 2.01948e-28 -4.12244
9747 1 56.0498 18.1712 15.1539 3 1.00974e-28 -4.12244
9748 1 58.5226 18.1712 15.1539 3 9.99999e-17 -4.12244
9749 1 57.6983 18.1712 12.8225 3 1e-16 -4.12244
9750 1 60.1711 18.1712 12.8225 3 3.99999e-16 -4.12244
9751 1 59.3468 18.1712 10.4911 3 3.99999e-16 -4.12244
9752 1 61.8196 18.1712 10.4911 3 5.77599e-17 -4.12244
9753 1 60.9953 18.1712 8.15977 3 9.99999e-17 -4.12244
9754 1 63.4681 18.1712 8.15977 3 2.304e-17 -4.12244
9755 1 62.6439 18.1712 5.82841 3 5.76e-18 -4.12244
9756 1 36.2675 16.1522 46.6273 3 1.0169e-16 -4.12244
9757 1 38.7403 16.1522 46.6273 3 1.0169e-16 -4.12244
9758 1 37.916 16.1522 44.2959 3 8.07794e-28 -4.12244
9759 1 40.3888 16.1522 44.2959 3 3.99999e-16 -4.12244
9760 1 39.5645 16.1522 41.9645 3 1e-16 -4.12244
9761 1 42.0373 16.1522 41.9645 3 1e-16 -4.12244
9762 1 41.2131 16.1522 39.6332 3 4.00001e-16 -4.12244
9763 1 43.6859 16.1522 39.6332 3 2.01948e-28 -4.12244
9764 1 42.8616 16.1522 37.3018 3 9.99999e-17 -4.12244
9765 1 45.3344 16.1522 37.3018 3 9.99999e-17 -4.12244
9766 1 44.5101 16.1522 34.9704 3 4.03897e-28 -4.12244
9767 1 46.9829 16.1522 34.9704 3 3.99999e-16 -4.12244
9768 1 46.1586 16.1522 32.6391 3 9.99999e-17 -4.12244
9769 1 48.6314 16.1522 32.6391 3 9.99999e-17 -4.12244
9770 1 47.8072 16.1522 30.3077 3 3.99999e-16 -4.12244
9771 1 50.2799 16.1522 30.3077 3 2.01948e-28 -4.12244
9772 1 49.4557 16.1522 27.9764 3 9.99999e-17 -4.12244
9773 1 51.9285 16.1522 27.9764 3 1e-16 -4.12244
9774 1 51.1042 16.1522 25.645 3 9.99999e-17 -4.12244
9775 1 53.577 16.1522 25.645 3 3.99999e-16 -4.12244
9776 1 52.7527 16.1522 23.3136 3 4.00001e-16 -4.12244
9777 1 55.2255 16.1522 23.3136 3 1e-16 -4.12244
9778 1 54.4012 16.1522 20.9823 3 1e-16 -4.12244
9779 1 56.874 16.1522 20.9823 3 0 -4.12244
9780 1 56.0498 16.1522 18.6509 3 0 -4.12244
9781 1 58.5226 16.1522 18.6509 3 9.99999e-17 -4.12244
9782 1 57.6983 16.1522 16.3195 3 1e-16 -4.12244
9783 1 60.1711 16.1522 16.3195 3 3.99999e-16 -4.12244
9784 1 59.3468 16.1522 13.9882 3 3.99999e-16 -4.12244
9785 1 61.8196 16.1522 13.9882 3 5.77599e-17 -4.12244
9786 1 60.9953 16.1522 11.6568 3 9.99999e-17 -4.12244
9787 1 63.4681 16.1522 11.6568 3 2.304e-17 -4.12244
9788 1 62.6439 16.1522 9.32545 3 5.76e-18 -4.12244
9789 1 37.916 14.1331 47.7929 3 5.06996e-18 -4.12244
9790 1 40.3888 14.1331 47.7929 3 4.05069e-16 -4.12244
9791 1 39.5645 14.1331 45.4616 3 1e-16 -4.12244
9792 1 42.0373 14.1331 45.4616 3 1e-16 -4.12244
9793 1 41.2131 14.1331 43.1302 3 4.00001e-16 -4.12244
9794 1 43.6859 14.1331 43.1302 3 8.07794e-28 -4.12244
9795 1 42.8616 14.1331 40.7989 3 9.99999e-17 -4.12244
9796 1 45.3344 14.1331 40.7989 3 9.99999e-17 -4.12244
9797 1 44.5101 14.1331 38.4675 3 2.01948e-28 -4.12244
9798 1 46.9829 14.1331 38.4675 3 3.99999e-16 -4.12244
9799 1 46.1586 14.1331 36.1361 3 9.99999e-17 -4.12244
9800 1 48.6314 14.1331 36.1361 3 9.99999e-17 -4.12244
9801 1 47.8072 14.1331 33.8048 3 3.99999e-16 -4.12244
9802 1 50.2799 14.1331 33.8048 3 2.01948e-28 -4.12244
9803 1 49.4557 14.1331 31.4734 3 9.99999e-17 -4.12244
9804 1 51.9285 14.1331 31.4734 3 1e-16 -4.12244
9805 1 51.1042 14.1331 29.142 3 9.99999e-17 -4.12244
9806 1 53.577 14.1331 29.142 3 3.99999e-16 -4.12244
9807 1 52.7527 14.1331 26.8107 3 4.00001e-16 -4.12244
9808 1 55.2255 14.1331 26.8107 3 1e-16 -4.12244
9809 1 54.4012 14.1331 24.4793 3 1e-16 -4.12244
9810 1 56.874 14.1331 24.4793 3 1.00974e-28 -4.12244
9811 1 56.0498 14.1331 22.1479 3 0 -4.12244
9812 1 58.5226 14.1331 22.1479 3 9.99999e-17 -4.12244
9813 1 57.6983 14.1331 19.8166 3 1e-16 -4.12244
9814 1 60.1711 14.1331 19.8166 3 3.99999e-16 -4.12244
9815 1 59.3468 14.1331 17.4852 3 3.99999e-16 -4.12244
9816 1 61.8196 14.1331 17.4852 3 5.77599e-17 -4.12244
9817 1 60.9953 14.1331 15.1539 3 9.99999e-17 -4.12244
9818 1 63.4681 14.1331 15.1539 3 2.304e-17 -4.12244
9819 1 62.6439 14.1331 12.8225 3 5.76e-18 -4.12244
9820 1 41.2131 12.1141 46.6273 3 4.01691e-16 -4.12244
9821 1 43.6859 12.1141 46.6273 3 1.69002e-18 -4.12244
9822 1 42.8616 12.1141 44.2959 3 9.99999e-17 -4.12244
9823 1 45.3344 12.1141 44.2959 3 9.99999e-17 -4.12244
9824 1 44.5101 12.1141 41.9645 3 2.01948e-28 -4.12244
9825 1 46.9829 12.1141 41.9645 3 3.99999e-16 -4.12244
9826 1 46.1586 12.1141 39.6332 3 9.99999e-17 -4.12244
9827 1 48.6314 12.1141 39.6332 3 9.99999e-17 -4.12244
9828 1 47.8072 12.1141 37.3018 3 3.99999e-16 -4.12244
9829 1 50.2799 12.1141 37.3018 3 2.01948e-28 -4.12244
9830 1 49.4557 12.1141 34.9704 3 9.99999e-17 -4.12244
9831 1 51.9285 12.1141 34.9704 3 1e-16 -4.12244
9832 1 51.1042 12.1141 32.6391 3 9.99999e-17 -4.12244
9833 1 53.577 12.1141 32.6391 3 3.99999e-16 -4.12244
9834 1 52.7527 12.1141 30.3077 3 4.00001e-16 -4.12244
9835 1 55.2255 12.1141 30.3077 3 1e-16 -4.12244
9836 1 54.4012 12.1141 27.9764 3 1e-16 -4.12244
9837 1 56.874 12.1141 27.9764 3 1.51461e-28 -4.12244
9838 1 56.0498 12.1141 25.645 3 1.51461e-28 -4.12244
9839 1 58.5226 12.1141 25.645 3 9.99999e-17 -4.12244
9840 1 57.6983 12.1141 23.3136 3 1e-16 -4.12244
9841 1 60.1711 12.1141 23.3136 3 3.99999e-16 -4.12244
9842 1 59.3468 12.1141 20.9823 3 3.99999e-16 -4.12244
9843 1 61.8196 12.1141 20.9823 3 5.77599e-17 -4.12244
9844 1 60.9953 12.1141 18.6509 3 9.99999e-17 -4.12244
9845 1 63.4681 12.1141 18.6509 3 2.304e-17 -4.12244
9846 1 62.6439 12.1141 16.3195 3 5.76e-18 -4.12244
9847 1 42.8616 10.0951 47.7929 3 1.0507e-16 -4.12244
9848 1 45.3344 10.0951 47.7929 3 1.0507e-16 -4.12244
9849 1 44.5101 10.0951 45.4616 3 2.01948e-28 -4.12244
9850 1 46.9829 10.0951 45.4616 3 3.99999e-16 -4.12244
9851 1 46.1586 10.0951 43.1302 3 9.99999e-17 -4.12244
9852 1 48.6314 10.0951 43.1302 3 9.99999e-17 -4.12244
9853 1 47.8072 10.0951 40.7989 3 3.99999e-16 -4.12244
9854 1 50.2799 10.0951 40.7989 3 8.07794e-28 -4.12244
9855 1 49.4557 10.0951 38.4675 3 9.99999e-17 -4.12244
9856 1 51.9285 10.0951 38.4675 3 1e-16 -4.12244
9857 1 51.1042 10.0951 36.1361 3 9.99999e-17 -4.12244
9858 1 53.577 10.0951 36.1361 3 3.99999e-16 -4.12244
9859 1 52.7527 10.0951 33.8048 3 4.00001e-16 -4.12244
9860 1 55.2255 10.0951 33.8048 3 1e-16 -4.12244
9861 1 54.4012 10.0951 31.4734 3 1e-16 -4.12244
9862 1 56.874 10.0951 31.4734 3 5.04871e-29 -4.12244
9863 1 56.0498 10.0951 29.142 3 1.51461e-28 -4.12244
9864 1 58.5226 10.0951 29.142 3 9.99999e-17 -4.12244
9865 1 57.6983 10.0951 26.8107 3 1e-16 -4.12244
9866 1 60.1711 10.0951 26.8107 3 3.99999e-16 -4.12244
9867 1 59.3468 10.0951 24.4793 3 3.99999e-16 -4.12244
9868 1 61.8196 10.0951 24.4793 3 5.77599e-17 -4.12244
9869 1 60.9953 10.0951 22.1479 3 9.99999e-17 -4.12244
9870 1 63.4681 10.0951 22.1479 3 2.304e-17 -4.12244
9871 1 62.6439 10.0951 19.8166 3 5.76e-18 -4.12244
9872 1 46.1586 8.07608 46.6273 3 1.0169e-16 -4.12244
9873 1 48.6314 8.07608 46.6273 3 1.0169e-16 -4.12244
9874 1 47.8072 8.07608 44.2959 3 3.99999e-16 -4.12244
9875 1 50.2799 8.07608 44.2959 3 2.01948e-28 -4.12244
9876 1 49.4557 8.07608 41.9645 3 9.99999e-17 -4.12244
9877 1 51.9285 8.07608 41.9645 3 1e-16 -4.12244
9878 1 51.1042 8.07608 39.6332 3 9.99999e-17 -4.12244
9879 1 53.577 8.07608 39.6332 3 3.99999e-16 -4.12244
9880 1 52.7527 8.07608 37.3018 3 4.00001e-16 -4.12244
9881 1 55.2255 8.07608 37.3018 3 1e-16 -4.12244
9882 1 54.4012 8.07608 34.9704 3 1e-16 -4.12244
9883 1 56.874 8.07608 34.9704 3 2.01948e-28 -4.12244
9884 1 56.0498 8.07608 32.6391 3 2.01948e-28 -4.12244
9885 1 58.5226 8.07608 32.6391 3 9.99999e-17 -4.12244
9886 1 57.6983 8.07608 30.3077 3 1e-16 -4.12244
9887 1 60.1711 8.07608 30.3077 3 3.99999e-16 -4.12244
9888 1 59.3468 8.07608 27.9764 3 3.99999e-16 -4.12244
9889 1 61.8196 8.07608 27.9764 3 5.77599e-17 -4.12244
9890 1 60.9953 8.07608 25.645 3 9.99999e-17 -4.12244
9891 1 63.4681 8.07608 25.645 3 2.304e-17 -4.12244
9892 1 62.6439 8.07608 23.3136 3 5.76e-18 -4.12244
9893 1 47.8072 6.05706 47.7929 3 4.05069e-16 -4.12244
9894 1 50.2799 6.05706 47.7929 3 5.06996e-18 -4.12244
9895 1 49.4557 6.05706 45.4616 3 9.99999e-17 -4.12244
9896 1 51.9285 6.05706 45.4616 3 1e-16 -4.12244
9897 1 51.1042 6.05706 43.1302 3 9.99999e-17 -4.12244
9898 1 53.577 6.05706 43.1302 3 3.99999e-16 -4.12244
9899 1 52.7527 6.05706 40.7989 3 4.00001e-16 -4.12244
9900 1 55.2255 6.05706 40.7989 3 1e-16 -4.12244
9901 1 54.4012 6.05706 38.4675 3 1e-16 -4.12244
9902 1 56.874 6.05706 38.4675 3 0 -4.12244
9903 1 56.0498 6.05706 36.1361 3 6.05845e-28 -4.12244
9904 1 58.5226 6.05706 36.1361 3 9.99999e-17 -4.12244
9905 1 57.6983 6.05706 33.8048 3 1e-16 -4.12244
9906 1 60.1711 6.05706 33.8048 3 3.99999e-16 -4.12244
9907 1 59.3468 6.05706 31.4734 3 3.99999e-16 -4.12244
9908 1 61.8196 6.05706 31.4734 3 5.77599e-17 -4.12244
9909 1 60.9953 6.05706 29.142 3 9.99999e-17 -4.12244
9910 1 63.4681 6.05706 29.142 3 2.304e-17 -4.12244
9911 1 62.6439 6.05706 26.8107 3 5.76e-18 -4.12244
9912 1 51.1042 4.03804 46.6273 3 1.0169e-16 -4.12244
9913 1 53.577 4.03804 46.6273 3 4.0169e-16 -4.12244
9914 1 52.7527 4.03804 44.2959 3 4.00001e-16 -4.12244
9915 1 55.2255 4.03804 44.2959 3 1e-16 -4.12244
9916 1 54.4012 4.03804 41.9645 3 1e-16 -4.12244
9917 1 56.874 4.03804 41.9645 3 0 -4.12244
9918 1 56.0498 4.03804 39.6332 3 0 -4.12244
9919 1 58.5226 4.03804 39.6332 3 9.99999e-17 -4.12244
9920 1 57.6983 4.03804 37.3018 3 1e-16 -4.12244
9921 1 60.1711 4.03804 37.3018 3 3.99999e-16 -4.12244
9922 1 59.3468 4.03804 34.9704 3 3.99999e-16 -4.12244
9923 1 61.8196 4.03804 34.9704 3 5.77599e-17 -4.12244
9924 1 60.9953 4.03804 32.6391 3 9.99999e-17 -4.12244
9925 1 63.4681 4.03804 32.6391 3 2.304e-17 -4.12244
9926 1 62.6439 4.03804 30.3077 3 5.76e-18 -4.12244
9927 1 52.7527 2.01902 47.7929 3 4.05071e-16 -4.10627
9928 1 55.2255 2.01902 47.7929 3 1.0507e-16 -4.10627
9929 1 54.4012 2.01902 45.4616 3 1e-16 -4.10627
9930 1 56.874 2.01902 45.4616 3 0 -4.10627
9931 1 56.0498 2.01902 43.1302 3 6.05845e-28 -4.10627
9932 1 58.5226 2.01902 43.1302 3 9.99999e-17 -4.10627
9933 1 57.6983 2.01902 40.7989 3 1e-16 -4.10627
9934 1 60.1711 2.01902 40.7989 3 3.99999e-16 -4.10627
9935 1 59.3468 2.01902 38.4675 3 3.99999e-16 -4.10627
9936 1 61.8196 2.01902 38.4675 3 5.77599e-17 -4.10627
9937 1 60.9953 2.01902 36.1361 3 9.99999e-17 -4.10627
9938 1 63.4681 2.01902 36.1361 3 2.304e-17 -4.10627
9939 1 62.6439 2.01902 33.8048 3 5.76e-18 -4.10627
9940 1 56.0498 0 46.6273 5 12.2293 -3.54465
9941 1 58.5226 -0 46.6273 5 12.2293 -3.54465
9942 1 57.6983 0 44.2959 5 12.2293 -3.54465
9943 1 60.1711 -0 44.2959 5 12.2293 -3.54465
9944 1 59.3468 0 41.9645 5 12.2293 -3.54465
9945 1 61.8196 -0 41.9645 5 12.2293 -3.54465
9946 1 60.9953 0 39.6332 5 12.2293 -3.54465
9947 1 63.4681 -0 39.6332 5 12.2293 -3.54465
9948 1 62.6439 0 37.3018 5 12.2293 -3.54465
9949 1 0.824261 62.5896 26.8107 5 12.2293 -3.54465
9950 1 0 62.5896 24.4793 5 12.2293 -3.54465
9951 1 2.47278 62.5896 24.4793 5 12.2293 -3.54465
9952 1 1.64852 62.5896 22.1479 5 12.2293 -3.54465
9953 1 4.12131 62.5896 22.1479 5 12.2293 -3.54465
9954 1 3.29705 62.5896 19.8166 5 12.2293 -3.54465
9955 1 5.76983 62.5896 19.8166 5 12.2293 -3.54465
9956 1 4.94557 62.5896 17.4852 5 12.2293 -3.54465
9957 1 7.41835 62.5896 17.4852 5 12.2293 -3.54465
9958 1 6.59409 62.5896 15.1539 5 12.2293 -3.54465
9959 1 9.06687 62.5896 15.1539 5 12.2293 -3.54465
9960 1 8.24261 62.5896 12.8225 5 12.2293 -3.54465
9961 1 10.7154 62.5896 12.8225 5 12.2293 -3.54465
9962 1 9.89114 62.5896 10.4911 5 12.2293 -3.54465
9963 1 12.3639 62.5896 10.4911 5 12.2293 -3.54465
9964 1 11.5397 62.5896 8.15977 5 12.2293 -3.54465
9965 1 14.0124 62.5896 8.15977 5 12.2293 -3.54465
9966 1 13.1882 62.5896 5.82841 5 12.2293 -3.54465
9967 1 15.661 62.5896 5.82841 5 12.2293 -3.54465
9968 1 14.8367 62.5896 3.49704 5 12.2293 -3.54465
9969 1 17.3095 62.5896 3.49704 5 12.2293 -3.54465
9970 1 16.4852 62.5896 1.16568 5 12.2293 -3.54465
9971 1 18.958 62.5896 1.16568 5 12.2293 -3.54465
9972 1 0.824261 60.5706 30.3077 3 5.776e-17 -4.10627
9973 1 0 60.5706 27.9764 3 2.304e-17 -4.10627
9974 1 2.47278 60.5706 27.9764 3 4e-16 -4.10627
9975 1 1.64852 60.5706 25.645 3 5.776e-17 -4.10627
9976 1 4.12131 60.5706 25.645 3 1e-16 -4.10627
9977 1 3.29705 60.5706 23.3136 3 4e-16 -4.10627
9978 1 5.76983 60.5706 23.3136 3 4.03897e-28 -4.10627
9979 1 4.94557 60.5706 20.9823 3 1e-16 -4.10627
9980 1 7.41835 60.5706 20.9823 3 1e-16 -4.10627
9981 1 6.59409 60.5706 18.6509 3 4.03897e-28 -4.10627
9982 1 9.06687 60.5706 18.6509 3 4e-16 -4.10627
9983 1 8.24261 60.5706 16.3195 3 9.99999e-17 -4.10627
9984 1 10.7154 60.5706 16.3195 3 1e-16 -4.10627
9985 1 9.89114 60.5706 13.9882 3 4e-16 -4.10627
9986 1 12.3639 60.5706 13.9882 3 4.2914e-28 -4.10627
9987 1 11.5397 60.5706 11.6568 3 1e-16 -4.10627
9988 1 14.0124 60.5706 11.6568 3 1e-16 -4.10627
9989 1 13.1882 60.5706 9.32545 3 4.03897e-28 -4.10627
9990 1 15.661 60.5706 9.32545 3 4e-16 -4.10627
9991 1 14.8367 60.5706 6.99409 3 9.99999e-17 -4.10627
9992 1 17.3095 60.5706 6.99409 3 1e-16 -4.10627
9993 1 16.4852 60.5706 4.66273 3 4e-16 -4.10627
9994 1 18.958 60.5706 4.66273 3 6.05845e-28 -4.10627
9995 1 18.1337 60.5706 2.33136 3 1e-16 -4.10627
9996 1 20.6065 60.5706 2.33136 3 1e-16 -4.10627
9997 1 19.7823 60.5706 0 3 1.0507e-16 -4.10627
9998 1 22.2551 60.5706 0 3 4.0507e-16 -4.10627
9999 1 0.824261 58.5516 33.8048 3 5.776e-17 -4.12244
10000 1 0 58.5516 31.4734 3 2.304e-17 -4.12244
10001 1 2.47278 58.5516 31.4734 3 4e-16 -4.12244
10002 1 1.64852 58.5516 29.142 3 5.776e-17 -4.12244
10003 1 4.12131 58.5516 29.142 3 1e-16 -4.12244
10004 1 3.29705 58.5516 26.8107 3 4e-16 -4.12244
10005 1 5.76983 58.5516 26.8107 3 0 -4.12244
10006 1 4.94557 58.5516 24.4793 3 1e-16 -4.12244
10007 1 7.41835 58.5516 24.4793 3 1e-16 -4.12244
10008 1 6.59409 58.5516 22.1479 3 0 -4.12244
10009 1 9.06687 58.5516 22.1479 3 4e-16 -4.12244
10010 1 8.24261 58.5516 19.8166 3 9.99999e-17 -4.12244
10011 1 10.7154 58.5516 19.8166 3 1e-16 -4.12244
10012 1 9.89114 58.5516 17.4852 3 4e-16 -4.12244
10013 1 12.3639 58.5516 17.4852 3 1.00974e-28 -4.12244
10014 1 11.5397 58.5516 15.1539 3 1e-16 -4.12244
10015 1 14.0124 58.5516 15.1539 3 1e-16 -4.12244
10016 1 13.1882 58.5516 12.8225 3 3.78653e-29 -4.12244
10017 1 15.661 58.5516 12.8225 3 4e-16 -4.12244
10018 1 14.8367 58.5516 10.4911 3 9.99999e-17 -4.12244
10019 1 17.3095 58.5516 10.4911 3 1e-16 -4.12244
10020 1 16.4852 58.5516 8.15977 3 4e-16 -4.12244
10021 1 18.958 58.5516 8.15977 3 2.1457e-28 -4.12244
10022 1 18.1337 58.5516 5.82841 3 1e-16 -4.12244
10023 1 20.6065 58.5516 5.82841 3 1e-16 -4.12244
10024 1 19.7823 58.5516 3.49704 3 1e-16 -4.12244
10025 1 22.2551 58.5516 3.49704 3 4e-16 -4.12244
10026 1 21.4308 58.5516 1.16568 3 4.0169e-16 -4.12244
10027 1 23.9036 58.5516 1.16568 3 1.0169e-16 -4.12244
10028 1 0.824261 56.5326 37.3018 3 5.776e-17 -4.12244
10029 1 0 56.5326 34.9704 3 2.304e-17 -4.12244
10030 1 2.47278 56.5326 34.9704 3 4e-16 -4.12244
10031 1 1.64852 56.5326 32.6391 3 5.776e-17 -4.12244
10032 1 4.12131 56.5326 32.6391 3 1e-16 -4.12244
10033 1 3.29705 56.5326 30.3077 3 4e-16 -4.12244
10034 1 5.76983 56.5326 30.3077 3 0 -4.12244
10035 1 4.94557 56.5326 27.9764 3 1e-16 -4.12244
10036 1 7.41835 56.5326 27.9764 3 1e-16 -4.12244
10037 1 6.59409 56.5326 25.645 3 1.51461e-28 -4.12244
10038 1 9.06687 56.5326 25.645 3 4e-16 -4.12244
10039 1 8.24261 56.5326 23.3136 3 9.99999e-17 -4.12244
10040 1 10.7154 56.5326 23.3136 3 1e-16 -4.12244
10041 1 9.89114 56.5326 20.9823 3 4e-16 -4.12244
10042 1 12.3639 56.5326 20.9823 3 0 -4.12244
10043 1 11.5397 56.5326 18.6509 3 1e-16 -4.12244
10044 1 14.0124 56.5326 18.6509 3 1e-16 -4.12244
10045 1 13.1882 56.5326 16.3195 3 1.00974e-28 -4.12244
10046 1 15.661 56.5326 16.3195 3 4e-16 -4.12244
10047 1 14.8367 56.5326 13.9882 3 9.99999e-17 -4.12244
10048 1 17.3095 56.5326 13.9882 3 1e-16 -4.12244
10049 1 16.4852 56.5326 11.6568 3 4e-16 -4.12244
10050 1 18.958 56.5326 11.6568 3 2.01948e-28 -4.12244
10051 1 18.1337 56.5326 9.32545 3 1e-16 -4.12244
10052 1 20.6065 56.5326 9.32545 3 1e-16 -4.12244
10053 1 19.7823 56.5326 6.99409 3 1e-16 -4.12244
10054 1 22.2551 56.5326 6.99409 3 4e-16 -4.12244
10055 1 21.4308 56.5326 4.66273 3 4e-16 -4.12244
10056 1 23.9036 56.5326 4.66273 3 1e-16 -4.12244
10057 1 23.0793 56.5326 2.33136 3 1e-16 -4.12244
10058 1 25.5521 56.5326 2.33136 3 1.51461e-28 -4.12244
10059 1 24.7278 56.5326 0 3 5.07001e-18 -4.12244
10060 1 27.2006 56.5326 0 3 1.0507e-16 -4.12244
10061 1 0.824261 54.5135 40.7989 3 5.776e-17 -4.12244
10062 1 0 54.5135 38.4675 3 2.304e-17 -4.12244
10063 1 2.47278 54.5135 38.4675 3 4e-16 -4.12244
10064 1 1.64852 54.5135 36.1361 3 5.776e-17 -4.12244
10065 1 4.12131 54.5135 36.1361 3 1e-16 -4.12244
10066 1 3.29705 54.5135 33.8048 3 4e-16 -4.12244
10067 1 5.76983 54.5135 33.8048 3 0 -4.12244
10068 1 4.94557 54.5135 31.4734 3 1e-16 -4.12244
10069 1 7.41835 54.5135 31.4734 3 1e-16 -4.12244
10070 1 6.59409 54.5135 29.142 3 1.51461e-28 -4.12244
10071 1 9.06687 54.5135 29.142 3 4e-16 -4.12244
10072 1 8.24261 54.5135 26.8107 3 9.99999e-17 -4.12244
10073 1 10.7154 54.5135 26.8107 3 1e-16 -4.12244
10074 1 9.89114 54.5135 24.4793 3 4e-16 -4.12244
10075 1 12.3639 54.5135 24.4793 3 1.00974e-28 -4.12244
10076 1 11.5397 54.5135 22.1479 3 1e-16 -4.12244
10077 1 14.0124 54.5135 22.1479 3 1e-16 -4.12244
10078 1 13.1882 54.5135 19.8166 3 0 -4.12244
10079 1 15.661 54.5135 19.8166 3 4e-16 -4.12244
10080 1 14.8367 54.5135 17.4852 3 9.99999e-17 -4.12244
10081 1 17.3095 54.5135 17.4852 3 1e-16 -4.12244
10082 1 16.4852 54.5135 15.1539 3 4e-16 -4.12244
10083 1 18.958 54.5135 15.1539 3 2.01948e-28 -4.12244
10084 1 18.1337 54.5135 12.8225 3 1e-16 -4.12244
10085 1 20.6065 54.5135 12.8225 3 1e-16 -4.12244
10086 1 19.7823 54.5135 10.4911 3 1e-16 -4.12244
10087 1 22.2551 54.5135 10.4911 3 4e-16 -4.12244
10088 1 21.4308 54.5135 8.15977 3 4e-16 -4.12244
10089 1 23.9036 54.5135 8.15977 3 1e-16 -4.12244
10090 1 23.0793 54.5135 5.82841 3 1e-16 -4.12244
10091 1 25.5521 54.5135 5.82841 3 1.54617e-28 -4.12244
10092 1 24.7278 54.5135 3.49704 3 7.88861e-31 -4.12244
10093 1 27.2006 54.5135 3.49704 3 1e-16 -4.12244
10094 1 26.3764 54.5135 1.16568 3 1.0169e-16 -4.12244
10095 1 28.8491 54.5135 1.16568 3 4.0169e-16 -4.12244
10096 1 0.824261 52.4945 44.2959 3 5.776e-17 -4.12244
10097 1 0 52.4945 41.9645 3 2.304e-17 -4.12244
10098 1 2.47278 52.4945 41.9645 3 4e-16 -4.12244
10099 1 1.64852 52.4945 39.6332 3 5.776e-17 -4.12244
10100 1 4.12131 52.4945 39.6332 3 1e-16 -4.12244
10101 1 3.29705 52.4945 37.3018 3 4e-16 -4.12244
10102 1 5.76983 52.4945 37.3018 3 0 -4.12244
10103 1 4.94557 52.4945 34.9704 3 1e-16 -4.12244
10104 1 7.41835 52.4945 34.9704 3 1e-16 -4.12244
10105 1 6.59409 52.4945 32.6391 3 2.01948e-28 -4.12244
10106 1 9.06687 52.4945 32.6391 3 4e-16 -4.12244
10107 1 8.24261 52.4945 30.3077 3 9.99999e-17 -4.12244
10108 1 10.7154 52.4945 30.3077 3 1e-16 -4.12244
10109 1 9.89114 52.4945 27.9764 3 4e-16 -4.12244
10110 1 12.3639 52.4945 27.9764 3 1.51461e-28 -4.12244
10111 1 11.5397 52.4945 25.645 3 1e-16 -4.12244
10112 1 14.0124 52.4945 25.645 3 1e-16 -4.12244
10113 1 13.1882 52.4945 23.3136 3 0 -4.12244
10114 1 15.661 52.4945 23.3136 3 4e-16 -4.12244
10115 1 14.8367 52.4945 20.9823 3 9.99999e-17 -4.12244
10116 1 17.3095 52.4945 20.9823 3 1e-16 -4.12244
10117 1 16.4852 52.4945 18.6509 3 4e-16 -4.12244
10118 1 18.958 52.4945 18.6509 3 2.01948e-28 -4.12244
10119 1 18.1337 52.4945 16.3195 3 1e-16 -4.12244
10120 1 20.6065 52.4945 16.3195 3 1e-16 -4.12244
10121 1 19.7823 52.4945 13.9882 3 1e-16 -4.12244
10122 1 22.2551 52.4945 13.9882 3 4e-16 -4.12244
10123 1 21.4308 52.4945 11.6568 3 4e-16 -4.12244
10124 1 23.9036 52.4945 11.6568 3 1e-16 -4.12244
10125 1 23.0793 52.4945 9.32545 3 1e-16 -4.12244
10126 1 25.5521 52.4945 9.32545 3 1.51461e-28 -4.12244
10127 1 24.7278 52.4945 6.99409 3 0 -4.12244
10128 1 27.2006 52.4945 6.99409 3 1e-16 -4.12244
10129 1 26.3764 52.4945 4.66273 3 1e-16 -4.12244
10130 1 28.8491 52.4945 4.66273 3 4e-16 -4.12244
10131 1 28.0249 52.4945 2.33136 3 3.99999e-16 -4.12244
10132 1 30.4977 52.4945 2.33136 3 9.99999e-17 -4.12244
10133 1 29.6734 52.4945 0 3 1.0507e-16 -4.12244
10134 1 32.1462 52.4945 0 3 1.0507e-16 -4.12244
10135 1 0.824261 50.4755 47.7929 3 6.28299e-17 -4.12244
10136 1 0 50.4755 45.4616 3 2.304e-17 -4.12244
10137 1 2.47278 50.4755 45.4616 3 4e-16 -4.12244
10138 1 1.64852 50.4755 43.1302 3 5.776e-17 -4.12244
10139 1 4.12131 50.4755 43.1302 3 1e-16 -4.12244
10140 1 3.29705 50.4755 40.7989 3 4e-16 -4.12244
10141 1 5.76983 50.4755 40.7989 3 6.05845e-28 -4.12244
10142 1 4.94557 50.4755 38.4675 3 1e-16 -4.12244
10143 1 7.41835 50.4755 38.4675 3 1e-16 -4.12244
10144 1 6.59409 50.4755 36.1361 3 6.05845e-28 -4.12244
10145 1 9.06687 50.4755 36.1361 3 4e-16 -4.12244
10146 1 8.24261 50.4755 33.8048 3 9.99999e-17 -4.12244
10147 1 10.7154 50.4755 33.8048 3 1e-16 -4.12244
10148 1 9.89114 50.4755 31.4734 3 4e-16 -4.12244
10149 1 12.3639 50.4755 31.4734 3 5.04871e-29 -4.12244
10150 1 11.5397 50.4755 29.142 3 1e-16 -4.12244
10151 1 14.0124 50.4755 29.142 3 1e-16 -4.12244
10152 1 13.1882 50.4755 26.8107 3 0 -4.12244
10153 1 15.661 50.4755 26.8107 3 4e-16 -4.12244
10154 1 14.8367 50.4755 24.4793 3 9.99999e-17 -4.12244
10155 1 17.3095 50.4755 24.4793 3 1e-16 -4.12244
10156 1 16.4852 50.4755 22.1479 3 4e-16 -4.12244
10157 1 18.958 50.4755 22.1479 3 2.01948e-28 -4.12244
10158 1 18.1337 50.4755 19.8166 3 1e-16 -4.12244
10159 1 20.6065 50.4755 19.8166 3 1e-16 -4.12244
10160 1 19.7823 50.4755 17.4852 3 1e-16 -4.12244
10161 1 22.2551 50.4755 17.4852 3 4e-16 -4.12244
10162 1 21.4308 50.4755 15.1539 3 4e-16 -4.12244
10163 1 23.9036 50.4755 15.1539 3 1e-16 -4.12244
10164 1 23.0793 50.4755 12.8225 3 1e-16 -4.12244
10165 1 25.5521 50.4755 12.8225 3 1.89327e-28 -4.12244
10166 1 24.7278 50.4755 10.4911 3 0 -4.12244
10167 1 27.2006 50.4755 10.4911 3 1e-16 -4.12244
10168 1 26.3764 50.4755 8.15977 3 1e-16 -4.12244
10169 1 28.8491 50.4755 8.15977 3 4e-16 -4.12244
10170 1 28.0249 50.4755 5.82841 3 3.99999e-16 -4.12244
10171 1 30.4977 50.4755 5.82841 3 9.99999e-17 -4.12244
10172 1 29.6734 50.4755 3.49704 3 1e-16 -4.12244
10173 1 32.1462 50.4755 3.49704 3 9.99999e-17 -4.12244
10174 1 31.3219 50.4755 1.16568 3 1.69e-18 -4.12244
10175 1 33.7947 50.4755 1.16568 3 4.01691e-16 -4.12244
10176 1 1.64852 48.4565 46.6273 3 5.945e-17 -4.12244
10177 1 4.12131 48.4565 46.6273 3 1.0169e-16 -4.12244
10178 1 3.29705 48.4565 44.2959 3 4e-16 -4.12244
10179 1 5.76983 48.4565 44.2959 3 0 -4.12244
10180 1 4.94557 48.4565 41.9645 3 1e-16 -4.12244
10181 1 7.41835 48.4565 41.9645 3 1e-16 -4.12244
10182 1 6.59409 48.4565 39.6332 3 0 -4.12244
10183 1 9.06687 48.4565 39.6332 3 4e-16 -4.12244
10184 1 8.24261 48.4565 37.3018 3 9.99999e-17 -4.12244
10185 1 10.7154 48.4565 37.3018 3 1e-16 -4.12244
10186 1 9.89114 48.4565 34.9704 3 4e-16 -4.12244
10187 1 12.3639 48.4565 34.9704 3 2.01948e-28 -4.12244
10188 1 11.5397 48.4565 32.6391 3 1e-16 -4.12244
10189 1 14.0124 48.4565 32.6391 3 1e-16 -4.12244
10190 1 13.1882 48.4565 30.3077 3 0 -4.12244
10191 1 15.661 48.4565 30.3077 3 4e-16 -4.12244
10192 1 14.8367 48.4565 27.9764 3 9.99999e-17 -4.12244
10193 1 17.3095 48.4565 27.9764 3 1e-16 -4.12244
10194 1 16.4852 48.4565 25.645 3 4e-16 -4.12244
10195 1 18.958 48.4565 25.645 3 3.5341e-28 -4.12244
10196 1 18.1337 48.4565 23.3136 3 1e-16 -4.12244
10197 1 20.6065 48.4565 23.3136 3 1e-16 -4.12244
10198 1 19.7823 48.4565 20.9823 3 1e-16 -4.12244
10199 1 22.2551 48.4565 20.9823 3 4e-16 -4.12244
10200 1 21.4308 48.4565 18.6509 3 4e-16 -4.12244
10201 1 23.9036 48.4565 18.6509 3 1e-16 -4.12244
10202 1 23.0793 48.4565 16.3195 3 1e-16 -4.12244
10203 1 25.5521 48.4565 16.3195 3 2.52435e-28 -4.12244
10204 1 24.7278 48.4565 13.9882 3 2.52435e-29 -4.12244
10205 1 27.2006 48.4565 13.9882 3 1e-16 -4.12244
10206 1 26.3764 48.4565 11.6568 3 1e-16 -4.12244
10207 1 28.8491 48.4565 11.6568 3 4e-16 -4.12244
10208 1 28.0249 48.4565 9.32545 3 3.99999e-16 -4.12244
10209 1 30.4977 48.4565 9.32545 3 9.99999e-17 -4.12244
10210 1 29.6734 48.4565 6.99409 3 1e-16 -4.12244
10211 1 32.1462 48.4565 6.99409 3 9.99999e-17 -4.12244
10212 1 31.3219 48.4565 4.66273 3 0 -4.12244
10213 1 33.7947 48.4565 4.66273 3 4.00001e-16 -4.12244
10214 1 32.9705 48.4565 2.33136 3 9.99999e-17 -4.12244
10215 1 35.4432 48.4565 2.33136 3 1e-16 -4.12244
10216 1 34.619 48.4565 0 3 4.0507e-16 -4.12244
10217 1 37.0918 48.4565 0 3 5.07001e-18 -4.12244
10218 1 3.29705 46.4375 47.7929 3 4.0507e-16 -4.12244
10219 1 5.76983 46.4375 47.7929 3 5.06996e-18 -4.12244
10220 1 4.94557 46.4375 45.4616 3 1e-16 -4.12244
10221 1 7.41835 46.4375 45.4616 3 1e-16 -4.12244
10222 1 6.59409 46.4375 43.1302 3 6.05845e-28 -4.12244
10223 1 9.06687 46.4375 43.1302 3 4e-16 -4.12244
10224 1 8.24261 46.4375 40.7989 3 9.99999e-17 -4.12244
10225 1 10.7154 46.4375 40.7989 3 1e-16 -4.12244
10226 1 9.89114 46.4375 38.4675 3 4e-16 -4.12244
10227 1 12.3639 46.4375 38.4675 3 0 -4.12244
10228 1 11.5397 46.4375 36.1361 3 1e-16 -4.12244
10229 1 14.0124 46.4375 36.1361 3 1e-16 -4.12244
10230 1 13.1882 46.4375 33.8048 3 0 -4.12244
10231 1 15.661 46.4375 33.8048 3 4e-16 -4.12244
10232 1 14.8367 46.4375 31.4734 3 9.99999e-17 -4.12244
10233 1 17.3095 46.4375 31.4734 3 1e-16 -4.12244
10234 1 16.4852 46.4375 29.142 3 4e-16 -4.12244
10235 1 18.958 46.4375 29.142 3 3.5341e-28 -4.12244
10236 1 18.1337 46.4375 26.8107 3 1e-16 -4.12244
10237 1 20.6065 46.4375 26.8107 3 1e-16 -4.12244
10238 1 19.7823 46.4375 24.4793 3 1e-16 -4.12244
10239 1 22.2551 46.4375 24.4793 3 4e-16 -4.12244
10240 1 21.4308 46.4375 22.1479 3 4e-16 -4.12244
10241 1 23.9036 46.4375 22.1479 3 1e-16 -4.12244
10242 1 23.0793 46.4375 19.8166 3 1e-16 -4.12244
10243 1 25.5521 46.4375 19.8166 3 1.51461e-28 -4.12244
10244 1 24.7278 46.4375 17.4852 3 1.00974e-28 -4.12244
10245 1 27.2006 46.4375 17.4852 3 1e-16 -4.12244
10246 1 26.3764 46.4375 15.1539 3 1e-16 -4.12244
10247 1 28.8491 46.4375 15.1539 3 4e-16 -4.12244
10248 1 28.0249 46.4375 12.8225 3 3.99999e-16 -4.12244
10249 1 30.4977 46.4375 12.8225 3 9.99999e-17 -4.12244
10250 1 29.6734 46.4375 10.4911 3 1e-16 -4.12244
10251 1 32.1462 46.4375 10.4911 3 9.99999e-17 -4.12244
10252 1 31.3219 46.4375 8.15977 3 1.26218e-29 -4.12244
10253 1 33.7947 46.4375 8.15977 3 4.00001e-16 -4.12244
10254 1 32.9705 46.4375 5.82841 3 9.99999e-17 -4.12244
10255 1 35.4432 46.4375 5.82841 3 1e-16 -4.12244
10256 1 34.619 46.4375 3.49704 3 4e-16 -4.12244
10257 1 37.0918 46.4375 3.49704 3 7.88861e-31 -4.12244
10258 1 36.2675 46.4375 1.16568 3 1.0169e-16 -4.12244
10259 1 38.7403 46.4375 1.16568 3 1.0169e-16 -4.12244
10260 1 6.59409 44.4184 46.6273 3 1.69002e-18 -4.12244
10261 1 9.06687 44.4184 46.6273 3 4.0169e-16 -4.12244
10262 1 8.24261 44.4184 44.2959 3 9.99999e-17 -4.12244
10263 1 10.7154 44.4184 44.2959 3 1e-16 -4.12244
10264 1 9.89114 44.4184 41.9645 3 4e-16 -4.12244
10265 1 12.3639 44.4184 41.9645 3 0 -4.12244
10266 1 11.5397 44.4184 39.6332 3 1e-16 -4.12244
10267 1 14.0124 44.4184 39.6332 3 1e-16 -4.12244
10268 1 13.1882 44.4184 37.3018 3 0 -4.12244
10269 1 15.661 44.4184 37.3018 3 4e-16 -4.12244
10270 1 14.8367 44.4184 34.9704 3 9.99999e-17 -4.12244
10271 1 17.3095 44.4184 34.9704 3 1e-16 -4.12244
10272 1 16.4852 44.4184 32.6391 3 4e-16 -4.12244
10273 1 18.958 44.4184 32.6391 3 4.03897e-28 -4.12244
10274 1 18.1337 44.4184 30.3077 3 1e-16 -4.12244
10275 1 20.6065 44.4184 30.3077 3 1e-16 -4.12244
10276 1 19.7823 44.4184 27.9764 3 1e-16 -4.12244
10277 1 22.2551 44.4184 27.9764 3 4e-16 -4.12244
10278 1 21.4308 44.4184 25.645 3 4e-16 -4.12244
10279 1 23.9036 44.4184 25.645 3 1e-16 -4.12244
10280 1 23.0793 44.4184 23.3136 3 1e-16 -4.12244
10281 1 25.5521 44.4184 23.3136 3 1.51461e-28 -4.12244
10282 1 24.7278 44.4184 20.9823 3 0 -4.12244
10283 1 27.2006 44.4184 20.9823 3 1e-16 -4.12244
10284 1 26.3764 44.4184 18.6509 3 1e-16 -4.12244
10285 1 28.8491 44.4184 18.6509 3 4e-16 -4.12244
10286 1 28.0249 44.4184 16.3195 3 3.99999e-16 -4.12244
10287 1 30.4977 44.4184 16.3195 3 9.99999e-17 -4.12244
10288 1 29.6734 44.4184 13.9882 3 1e-16 -4.12244
10289 1 32.1462 44.4184 13.9882 3 9.99999e-17 -4.12244
10290 1 31.3219 44.4184 11.6568 3 0 -4.12244
10291 1 33.7947 44.4184 11.6568 3 4.00001e-16 -4.12244
10292 1 32.9705 44.4184 9.32545 3 9.99999e-17 -4.12244
10293 1 35.4432 44.4184 9.32545 3 1e-16 -4.12244
10294 1 34.619 44.4184 6.99409 3 4e-16 -4.12244
10295 1 37.0918 44.4184 6.99409 3 0 -4.12244
10296 1 36.2675 44.4184 4.66273 3 1e-16 -4.12244
10297 1 38.7403 44.4184 4.66273 3 1e-16 -4.12244
10298 1 37.916 44.4184 2.33136 3 8.07794e-28 -4.12244
10299 1 40.3888 44.4184 2.33136 3 3.99999e-16 -4.12244
10300 1 39.5645 44.4184 0 3 1.0507e-16 -4.12244
10301 1 42.0373 44.4184 0 3 1.0507e-16 -4.12244
10302 1 8.24261 42.3994 47.7929 3 1.0507e-16 -4.12244
10303 1 10.7154 42.3994 47.7929 3 1.0507e-16 -4.12244
10304 1 9.89114 42.3994 45.4616 3 4e-16 -4.12244
10305 1 12.3639 42.3994 45.4616 3 0 -4.12244
10306 1 11.5397 42.3994 43.1302 3 1e-16 -4.12244
10307 1 14.0124 42.3994 43.1302 3 1e-16 -4.12244
10308 1 13.1882 42.3994 40.7989 3 6.05845e-28 -4.12244
10309 1 15.661 42.3994 40.7989 3 4e-16 -4.12244
10310 1 14.8367 42.3994 38.4675 3 9.99999e-17 -4.12244
10311 1 17.3095 42.3994 38.4675 3 1e-16 -4.12244
10312 1 16.4852 42.3994 36.1361 3 4e-16 -4.12244
10313 1 18.958 42.3994 36.1361 3 8.07794e-28 -4.12244
10314 1 18.1337 42.3994 33.8048 3 1e-16 -4.12244
10315 1 20.6065 42.3994 33.8048 3 1e-16 -4.12244
10316 1 19.7823 42.3994 31.4734 3 1e-16 -4.12244
10317 1 22.2551 42.3994 31.4734 3 4e-16 -4.12244
10318 1 21.4308 42.3994 29.142 3 4e-16 -4.12244
10319 1 23.9036 42.3994 29.142 3 1e-16 -4.12244
10320 1 23.0793 42.3994 26.8107 3 1e-16 -4.12244
10321 1 25.5521 42.3994 26.8107 3 1.51461e-28 -4.12244
10322 1 24.7278 42.3994 24.4793 3 1.00974e-28 -4.12244
10323 1 27.2006 42.3994 24.4793 3 1e-16 -4.12244
10324 1 26.3764 42.3994 22.1479 3 1e-16 -4.12244
10325 1 28.8491 42.3994 22.1479 3 4e-16 -4.12244
10326 1 28.0249 42.3994 19.8166 3 3.99999e-16 -4.12244
10327 1 30.4977 42.3994 19.8166 3 9.99999e-17 -4.12244
10328 1 29.6734 42.3994 17.4852 3 1e-16 -4.12244
10329 1 32.1462 42.3994 17.4852 3 9.99999e-17 -4.12244
10330 1 31.3219 42.3994 15.1539 3 0 -4.12244
10331 1 33.7947 42.3994 15.1539 3 4.00001e-16 -4.12244
10332 1 32.9705 42.3994 12.8225 3 9.99999e-17 -4.12244
10333 1 35.4432 42.3994 12.8225 3 1e-16 -4.12244
10334 1 34.619 42.3994 10.4911 3 4e-16 -4.12244
10335 1 37.0918 42.3994 10.4911 3 0 -4.12244
10336 1 36.2675 42.3994 8.15977 3 1e-16 -4.12244
10337 1 38.7403 42.3994 8.15977 3 1e-16 -4.12244
10338 1 37.916 42.3994 5.82841 3 8.10949e-28 -4.12244
10339 1 40.3888 42.3994 5.82841 3 3.99999e-16 -4.12244
10340 1 39.5645 42.3994 3.49704 3 1e-16 -4.12244
10341 1 42.0373 42.3994 3.49704 3 1e-16 -4.12244
10342 1 41.2131 42.3994 1.16568 3 4.01691e-16 -4.12244
10343 1 43.6859 42.3994 1.16568 3 1.69e-18 -4.12244
10344 1 11.5397 40.3804 46.6273 3 1.0169e-16 -4.12244
10345 1 14.0124 40.3804 46.6273 3 1.0169e-16 -4.12244
10346 1 13.1882 40.3804 44.2959 3 0 -4.12244
10347 1 15.661 40.3804 44.2959 3 4e-16 -4.12244
10348 1 14.8367 40.3804 41.9645 3 9.99999e-17 -4.12244
10349 1 17.3095 40.3804 41.9645 3 1e-16 -4.12244
10350 1 16.4852 40.3804 39.6332 3 4e-16 -4.12244
10351 1 18.958 40.3804 39.6332 3 2.01948e-28 -4.12244
10352 1 18.1337 40.3804 37.3018 3 1e-16 -4.12244
10353 1 20.6065 40.3804 37.3018 3 1e-16 -4.12244
10354 1 19.7823 40.3804 34.9704 3 1e-16 -4.12244
10355 1 22.2551 40.3804 34.9704 3 4e-16 -4.12244
10356 1 21.4308 40.3804 32.6391 3 4e-16 -4.12244
10357 1 23.9036 40.3804 32.6391 3 1e-16 -4.12244
10358 1 23.0793 40.3804 30.3077 3 1e-16 -4.12244
10359 1 25.5521 40.3804 30.3077 3 1.51461e-28 -4.12244
10360 1 24.7278 40.3804 27.9764 3 1.51461e-28 -4.12244
10361 1 27.2006 40.3804 27.9764 3 1e-16 -4.12244
10362 1 26.3764 40.3804 25.645 3 1e-16 -4.12244
10363 1 28.8491 40.3804 25.645 3 4e-16 -4.12244
10364 1 28.0249 40.3804 23.3136 3 3.99999e-16 -4.12244
10365 1 30.4977 40.3804 23.3136 3 9.99999e-17 -4.12244
10366 1 29.6734 40.3804 20.9823 3 1e-16 -4.12244
10367 1 32.1462 40.3804 20.9823 3 9.99999e-17 -4.12244
10368 1 31.3219 40.3804 18.6509 3 0 -4.12244
10369 1 33.7947 40.3804 18.6509 3 4.00001e-16 -4.12244
10370 1 32.9705 40.3804 16.3195 3 9.99999e-17 -4.12244
10371 1 35.4432 40.3804 16.3195 3 1e-16 -4.12244
10372 1 34.619 40.3804 13.9882 3 4e-16 -4.12244
10373 1 37.0918 40.3804 13.9882 3 2.52435e-29 -4.12244
10374 1 36.2675 40.3804 11.6568 3 1e-16 -4.12244
10375 1 38.7403 40.3804 11.6568 3 1e-16 -4.12244
10376 1 37.916 40.3804 9.32545 3 8.07794e-28 -4.12244
10377 1 40.3888 40.3804 9.32545 3 3.99999e-16 -4.12244
10378 1 39.5645 40.3804 6.99409 3 1e-16 -4.12244
10379 1 42.0373 40.3804 6.99409 3 1e-16 -4.12244
10380 1 41.2131 40.3804 4.66273 3 4.00001e-16 -4.12244
10381 1 43.6859 40.3804 4.66273 3 2.01948e-28 -4.12244
10382 1 42.8616 40.3804 2.33136 3 9.99999e-17 -4.12244
10383 1 45.3344 40.3804 2.33136 3 9.99999e-17 -4.12244
10384 1 44.5101 40.3804 0 3 5.07001e-18 -4.12244
10385 1 46.9829 40.3804 0 3 4.0507e-16 -4.12244
10386 1 13.1882 38.3614 47.7929 3 5.06996e-18 -4.12244
10387 1 15.661 38.3614 47.7929 3 4.0507e-16 -4.12244
10388 1 14.8367 38.3614 45.4616 3 9.99999e-17 -4.12244
10389 1 17.3095 38.3614 45.4616 3 1e-16 -4.12244
10390 1 16.4852 38.3614 43.1302 3 4e-16 -4.12244
10391 1 18.958 38.3614 43.1302 3 8.07794e-28 -4.12244
10392 1 18.1337 38.3614 40.7989 3 1e-16 -4.12244
10393 1 20.6065 38.3614 40.7989 3 1e-16 -4.12244
10394 1 19.7823 38.3614 38.4675 3 1e-16 -4.12244
10395 1 22.2551 38.3614 38.4675 3 4e-16 -4.12244
10396 1 21.4308 38.3614 36.1361 3 4e-16 -4.12244
10397 1 23.9036 38.3614 36.1361 3 1e-16 -4.12244
10398 1 23.0793 38.3614 33.8048 3 1e-16 -4.12244
10399 1 25.5521 38.3614 33.8048 3 1.51461e-28 -4.12244
10400 1 24.7278 38.3614 31.4734 3 5.04871e-29 -4.12244
10401 1 27.2006 38.3614 31.4734 3 1e-16 -4.12244
10402 1 26.3764 38.3614 29.142 3 1e-16 -4.12244
10403 1 28.8491 38.3614 29.142 3 4e-16 -4.12244
10404 1 28.0249 38.3614 26.8107 3 3.99999e-16 -4.12244
10405 1 30.4977 38.3614 26.8107 3 9.99999e-17 -4.12244
10406 1 29.6734 38.3614 24.4793 3 1e-16 -4.12244
10407 1 32.1462 38.3614 24.4793 3 9.99999e-17 -4.12244
10408 1 31.3219 38.3614 22.1479 3 0 -4.12244
10409 1 33.7947 38.3614 22.1479 3 4.00001e-16 -4.12244
10410 1 32.9705 38.3614 19.8166 3 9.99999e-17 -4.12244
10411 1 35.4432 38.3614 19.8166 3 1e-16 -4.12244
10412 1 34.619 38.3614 17.4852 3 4e-16 -4.12244
10413 1 37.0918 38.3614 17.4852 3 1.00974e-28 -4.12244
10414 1 36.2675 38.3614 15.1539 3 1e-16 -4.12244
10415 1 38.7403 38.3614 15.1539 3 1e-16 -4.12244
10416 1 37.916 38.3614 12.8225 3 8.45659e-28 -4.12244
10417 1 40.3888 38.3614 12.8225 3 3.99999e-16 -4.12244
10418 1 39.5645 38.3614 10.4911 3 1e-16 -4.12244
10419 1 42.0373 38.3614 10.4911 3 1e-16 -4.12244
10420 1 41.2131 38.3614 8.15977 3 4.00001e-16 -4.12244
10421 1 43.6859 38.3614 8.15977 3 2.1457e-28 -4.12244
10422 1 42.8616 38.3614 5.82841 3 9.99999e-17 -4.12244
10423 1 45.3344 38.3614 5.82841 3 9.99999e-17 -4.12244
10424 1 44.5101 38.3614 3.49704 3 2.02737e-28 -4.12244
10425 1 46.9829 38.3614 3.49704 3 3.99999e-16 -4.12244
10426 1 46.1586 38.3614 1.16568 3 1.0169e-16 -4.12244
10427 1 48.6314 38.3614 1.16568 3 1.0169e-16 -4.12244
10428 1 16.4852 36.3424 46.6273 3 4.0169e-16 -4.12244
10429 1 18.958 36.3424 46.6273 3 1.69002e-18 -4.12244
10430 1 18.1337 36.3424 44.2959 3 1e-16 -4.12244
10431 1 20.6065 36.3424 44.2959 3 1e-16 -4.12244
10432 1 19.7823 36.3424 41.9645 3 1e-16 -4.12244
10433 1 22.2551 36.3424 41.9645 3 4e-16 -4.12244
10434 1 21.4308 36.3424 39.6332 3 4e-16 -4.12244
10435 1 23.9036 36.3424 39.6332 3 1e-16 -4.12244
10436 1 23.0793 36.3424 37.3018 3 1e-16 -4.12244
10437 1 25.5521 36.3424 37.3018 3 1.51461e-28 -4.12244
10438 1 24.7278 36.3424 34.9704 3 2.01948e-28 -4.12244
10439 1 27.2006 36.3424 34.9704 3 1e-16 -4.12244
10440 1 26.3764 36.3424 32.6391 3 1e-16 -4.12244
10441 1 28.8491 36.3424 32.6391 3 4e-16 -4.12244
10442 1 28.0249 36.3424 30.3077 3 3.99999e-16 -4.12244
10443 1 30.4977 36.3424 30.3077 3 9.99999e-17 -4.12244
10444 1 29.6734 36.3424 27.9764 3 1e-16 -4.12244
10445 1 32.1462 36.3424 27.9764 3 9.99999e-17 -4.12244
10446 1 31.3219 36.3424 25.645 3 1.51461e-28 -4.12244
10447 1 33.7947 36.3424 25.645 3 4.00001e-16 -4.12244
10448 1 32.9705 36.3424 23.3136 3 9.99999e-17 -4.12244
10449 1 35.4432 36.3424 23.3136 3 1e-16 -4.12244
10450 1 34.619 36.3424 20.9823 3 4e-16 -4.12244
10451 1 37.0918 36.3424 20.9823 3 0 -4.12244
10452 1 36.2675 36.3424 18.6509 3 1e-16 -4.12244
10453 1 38.7403 36.3424 18.6509 3 1e-16 -4.12244
10454 1 37.916 36.3424 16.3195 3 9.08768e-28 -4.12244
10455 1 40.3888 36.3424 16.3195 3 3.99999e-16 -4.12244
10456 1 39.5645 36.3424 13.9882 3 1e-16 -4.12244
10457 1 42.0373 36.3424 13.9882 3 1e-16 -4.12244
10458 1 41.2131 36.3424 11.6568 3 4.00001e-16 -4.12244
10459 1 43.6859 36.3424 11.6568 3 2.01948e-28 -4.12244
10460 1 42.8616 36.3424 9.32545 3 9.99999e-17 -4.12244
10461 1 45.3344 36.3424 9.32545 3 9.99999e-17 -4.12244
10462 1 44.5101 36.3424 6.99409 3 2.01948e-28 -4.12244
10463 1 46.9829 36.3424 6.99409 3 3.99999e-16 -4.12244
10464 1 46.1586 36.3424 4.66273 3 9.99999e-17 -4.12244
10465 1 48.6314 36.3424 4.66273 3 9.99999e-17 -4.12244
10466 1 47.8072 36.3424 2.33136 3 3.99999e-16 -4.12244
10467 1 50.2799 36.3424 2.33136 3 2.01948e-28 -4.12244
10468 1 49.4557 36.3424 0 3 1.0507e-16 -4.12244
10469 1 51.9285 36.3424 0 3 1.0507e-16 -4.12244
10470 1 18.1337 34.3233 47.7929 3 1.0507e-16 -4.12244
10471 1 20.6065 34.3233 47.7929 3 1.0507e-16 -4.12244
10472 1 19.7823 34.3233 45.4616 3 1e-16 -4.12244
10473 1 22.2551 34.3233 45.4616 3 4e-16 -4.12244
10474 1 21.4308 34.3233 43.1302 3 4e-16 -4.12244
10475 1 23.9036 34.3233 43.1302 3 1e-16 -4.12244
10476 1 23.0793 34.3233 40.7989 3 1e-16 -4.12244
10477 1 25.5521 34.3233 40.7989 3 7.57306e-28 -4.12244
10478 1 24.7278 34.3233 38.4675 3 0 -4.12244
10479 1 27.2006 34.3233 38.4675 3 1e-16 -4.12244
10480 1 26.3764 34.3233 36.1361 3 1e-16 -4.12244
10481 1 28.8491 34.3233 36.1361 3 4e-16 -4.12244
10482 1 28.0249 34.3233 33.8048 3 3.99999e-16 -4.12244
10483 1 30.4977 34.3233 33.8048 3 9.99999e-17 -4.12244
10484 1 29.6734 34.3233 31.4734 3 1e-16 -4.12244
10485 1 32.1462 34.3233 31.4734 3 9.99999e-17 -4.12244
10486 1 31.3219 34.3233 29.142 3 1.51461e-28 -4.12244
10487 1 33.7947 34.3233 29.142 3 4.00001e-16 -4.12244
10488 1 32.9705 34.3233 26.8107 3 9.99999e-17 -4.12244
10489 1 35.4432 34.3233 26.8107 3 1e-16 -4.12244
10490 1 34.619 34.3233 24.4793 3 4e-16 -4.12244
10491 1 37.0918 34.3233 24.4793 3 1.00974e-28 -4.12244
10492 1 36.2675 34.3233 22.1479 3 1e-16 -4.12244
10493 1 38.7403 34.3233 22.1479 3 1e-16 -4.12244
10494 1 37.916 34.3233 19.8166 3 8.07794e-28 -4.12244
10495 1 40.3888 34.3233 19.8166 3 3.99999e-16 -4.12244
10496 1 39.5645 34.3233 17.4852 3 1e-16 -4.12244
10497 1 42.0373 34.3233 17.4852 3 1e-16 -4.12244
10498 1 41.2131 34.3233 15.1539 3 4.00001e-16 -4.12244
10499 1 43.6859 34.3233 15.1539 3 2.01948e-28 -4.12244
10500 1 42.8616 34.3233 12.8225 3 9.99999e-17 -4.12244
10501 1 45.3344 34.3233 12.8225 3 9.99999e-17 -4.12244
10502 1 44.5101 34.3233 10.4911 3 2.01948e-28 -4.12244
10503 1 46.9829 34.3233 10.4911 3 3.99999e-16 -4.12244
10504 1 46.1586 34.3233 8.15977 3 9.99999e-17 -4.12244
10505 1 48.6314 34.3233 8.15977 3 9.99999e-17 -4.12244
10506 1 47.8072 34.3233 5.82841 3 3.99999e-16 -4.12244
10507 1 50.2799 34.3233 5.82841 3 2.05104e-28 -4.12244
10508 1 49.4557 34.3233 3.49704 3 9.99999e-17 -4.12244
10509 1 51.9285 34.3233 3.49704 3 1e-16 -4.12244
10510 1 51.1042 34.3233 1.16568 3 1.0169e-16 -4.12244
10511 1 53.577 34.3233 1.16568 3 4.01689e-16 -4.12244
10512 1 21.4308 32.3043 46.6273 3 4.01691e-16 -4.12244
10513 1 23.9036 32.3043 46.6273 3 1.0169e-16 -4.12244
10514 1 23.0793 32.3043 44.2959 3 1e-16 -4.12244
10515 1 25.5521 32.3043 44.2959 3 1.51461e-28 -4.12244
10516 1 24.7278 32.3043 41.9645 3 0 -4.12244
10517 1 27.2006 32.3043 41.9645 3 1e-16 -4.12244
10518 1 26.3764 32.3043 39.6332 3 1e-16 -4.12244
10519 1 28.8491 32.3043 39.6332 3 4e-16 -4.12244
10520 1 28.0249 32.3043 37.3018 3 3.99999e-16 -4.12244
10521 1 30.4977 32.3043 37.3018 3 9.99999e-17 -4.12244
10522 1 29.6734 32.3043 34.9704 3 1e-16 -4.12244
10523 1 32.1462 32.3043 34.9704 3 9.99999e-17 -4.12244
10524 1 31.3219 32.3043 32.6391 3 2.01948e-28 -4.12244
10525 1 33.7947 32.3043 32.6391 3 4.00001e-16 -4.12244
10526 1 32.9705 32.3043 30.3077 3 9.99999e-17 -4.12244
10527 1 35.4432 32.3043 30.3077 3 1e-16 -4.12244
10528 1 34.619 32.3043 27.9764 3 4e-16 -4.12244
10529 1 37.0918 32.3043 27.9764 3 1.51461e-28 -4.12244
10530 1 36.2675 32.3043 25.645 3 1e-16 -4.12244
10531 1 38.7403 32.3043 25.645 3 1e-16 -4.12244
10532 1 37.916 32.3043 23.3136 3 8.07794e-28 -4.12244
10533 1 40.3888 32.3043 23.3136 3 3.99999e-16 -4.12244
10534 1 39.5645 32.3043 20.9823 3 1e-16 -4.12244
10535 1 42.0373 32.3043 20.9823 3 1e-16 -4.12244
10536 1 41.2131 32.3043 18.6509 3 4.00001e-16 -4.12244
10537 1 43.6859 32.3043 18.6509 3 2.01948e-28 -4.12244
10538 1 42.8616 32.3043 16.3195 3 9.99999e-17 -4.12244
10539 1 45.3344 32.3043 16.3195 3 9.99999e-17 -4.12244
10540 1 44.5101 32.3043 13.9882 3 2.27192e-28 -4.12244
10541 1 46.9829 32.3043 13.9882 3 3.99999e-16 -4.12244
10542 1 46.1586 32.3043 11.6568 3 9.99999e-17 -4.12244
10543 1 48.6314 32.3043 11.6568 3 9.99999e-17 -4.12244
10544 1 47.8072 32.3043 9.32545 3 3.99999e-16 -4.12244
10545 1 50.2799 32.3043 9.32545 3 2.01948e-28 -4.12244
10546 1 49.4557 32.3043 6.99409 3 9.99999e-17 -4.12244
10547 1 51.9285 32.3043 6.99409 3 1e-16 -4.12244
10548 1 51.1042 32.3043 4.66273 3 9.99999e-17 -4.12244
10549 1 53.577 32.3043 4.66273 3 3.99999e-16 -4.12244
10550 1 52.7527 32.3043 2.33136 3 4.00001e-16 -4.12244
10551 1 55.2255 32.3043 2.33136 3 1e-16 -4.12244
10552 1 54.4012 32.3043 0 3 1.0507e-16 -4.12244
10553 1 56.874 32.3043 0 3 5.07001e-18 -4.12244
10554 1 23.0793 30.2853 47.7929 3 1.0507e-16 -4.12244
10555 1 25.5521 30.2853 47.7929 3 5.06996e-18 -4.12244
10556 1 24.7278 30.2853 45.4616 3 1.00974e-28 -4.12244
10557 1 27.2006 30.2853 45.4616 3 1e-16 -4.12244
10558 1 26.3764 30.2853 43.1302 3 1e-16 -4.12244
10559 1 28.8491 30.2853 43.1302 3 4e-16 -4.12244
10560 1 28.0249 30.2853 40.7989 3 3.99999e-16 -4.12244
10561 1 30.4977 30.2853 40.7989 3 9.99999e-17 -4.12244
10562 1 29.6734 30.2853 38.4675 3 1e-16 -4.12244
10563 1 32.1462 30.2853 38.4675 3 9.99999e-17 -4.12244
10564 1 31.3219 30.2853 36.1361 3 7.06819e-28 -4.12244
10565 1 33.7947 30.2853 36.1361 3 4.00001e-16 -4.12244
10566 1 32.9705 30.2853 33.8048 3 9.99999e-17 -4.12244
10567 1 35.4432 30.2853 33.8048 3 1e-16 -4.12244
10568 1 34.619 30.2853 31.4734 3 4e-16 -4.12244
10569 1 37.0918 30.2853 31.4734 3 1.51461e-28 -4.12244
10570 1 36.2675 30.2853 29.142 3 1e-16 -4.12244
10571 1 38.7403 30.2853 29.142 3 1e-16 -4.12244
10572 1 37.916 30.2853 26.8107 3 9.08768e-28 -4.12244
10573 1 40.3888 30.2853 26.8107 3 3.99999e-16 -4.12244
10574 1 39.5645 30.2853 24.4793 3 1e-16 -4.12244
10575 1 42.0373 30.2853 24.4793 3 1e-16 -4.12244
10576 1 41.2131 30.2853 22.1479 3 4.00001e-16 -4.12244
10577 1 43.6859 30.2853 22.1479 3 3.02923e-28 -4.12244
10578 1 42.8616 30.2853 19.8166 3 9.99999e-17 -4.12244
10579 1 45.3344 30.2853 19.8166 3 9.99999e-17 -4.12244
10580 1 44.5101 30.2853 17.4852 3 4.03897e-28 -4.12244
10581 1 46.9829 30.2853 17.4852 3 3.99999e-16 -4.12244
10582 1 46.1586 30.2853 15.1539 3 9.99999e-17 -4.12244
10583 1 48.6314 30.2853 15.1539 3 9.99999e-17 -4.12244
10584 1 47.8072 30.2853 12.8225 3 3.99999e-16 -4.12244
10585 1 50.2799 30.2853 12.8225 3 3.40788e-28 -4.12244
10586 1 49.4557 30.2853 10.4911 3 9.99999e-17 -4.12244
10587 1 51.9285 30.2853 10.4911 3 1e-16 -4.12244
10588 1 51.1042 30.2853 8.15977 3 9.99999e-17 -4.12244
10589 1 53.577 30.2853 8.15977 3 3.99999e-16 -4.12244
10590 1 52.7527 30.2853 5.82841 3 4.00001e-16 -4.12244
10591 1 55.2255 30.2853 5.82841 3 1e-16 -4.12244
10592 1 54.4012 30.2853 3.49704 3 1e-16 -4.12244
10593 1 56.874 30.2853 3.49704 3 1.01763e-28 -4.12244
10594 1 56.0498 30.2853 1.16568 3 1.69e-18 -4.12244
10595 1 58.5226 30.2853 1.16568 3 1.0169e-16 -4.12244
10596 1 26.3764 28.2663 46.6273 3 1.0169e-16 -4.12244
10597 1 28.8491 28.2663 46.6273 3 4.0169e-16 -4.12244
10598 1 28.0249 28.2663 44.2959 3 3.99999e-16 -4.12244
10599 1 30.4977 28.2663 44.2959 3 9.99999e-17 -4.12244
10600 1 29.6734 28.2663 41.9645 3 1e-16 -4.12244
10601 1 32.1462 28.2663 41.9645 3 9.99999e-17 -4.12244
10602 1 31.3219 28.2663 39.6332 3 0 -4.12244
10603 1 33.7947 28.2663 39.6332 3 4.00001e-16 -4.12244
10604 1 32.9705 28.2663 37.3018 3 9.99999e-17 -4.12244
10605 1 35.4432 28.2663 37.3018 3 1e-16 -4.12244
10606 1 34.619 28.2663 34.9704 3 4e-16 -4.12244
10607 1 37.0918 28.2663 34.9704 3 2.01948e-28 -4.12244
10608 1 36.2675 28.2663 32.6391 3 1e-16 -4.12244
10609 1 38.7403 28.2663 32.6391 3 1e-16 -4.12244
10610 1 37.916 28.2663 30.3077 3 8.07794e-28 -4.12244
10611 1 40.3888 28.2663 30.3077 3 3.99999e-16 -4.12244
10612 1 39.5645 28.2663 27.9764 3 1e-16 -4.12244
10613 1 42.0373 28.2663 27.9764 3 1e-16 -4.12244
10614 1 41.2131 28.2663 25.645 3 4.00001e-16 -4.12244
10615 1 43.6859 28.2663 25.645 3 3.5341e-28 -4.12244
10616 1 42.8616 28.2663 23.3136 3 9.99999e-17 -4.12244
10617 1 45.3344 28.2663 23.3136 3 9.99999e-17 -4.12244
10618 1 44.5101 28.2663 20.9823 3 2.01948e-28 -4.12244
10619 1 46.9829 28.2663 20.9823 3 3.99999e-16 -4.12244
10620 1 46.1586 28.2663 18.6509 3 9.99999e-17 -4.12244
10621 1 48.6314 28.2663 18.6509 3 9.99999e-17 -4.12244
10622 1 47.8072 28.2663 16.3195 3 3.99999e-16 -4.12244
10623 1 50.2799 28.2663 16.3195 3 3.02923e-28 -4.12244
10624 1 49.4557 28.2663 13.9882 3 9.99999e-17 -4.12244
10625 1 51.9285 28.2663 13.9882 3 1e-16 -4.12244
10626 1 51.1042 28.2663 11.6568 3 9.99999e-17 -4.12244
10627 1 53.577 28.2663 11.6568 3 3.99999e-16 -4.12244
10628 1 52.7527 28.2663 9.32545 3 4.00001e-16 -4.12244
10629 1 55.2255 28.2663 9.32545 3 1e-16 -4.12244
10630 1 54.4012 28.2663 6.99409 3 1e-16 -4.12244
10631 1 56.874 28.2663 6.99409 3 0 -4.12244
10632 1 56.0498 28.2663 4.66273 3 0 -4.12244
10633 1 58.5226 28.2663 4.66273 3 9.99999e-17 -4.12244
10634 1 57.6983 28.2663 2.33136 3 1e-16 -4.12244
10635 1 60.1711 28.2663 2.33136 3 3.99999e-16 -4.12244
10636 1 59.3468 28.2663 0 3 4.0507e-16 -4.12244
10637 1 61.8196 28.2663 0 3 6.28299e-17 -4.12244
10638 1 28.0249 26.2473 47.7929 3 4.05069e-16 -4.12244
10639 1 30.4977 26.2473 47.7929 3 1.0507e-16 -4.12244
10640 1 29.6734 26.2473 45.4616 3 1e-16 -4.12244
10641 1 32.1462 26.2473 45.4616 3 9.99999e-17 -4.12244
10642 1 31.3219 26.2473 43.1302 3 7.06819e-28 -4.12244
10643 1 33.7947 26.2473 43.1302 3 4.00001e-16 -4.12244
10644 1 32.9705 26.2473 40.7989 3 9.99999e-17 -4.12244
10645 1 35.4432 26.2473 40.7989 3 1e-16 -4.12244
10646 1 34.619 26.2473 38.4675 3 4e-16 -4.12244
10647 1 37.0918 26.2473 38.4675 3 1.00974e-28 -4.12244
10648 1 36.2675 26.2473 36.1361 3 1e-16 -4.12244
10649 1 38.7403 26.2473 36.1361 3 1e-16 -4.12244
10650 1 37.916 26.2473 33.8048 3 9.08768e-28 -4.12244
10651 1 40.3888 26.2473 33.8048 3 3.99999e-16 -4.12244
10652 1 39.5645 26.2473 31.4734 3 1e-16 -4.12244
10653 1 42.0373 26.2473 31.4734 3 1e-16 -4.12244
10654 1 41.2131 26.2473 29.142 3 4.00001e-16 -4.12244
10655 1 43.6859 26.2473 29.142 3 4.54384e-28 -4.12244
10656 1 42.8616 26.2473 26.8107 3 9.99999e-17 -4.12244
10657 1 45.3344 26.2473 26.8107 3 9.99999e-17 -4.12244
10658 1 44.5101 26.2473 24.4793 3 4.03897e-28 -4.12244
10659 1 46.9829 26.2473 24.4793 3 3.99999e-16 -4.12244
10660 1 46.1586 26.2473 22.1479 3 9.99999e-17 -4.12244
10661 1 48.6314 26.2473 22.1479 3 9.99999e-17 -4.12244
10662 1 47.8072 26.2473 19.8166 3 3.99999e-16 -4.12244
10663 1 50.2799 26.2473 19.8166 3 3.02923e-28 -4.12244
10664 1 49.4557 26.2473 17.4852 3 9.99999e-17 -4.12244
10665 1 51.9285 26.2473 17.4852 3 1e-16 -4.12244
10666 1 51.1042 26.2473 15.1539 3 9.99999e-17 -4.12244
10667 1 53.577 26.2473 15.1539 3 3.99999e-16 -4.12244
10668 1 52.7527 26.2473 12.8225 3 4.00001e-16 -4.12244
10669 1 55.2255 26.2473 12.8225 3 1e-16 -4.12244
10670 1 54.4012 26.2473 10.4911 3 1e-16 -4.12244
10671 1 56.874 26.2473 10.4911 3 1.00974e-28 -4.12244
10672 1 56.0498 26.2473 8.15977 3 1.13596e-28 -4.12244
10673 1 58.5226 26.2473 8.15977 3 9.99999e-17 -4.12244
10674 1 57.6983 26.2473 5.82841 3 1e-16 -4.12244
10675 1 60.1711 26.2473 5.82841 3 3.99999e-16 -4.12244
10676 1 59.3468 26.2473 3.49704 3 3.99999e-16 -4.12244
10677 1 61.8196 26.2473 3.49704 3 5.77599e-17 -4.12244
10678 1 60.9953 26.2473 1.16568 3 1.0169e-16 -4.12244
10679 1 63.4681 26.2473 1.16568 3 2.473e-17 -4.12244
10680 1 31.3219 24.2282 46.6273 3 1.69002e-18 -4.12244
10681 1 33.7947 24.2282 46.6273 3 4.01691e-16 -4.12244
10682 1 32.9705 24.2282 44.2959 3 9.99999e-17 -4.12244
10683 1 35.4432 24.2282 44.2959 3 1e-16 -4.12244
10684 1 34.619 24.2282 41.9645 3 4e-16 -4.12244
10685 1 37.0918 24.2282 41.9645 3 0 -4.12244
10686 1 36.2675 24.2282 39.6332 3 1e-16 -4.12244
10687 1 38.7403 24.2282 39.6332 3 1e-16 -4.12244
10688 1 37.916 24.2282 37.3018 3 8.07794e-28 -4.12244
10689 1 40.3888 24.2282 37.3018 3 3.99999e-16 -4.12244
10690 1 39.5645 24.2282 34.9704 3 1e-16 -4.12244
10691 1 42.0373 24.2282 34.9704 3 1e-16 -4.12244
10692 1 41.2131 24.2282 32.6391 3 4.00001e-16 -4.12244
10693 1 43.6859 24.2282 32.6391 3 4.03897e-28 -4.12244
10694 1 42.8616 24.2282 30.3077 3 9.99999e-17 -4.12244
10695 1 45.3344 24.2282 30.3077 3 9.99999e-17 -4.12244
10696 1 44.5101 24.2282 27.9764 3 3.5341e-28 -4.12244
10697 1 46.9829 24.2282 27.9764 3 3.99999e-16 -4.12244
10698 1 46.1586 24.2282 25.645 3 9.99999e-17 -4.12244
10699 1 48.6314 24.2282 25.645 3 9.99999e-17 -4.12244
10700 1 47.8072 24.2282 23.3136 3 3.99999e-16 -4.12244
10701 1 50.2799 24.2282 23.3136 3 2.01948e-28 -4.12244
10702 1 49.4557 24.2282 20.9823 3 9.99999e-17 -4.12244
10703 1 51.9285 24.2282 20.9823 3 1e-16 -4.12244
10704 1 51.1042 24.2282 18.6509 3 9.99999e-17 -4.12244
10705 1 53.577 24.2282 18.6509 3 3.99999e-16 -4.12244
10706 1 52.7527 24.2282 16.3195 3 4.00001e-16 -4.12244
10707 1 55.2255 24.2282 16.3195 3 1e-16 -4.12244
10708 1 54.4012 24.2282 13.9882 3 1e-16 -4.12244
10709 1 56.874 24.2282 13.9882 3 2.52435e-29 -4.12244
10710 1 56.0498 24.2282 11.6568 3 0 -4.12244
10711 1 58.5226 24.2282 11.6568 3 9.99999e-17 -4.12244
10712 1 57.6983 24.2282 9.32545 3 1e-16 -4.12244
10713 1 60.1711 24.2282 9.32545 3 3.99999e-16 -4.12244
10714 1 59.3468 24.2282 6.99409 3 3.99999e-16 -4.12244
10715 1 61.8196 24.2282 6.99409 3 5.77599e-17 -4.12244
10716 1 60.9953 24.2282 4.66273 3 9.99999e-17 -4.12244
10717 1 63.4681 24.2282 4.66273 3 2.304e-17 -4.12244
10718 1 62.6439 24.2282 2.33136 3 5.76e-18 -4.12244
10719 1 32.9705 22.2092 47.7929 3 1.0507e-16 -4.12244
10720 1 35.4432 22.2092 47.7929 3 1.0507e-16 -4.12244
10721 1 34.619 22.2092 45.4616 3 4e-16 -4.12244
10722 1 37.0918 22.2092 45.4616 3 0 -4.12244
10723 1 36.2675 22.2092 43.1302 3 1e-16 -4.12244
10724 1 38.7403 22.2092 43.1302 3 1e-16 -4.12244
10725 1 37.916 22.2092 40.7989 3 1.41364e-27 -4.12244
10726 1 40.3888 22.2092 40.7989 3 3.99999e-16 -4.12244
10727 1 39.5645 22.2092 38.4675 3 1e-16 -4.12244
10728 1 42.0373 22.2092 38.4675 3 1e-16 -4.12244
10729 1 41.2131 22.2092 36.1361 3 4.00001e-16 -4.12244
10730 1 43.6859 22.2092 36.1361 3 8.07794e-28 -4.12244
10731 1 42.8616 22.2092 33.8048 3 9.99999e-17 -4.12244
10732 1 45.3344 22.2092 33.8048 3 9.99999e-17 -4.12244
10733 1 44.5101 22.2092 31.4734 3 2.52435e-28 -4.12244
10734 1 46.9829 22.2092 31.4734 3 3.99999e-16 -4.12244
10735 1 46.1586 22.2092 29.142 3 9.99999e-17 -4.12244
10736 1 48.6314 22.2092 29.142 3 9.99999e-17 -4.12244
10737 1 47.8072 22.2092 26.8107 3 3.99999e-16 -4.12244
10738 1 50.2799 22.2092 26.8107 3 2.01948e-28 -4.12244
10739 1 49.4557 22.2092 24.4793 3 9.99999e-17 -4.12244
10740 1 51.9285 22.2092 24.4793 3 1e-16 -4.12244
10741 1 51.1042 22.2092 22.1479 3 9.99999e-17 -4.12244
10742 1 53.577 22.2092 22.1479 3 3.99999e-16 -4.12244
10743 1 52.7527 22.2092 19.8166 3 4.00001e-16 -4.12244
10744 1 55.2255 22.2092 19.8166 3 1e-16 -4.12244
10745 1 54.4012 22.2092 17.4852 3 1e-16 -4.12244
10746 1 56.874 22.2092 17.4852 3 1.00974e-28 -4.12244
10747 1 56.0498 22.2092 15.1539 3 0 -4.12244
10748 1 58.5226 22.2092 15.1539 3 9.99999e-17 -4.12244
10749 1 57.6983 22.2092 12.8225 3 1e-16 -4.12244
10750 1 60.1711 22.2092 12.8225 3 3.99999e-16 -4.12244
10751 1 59.3468 22.2092 10.4911 3 3.99999e-16 -4.12244
10752 1 61.8196 22.2092 10.4911 3 5.77599e-17 -4.12244
10753 1 60.9953 22.2092 8.15977 3 9.99999e-17 -4.12244
10754 1 63.4681 22.2092 8.15977 3 2.304e-17 -4.12244
10755 1 62.6439 22.2092 5.82841 3 5.76e-18 -4.12244
10756 1 36.2675 20.1902 46.6273 3 1.0169e-16 -4.12244
10757 1 38.7403 20.1902 46.6273 3 1.0169e-16 -4.12244
10758 1 37.916 20.1902 44.2959 3 8.07794e-28 -4.12244
10759 1 40.3888 20.1902 44.2959 3 3.99999e-16 -4.12244
10760 1 39.5645 20.1902 41.9645 3 1e-16 -4.12244
10761 1 42.0373 20.1902 41.9645 3 1e-16 -4.12244
10762 1 41.2131 20.1902 39.6332 3 4.00001e-16 -4.12244
10763 1 43.6859 20.1902 39.6332 3 2.01948e-28 -4.12244
10764 1 42.8616 20.1902 37.3018 3 9.99999e-17 -4.12244
10765 1 45.3344 20.1902 37.3018 3 9.99999e-17 -4.12244
10766 1 44.5101 20.1902 34.9704 3 4.03897e-28 -4.12244
10767 1 46.9829 20.1902 34.9704 3 3.99999e-16 -4.12244
10768 1 46.1586 20.1902 32.6391 3 9.99999e-17 -4.12244
10769 1 48.6314 20.1902 32.6391 3 9.99999e-17 -4.12244
10770 1 47.8072 20.1902 30.3077 3 3.99999e-16 -4.12244
10771 1 50.2799 20.1902 30.3077 3 2.01948e-28 -4.12244
10772 1 49.4557 20.1902 27.9764 3 9.99999e-17 -4.12244
10773 1 51.9285 20.1902 27.9764 3 1e-16 -4.12244
10774 1 51.1042 20.1902 25.645 3 9.99999e-17 -4.12244
10775 1 53.577 20.1902 25.645 3 3.99999e-16 -4.12244
10776 1 52.7527 20.1902 23.3136 3 4.00001e-16 -4.12244
10777 1 55.2255 20.1902 23.3136 3 1e-16 -4.12244
10778 1 54.4012 20.1902 20.9823 3 1e-16 -4.12244
10779 1 56.874 20.1902 20.9823 3 0 -4.12244
10780 1 56.0498 20.1902 18.6509 3 0 -4.12244
10781 1 58.5226 20.1902 18.6509 3 9.99999e-17 -4.12244
10782 1 57.6983 20.1902 16.3195 3 1e-16 -4.12244
10783 1 60.1711 20.1902 16.3195 3 3.99999e-16 -4.12244
10784 1 59.3468 20.1902 13.9882 3 3.99999e-16 -4.12244
10785 1 61.8196 20.1902 13.9882 3 5.77599e-17 -4.12244
10786 1 60.9953 20.1902 11.6568 3 9.99999e-17 -4.12244
10787 1 63.4681 20.1902 11.6568 3 2.304e-17 -4.12244
10788 1 62.6439 20.1902 9.32545 3 5.76e-18 -4.12244
10789 1 37.916 18.1712 47.7929 3 5.06996e-18 -4.12244
10790 1 40.3888 18.1712 47.7929 3 4.05069e-16 -4.12244
10791 1 39.5645 18.1712 45.4616 3 1e-16 -4.12244
10792 1 42.0373 18.1712 45.4616 3 1e-16 -4.12244
10793 1 41.2131 18.1712 43.1302 3 4.00001e-16 -4.12244
10794 1 43.6859 18.1712 43.1302 3 9.08768e-28 -4.12244
10795 1 42.8616 18.1712 40.7989 3 9.99999e-17 -4.12244
10796 1 45.3344 18.1712 40.7989 3 9.99999e-17 -4.12244
10797 1 44.5101 18.1712 38.4675 3 3.02923e-28 -4.12244
10798 1 46.9829 18.1712 38.4675 3 3.99999e-16 -4.12244
10799 1 46.1586 18.1712 36.1361 3 9.99999e-17 -4.12244
10800 1 48.6314 18.1712 36.1361 3 9.99999e-17 -4.12244
10801 1 47.8072 18.1712 33.8048 3 3.99999e-16 -4.12244
10802 1 50.2799 18.1712 33.8048 3 3.02923e-28 -4.12244
10803 1 49.4557 18.1712 31.4734 3 9.99999e-17 -4.12244
10804 1 51.9285 18.1712 31.4734 3 1e-16 -4.12244
10805 1 51.1042 18.1712 29.142 3 9.99999e-17 -4.12244
10806 1 53.577 18.1712 29.142 3 3.99999e-16 -4.12244
10807 1 52.7527 18.1712 26.8107 3 4.00001e-16 -4.12244
10808 1 55.2255 18.1712 26.8107 3 1e-16 -4.12244
10809 1 54.4012 18.1712 24.4793 3 1e-16 -4.12244
10810 1 56.874 18.1712 24.4793 3 2.01948e-28 -4.12244
10811 1 56.0498 18.1712 22.1479 3 1.00974e-28 -4.12244
10812 1 58.5226 18.1712 22.1479 3 9.99999e-17 -4.12244
10813 1 57.6983 18.1712 19.8166 3 1e-16 -4.12244
10814 1 60.1711 18.1712 19.8166 3 3.99999e-16 -4.12244
10815 1 59.3468 18.1712 17.4852 3 3.99999e-16 -4.12244
10816 1 61.8196 18.1712 17.4852 3 5.77599e-17 -4.12244
10817 1 60.9953 18.1712 15.1539 3 9.99999e-17 -4.12244
10818 1 63.4681 18.1712 15.1539 3 2.304e-17 -4.12244
10819 1 62.6439 18.1712 12.8225 3 5.76e-18 -4.12244
10820 1 41.2131 16.1522 46.6273 3 4.01691e-16 -4.12244
10821 1 43.6859 16.1522 46.6273 3 1.69002e-18 -4.12244
10822 1 42.8616 16.1522 44.2959 3 9.99999e-17 -4.12244
10823 1 45.3344 16.1522 44.2959 3 9.99999e-17 -4.12244
10824 1 44.5101 16.1522 41.9645 3 2.01948e-28 -4.12244
10825 1 46.9829 16.1522 41.9645 3 3.99999e-16 -4.12244
10826 1 46.1586 16.1522 39.6332 3 9.99999e-17 -4.12244
10827 1 48.6314 16.1522 39.6332 3 9.99999e-17 -4.12244
10828 1 47.8072 16.1522 37.3018 3 3.99999e-16 -4.12244
10829 1 50.2799 16.1522 37.3018 3 2.01948e-28 -4.12244
10830 1 49.4557 16.1522 34.9704 3 9.99999e-17 -4.12244
10831 1 51.9285 16.1522 34.9704 3 1e-16 -4.12244
10832 1 51.1042 16.1522 32.6391 3 9.99999e-17 -4.12244
10833 1 53.577 16.1522 32.6391 3 3.99999e-16 -4.12244
10834 1 52.7527 16.1522 30.3077 3 4.00001e-16 -4.12244
10835 1 55.2255 16.1522 30.3077 3 1e-16 -4.12244
10836 1 54.4012 16.1522 27.9764 3 1e-16 -4.12244
10837 1 56.874 16.1522 27.9764 3 1.51461e-28 -4.12244
10838 1 56.0498 16.1522 25.645 3 1.51461e-28 -4.12244
10839 1 58.5226 16.1522 25.645 3 9.99999e-17 -4.12244
10840 1 57.6983 16.1522 23.3136 3 1e-16 -4.12244
10841 1 60.1711 16.1522 23.3136 3 3.99999e-16 -4.12244
10842 1 59.3468 16.1522 20.9823 3 3.99999e-16 -4.12244
10843 1 61.8196 16.1522 20.9823 3 5.77599e-17 -4.12244
10844 1 60.9953 16.1522 18.6509 3 9.99999e-17 -4.12244
10845 1 63.4681 16.1522 18.6509 3 2.304e-17 -4.12244
10846 1 62.6439 16.1522 16.3195 3 5.76e-18 -4.12244
10847 1 42.8616 14.1331 47.7929 3 1.0507e-16 -4.12244
10848 1 45.3344 14.1331 47.7929 3 1.0507e-16 -4.12244
10849 1 44.5101 14.1331 45.4616 3 2.01948e-28 -4.12244
10850 1 46.9829 14.1331 45.4616 3 3.99999e-16 -4.12244
10851 1 46.1586 14.1331 43.1302 3 9.99999e-17 -4.12244
10852 1 48.6314 14.1331 43.1302 3 9.99999e-17 -4.12244
10853 1 47.8072 14.1331 40.7989 3 3.99999e-16 -4.12244
10854 1 50.2799 14.1331 40.7989 3 8.07794e-28 -4.12244
10855 1 49.4557 14.1331 38.4675 3 9.99999e-17 -4.12244
10856 1 51.9285 14.1331 38.4675 3 1e-16 -4.12244
10857 1 51.1042 14.1331 36.1361 3 9.99999e-17 -4.12244
10858 1 53.577 14.1331 36.1361 3 3.99999e-16 -4.12244
10859 1 52.7527 14.1331 33.8048 3 4.00001e-16 -4.12244
10860 1 55.2255 14.1331 33.8048 3 1e-16 -4.12244
10861 1 54.4012 14.1331 31.4734 3 1e-16 -4.12244
10862 1 56.874 14.1331 31.4734 3 5.04871e-29 -4.12244
10863 1 56.0498 14.1331 29.142 3 1.51461e-28 -4.12244
10864 1 58.5226 14.1331 29.142 3 9.99999e-17 -4.12244
10865 1 57.6983 14.1331 26.8107 3 1e-16 -4.12244
10866 1 60.1711 14.1331 26.8107 3 3.99999e-16 -4.12244
10867 1 59.3468 14.1331 24.4793 3 3.99999e-16 -4.12244
10868 1 61.8196 14.1331 24.4793 3 5.77599e-17 -4.12244
10869 1 60.9953 14.1331 22.1479 3 9.99999e-17 -4.12244
10870 1 63.4681 14.1331 22.1479 3 2.304e-17 -4.12244
10871 1 62.6439 14.1331 19.8166 3 5.76e-18 -4.12244
10872 1 46.1586 12.1141 46.6273 3 1.0169e-16 -4.12244
10873 1 48.6314 12.1141 46.6273 3 1.0169e-16 -4.12244
10874 1 47.8072 12.1141 44.2959 3 3.99999e-16 -4.12244
10875 1 50.2799 12.1141 44.2959 3 2.01948e-28 -4.12244
10876 1 49.4557 12.1141 41.9645 3 9.99999e-17 -4.12244
10877 1 51.9285 12.1141 41.9645 3 1e-16 -4.12244
10878 1 51.1042 12.1141 39.6332 3 9.99999e-17 -4.12244
10879 1 53.577 12.1141 39.6332 3 3.99999e-16 -4.12244
10880 1 52.7527 12.1141 37.3018 3 4.00001e-16 -4.12244
10881 1 55.2255 12.1141 37.3018 3 1e-16 -4.12244
10882 1 54.4012 12.1141 34.9704 3 1e-16 -4.12244
10883 1 56.874 12.1141 34.9704 3 2.01948e-28 -4.12244
10884 1 56.0498 12.1141 32.6391 3 2.01948e-28 -4.12244
10885 1 58.5226 12.1141 32.6391 3 9.99999e-17 -4.12244
10886 1 57.6983 12.1141 30.3077 3 1e-16 -4.12244
10887 1 60.1711 12.1141 30.3077 3 3.99999e-16 -4.12244
10888 1 59.3468 12.1141 27.9764 3 3.99999e-16 -4.12244
10889 1 61.8196 12.1141 27.9764 3 5.77599e-17 -4.12244
10890 1 60.9953 12.1141 25.645 3 9.99999e-17 -4.12244
10891 1 63.4681 12.1141 25.645 3 2.304e-17 -4.12244
10892 1 62.6439 12.1141 23.3136 3 5.76e-18 -4.12244
10893 1 47.8072 10.0951 47.7929 3 4.05069e-16 -4.12244
10894 1 50.2799 10.0951 47.7929 3 5.06996e-18 -4.12244
10895 1 49.4557 10.0951 45.4616 3 9.99999e-17 -4.12244
10896 1 51.9285 10.0951 45.4616 3 1e-16 -4.12244
10897 1 51.1042 10.0951 43.1302 3 9.99999e-17 -4.12244
10898 1 53.577 10.0951 43.1302 3 3.99999e-16 -4.12244
10899 1 52.7527 10.0951 40.7989 3 4.00001e-16 -4.12244
10900 1 55.2255 10.0951 40.7989 3 1e-16 -4.12244
10901 1 54.4012 10.0951 38.4675 3 1e-16 -4.12244
10902 1 56.874 10.0951 38.4675 3 0 -4.12244
10903 1 56.0498 10.0951 36.1361 3 6.05845e-28 -4.12244
10904 1 58.5226 10.0951 36.1361 3 9.99999e-17 -4.12244
10905 1 57.6983 10.0951 33.8048 3 1e-16 -4.12244
10906 1 60.1711 10.0951 33.8048 3 3.99999e-16 -4.12244
10907 1 59.3468 10.0951 31.4734 3 3.99999e-16 -4.12244
10908 1 61.8196 10.0951 31.4734 3 5.77599e-17 -4.12244
10909 1 60.9953 10.0951 29.142 3 9.99999e-17 -4.12244
10910 1 63.4681 10.0951 29.142 3 2.304e-17 -4.12244
10911 1 62.6439 10.0951 26.8107 3 5.76e-18 -4.12244
10912 1 51.1042 8.07608 46.6273 3 1.0169e-16 -4.12244
10913 1 53.577 8.07608 46.6273 3 4.0169e-16 -4.12244
10914 1 52.7527 8.07608 44.2959 3 4.00001e-16 -4.12244
10915 1 55.2255 8.07608 44.2959 3 1e-16 -4.12244
10916 1 54.4012 8.07608 41.9645 3 1e-16 -4.12244
10917 1 56.874 8.07608 41.9645 3 0 -4.12244
10918 1 56.0498 8.07608 39.6332 3 0 -4.12244
10919 1 58.5226 8.07608 39.6332 3 9.99999e-17 -4.12244
10920 1 57.6983 8.07608 37.3018 3 1e-16 -4.12244
10921 1 60.1711 8.07608 37.3018 3 3.99999e-16 -4.12244
10922 1 59.3468 8.07608 34.9704 3 3.99999e-16 -4.12244
10923 1 61.8196 8.07608 34.9704 3 5.77599e-17 -4.12244
10924 1 60.9953 8.07608 32.6391 3 9.99999e-17 -4.12244
10925 1 63.4681 8.07608 32.6391 3 2.304e-17 -4.12244
10926 1 62.6439 8.07608 30.3077 3 5.76e-18 -4.12244
10927 1 52.7527 6.05706 47.7929 3 4.05071e-16 -4.12244
10928 1 55.2255 6.05706 47.7929 3 1.0507e-16 -4.12244
10929 1 54.4012 6.05706 45.4616 3 1e-16 -4.12244
10930 1 56.874 6.05706 45.4616 3 0 -4.12244
10931 1 56.0498 6.05706 43.1302 3 6.05845e-28 -4.12244
10932 1 58.5226 6.05706 43.1302 3 9.99999e-17 -4.12244
10933 1 57.6983 6.05706 40.7989 3 1e-16 -4.12244
10934 1 60.1711 6.05706 40.7989 3 3.99999e-16 -4.12244
10935 1 59.3468 6.05706 38.4675 3 3.99999e-16 -4.12244
10936 1 61.8196 6.05706 38.4675 3 5.77599e-17 -4.12244
10937 1 60.9953 6.05706 36.1361 3 9.99999e-17 -4.12244
10938 1 63.4681 6.05706 36.1361 3 2.304e-17 -4.12244
10939 1 62.6439 6.05706 33.8048 3 5.76e-18 -4.12244
10940 1 56.0498 4.03804 46.6273 3 1.69002e-18 -4.12244
10941 1 58.5226 4.03804 46.6273 3 1.0169e-16 -4.12244
10942 1 57.6983 4.03804 44.2959 3 1e-16 -4.12244
10943 1 60.1711 4.03804 44.2959 3 3.99999e-16 -4.12244
10944 1 59.3468 4.03804 41.9645 3 3.99999e-16 -4.12244
10945 1 61.8196 4.03804 41.9645 3 5.77599e-17 -4.12244
10946 1 60.9953 4.03804 39.6332 3 9.99999e-17 -4.12244
10947 1 63.4681 4.03804 39.6332 3 2.304e-17 -4.12244
10948 1 62.6439 4.03804 37.3018 3 5.76e-18 -4.12244
10949 1 57.6983 2.01902 47.7929 3 1.0507e-16 -4.10627
10950 1 60.1711 2.01902 47.7929 3 4.05069e-16 -4.10627
10951 1 59.3468 2.01902 45.4616 3 3.99999e-16 -4.10627
10952 1 61.8196 2.01902 45.4616 3 5.77599e-17 -4.10627
10953 1 60.9953 2.01902 43.1302 3 9.99999e-17 -4.10627
10954 1 63.4681 2.01902 43.1302 3 2.304e-17 -4.10627
10955 1 62.6439 2.01902 40.7989 3 5.76e-18 -4.10627
10956 1 60.9953 0 46.6273 5 12.2293 -3.54465
10957 1 63.4681 -0 46.6273 5 12.2293 -3.54465
10958 1 62.6439 0 44.2959 5 12.2293 -3.54465
10959 1 0.824261 62.5896 33.8048 5 12.2293 -3.54465
10960 1 0 62.5896 31.4734 5 12.2293 -3.54465
10961 1 2.47278 62.5896 31.4734 5 12.2293 -3.54465
10962 1 1.64852 62.5896 29.142 5 12.2293 -3.54465
10963 1 4.12131 62.5896 29.142 5 12.2293 -3.54465
10964 1 3.29705 62.5896 26.8107 5 12.2293 -3.54465
10965 1 5.76983 62.5896 26.8107 5 12.2293 -3.54465
10966 1 4.94557 62.5896 24.4793 5 12.2293 -3.54465
10967 1 7.41835 62.5896 24.4793 5 12.2293 -3.54465
10968 1 6.59409 62.5896 22.1479 5 12.2293 -3.54465
10969 1 9.06687 62.5896 22.1479 5 12.2293 -3.54465
10970 1 8.24261 62.5896 19.8166 5 12.2293 -3.54465
10971 1 10.7154 62.5896 19.8166 5 12.2293 -3.54465
10972 1 9.89114 62.5896 17.4852 5 12.2293 -3.54465
10973 1 12.3639 62.5896 17.4852 5 12.2293 -3.54465
10974 1 11.5397 62.5896 15.1539 5 12.2293 -3.54465
10975 1 14.0124 62.5896 15.1539 5 12.2293 -3.54465
10976 1 13.1882 62.5896 12.8225 5 12.2293 -3.54465
10977 1 15.661 62.5896 12.8225 5 12.2293 -3.54465
10978 1 14.8367 62.5896 10.4911 5 12.2293 -3.54465
10979 1 17.3095 62.5896 10.4911 5 12.2293 -3.54465
10980 1 16.4852 62.5896 8.15977 5 12.2293 -3.54465
10981 1 18.958 62.5896 8.15977 5 12.2293 -3.54465
10982 1 18.1337 62.5896 5.82841 5 12.2293 -3.54465
10983 1 20.6065 62.5896 5.82841 5 12.2293 -3.54465
10984 1 19.7823 62.5896 3.49704 5 12.2293 -3.54465
10985 1 22.2551 62.5896 3.49704 5 12.2293 -3.54465
10986 1 21.4308 62.5896 1.16568 5 12.2293 -3.54465
10987 1 23.9036 62.5896 1.16568 5 12.2293 -3.54465
10988 1 0.824261 60.5706 37.3018 3 5.776e-17 -4.10627
10989 1 0 60.5706 34.9704 3 2.304e-17 -4.10627
10990 1 2.47278 60.5706 34.9704 3 4e-16 -4.10627
10991 1 1.64852 60.5706 32.6391 3 5.776e-17 -4.10627
10992 1 4.12131 60.5706 32.6391 3 1e-16 -4.10627
10993 1 3.29705 60.5706 30.3077 3 4e-16 -4.10627
10994 1 5.76983 60.5706 30.3077 3 4.03897e-28 -4.10627
10995 1 4.94557 60.5706 27.9764 3 1e-16 -4.10627
10996 1 7.41835 60.5706 27.9764 3 1e-16 -4.10627
10997 1 6.59409 60.5706 25.645 3 5.55358e-28 -4.10627
10998 1 9.06687 60.5706 25.645 3 4e-16 -4.10627
10999 1 8.24261 60.5706 23.3136 3 9.99999e-17 -4.10627
11000 1 10.7154 60.5706 23.3136 3 1e-16 -4.10627
11001 1 9.89114 60.5706 20.9823 3 4e-16 -4.10627
11002 1 12.3639 60.5706 20.9823 3 4.03897e-28 -4.10627
11003 1 11.5397 60.5706 18.6509 3 1e-16 -4.10627
11004 1 14.0124 60.5706 18.6509 3 1e-16 -4.10627
11005 1 13.1882 60.5706 16.3195 3 5.04871e-28 -4.10627
11006 1 15.661 60.5706 16.3195 3 4e-16 -4.10627
11007 1 14.8367 60.5706 13.9882 3 9.99999e-17 -4.10627
11008 1 17.3095 60.5706 13.9882 3 1e-16 -4.10627
11009 1 16.4852 60.5706 11.6568 3 4e-16 -4.10627
11010 1 18.958 60.5706 11.6568 3 6.05845e-28 -4.10627
11011 1 18.1337 60.5706 9.32545 3 1e-16 -4.10627
11012 1 20.6065 60.5706 9.32545 3 1e-16 -4.10627
11013 1 19.7823 60.5706 6.99409 3 1e-16 -4.10627
11014 1 22.2551 60.5706 6.99409 3 4e-16 -4.10627
11015 1 21.4308 60.5706 4.66273 3 4e-16 -4.10627
11016 1 23.9036 60.5706 4.66273 3 1e-16 -4.10627
11017 1 23.0793 60.5706 2.33136 3 1e-16 -4.10627
11018 1 25.5521 60.5706 2.33136 3 5.55358e-28 -4.10627
11019 1 24.7278 60.5706 0 3 5.07001e-18 -4.10627
11020 1 27.2006 60.5706 0 3 1.0507e-16 -4.10627
11021 1 0.824261 58.5516 40.7989 3 5.776e-17 -4.12244
11022 1 0 58.5516 38.4675 3 2.304e-17 -4.12244
11023 1 2.47278 58.5516 38.4675 3 4e-16 -4.12244
11024 1 1.64852 58.5516 36.1361 3 5.776e-17 -4.12244
11025 1 4.12131 58.5516 36.1361 3 1e-16 -4.12244
11026 1 3.29705 58.5516 33.8048 3 4e-16 -4.12244
11027 1 5.76983 58.5516 33.8048 3 0 -4.12244
11028 1 4.94557 58.5516 31.4734 3 1e-16 -4.12244
11029 1 7.41835 58.5516 31.4734 3 1e-16 -4.12244
11030 1 6.59409 58.5516 29.142 3 1.51461e-28 -4.12244
11031 1 9.06687 58.5516 29.142 3 4e-16 -4.12244
11032 1 8.24261 58.5516 26.8107 3 9.99999e-17 -4.12244
11033 1 10.7154 58.5516 26.8107 3 1e-16 -4.12244
11034 1 9.89114 58.5516 24.4793 3 4e-16 -4.12244
11035 1 12.3639 58.5516 24.4793 3 1.00974e-28 -4.12244
11036 1 11.5397 58.5516 22.1479 3 1e-16 -4.12244
11037 1 14.0124 58.5516 22.1479 3 1e-16 -4.12244
11038 1 13.1882 58.5516 19.8166 3 0 -4.12244
11039 1 15.661 58.5516 19.8166 3 4e-16 -4.12244
11040 1 14.8367 58.5516 17.4852 3 9.99999e-17 -4.12244
11041 1 17.3095 58.5516 17.4852 3 1e-16 -4.12244
11042 1 16.4852 58.5516 15.1539 3 4e-16 -4.12244
11043 1 18.958 58.5516 15.1539 3 2.01948e-28 -4.12244
11044 1 18.1337 58.5516 12.8225 3 1e-16 -4.12244
11045 1 20.6065 58.5516 12.8225 3 1e-16 -4.12244
11046 1 19.7823 58.5516 10.4911 3 1e-16 -4.12244
11047 1 22.2551 58.5516 10.4911 3 4e-16 -4.12244
11048 1 21.4308 58.5516 8.15977 3 4e-16 -4.12244
11049 1 23.9036 58.5516 8.15977 3 1e-16 -4.12244
11050 1 23.0793 58.5516 5.82841 3 1e-16 -4.12244
11051 1 25.5521 58.5516 5.82841 3 1.54617e-28 -4.12244
11052 1 24.7278 58.5516 3.49704 3 7.88861e-31 -4.12244
11053 1 27.2006 58.5516 3.49704 3 1e-16 -4.12244
11054 1 26.3764 58.5516 1.16568 3 1.0169e-16 -4.12244
11055 1 28.8491 58.5516 1.16568 3 4.0169e-16 -4.12244
11056 1 0.824261 56.5326 44.2959 3 5.776e-17 -4.12244
11057 1 0 56.5326 41.9645 3 2.304e-17 -4.12244
11058 1 2.47278 56.5326 41.9645 3 4e-16 -4.12244
11059 1 1.64852 56.5326 39.6332 3 5.776e-17 -4.12244
11060 1 4.12131 56.5326 39.6332 3 1e-16 -4.12244
11061 1 3.29705 56.5326 37.3018 3 4e-16 -4.12244
11062 1 5.76983 56.5326 37.3018 3 0 -4.12244
11063 1 4.94557 56.5326 34.9704 3 1e-16 -4.12244
11064 1 7.41835 56.5326 34.9704 3 1e-16 -4.12244
11065 1 6.59409 56.5326 32.6391 3 2.01948e-28 -4.12244
11066 1 9.06687 56.5326 32.6391 3 4e-16 -4.12244
11067 1 8.24261 56.5326 30.3077 3 9.99999e-17 -4.12244
11068 1 10.7154 56.5326 30.3077 3 1e-16 -4.12244
11069 1 9.89114 56.5326 27.9764 3 4e-16 -4.12244
11070 1 12.3639 56.5326 27.9764 3 1.51461e-28 -4.12244
11071 1 11.5397 56.5326 25.645 3 1e-16 -4.12244
11072 1 14.0124 56.5326 25.645 3 1e-16 -4.12244
11073 1 13.1882 56.5326 23.3136 3 0 -4.12244
11074 1 15.661 56.5326 23.3136 3 4e-16 -4.12244
11075 1 14.8367 56.5326 20.9823 3 9.99999e-17 -4.12244
11076 1 17.3095 56.5326 20.9823 3 1e-16 -4.12244
11077 1 16.4852 56.5326 18.6509 3 4e-16 -4.12244
11078 1 18.958 56.5326 18.6509 3 2.01948e-28 -4.12244
11079 1 18.1337 56.5326 16.3195 3 1e-16 -4.12244
11080 1 20.6065 56.5326 16.3195 3 1e-16 -4.12244
11081 1 19.7823 56.5326 13.9882 3 1e-16 -4.12244
11082 1 22.2551 56.5326 13.9882 3 4e-16 -4.12244
11083 1 21.4308 56.5326 11.6568 3 4e-16 -4.12244
11084 1 23.9036 56.5326 11.6568 3 1e-16 -4.12244
11085 1 23.0793 56.5326 9.32545 3 1e-16 -4.12244
11086 1 25.5521 56.5326 9.32545 3 1.51461e-28 -4.12244
11087 1 24.7278 56.5326 6.99409 3 0 -4.12244
11088 1 27.2006 56.5326 6.99409 3 1e-16 -4.12244
11089 1 26.3764 56.5326 4.66273 3 1e-16 -4.12244
11090 1 28.8491 56.5326 4.66273 3 4e-16 -4.12244
11091 1 28.0249 56.5326 2.33136 3 3.99999e-16 -4.12244
11092 1 30.4977 56.5326 2.33136 3 9.99999e-17 -4.12244
11093 1 29.6734 56.5326 0 3 1.0507e-16 -4.12244
11094 1 32.1462 56.5326 0 3 1.0507e-16 -4.12244
11095 1 0.824261 54.5135 47.7929 3 6.28299e-17 -4.12244
11096 1 0 54.5135 45.4616 3 2.304e-17 -4.12244
11097 1 2.47278 54.5135 45.4616 3 4e-16 -4.12244
11098 1 1.64852 54.5135 43.1302 3 5.776e-17 -4.12244
11099 1 4.12131 54.5135 43.1302 3 1e-16 -4.12244
11100 1 3.29705 54.5135 40.7989 3 4e-16 -4.12244
11101 1 5.76983 54.5135 40.7989 3 6.05845e-28 -4.12244
11102 1 4.94557 54.5135 38.4675 3 1e-16 -4.12244
11103 1 7.41835 54.5135 38.4675 3 1e-16 -4.12244
11104 1 6.59409 54.5135 36.1361 3 6.05845e-28 -4.12244
11105 1 9.06687 54.5135 36.1361 3 4e-16 -4.12244
11106 1 8.24261 54.5135 33.8048 3 9.99999e-17 -4.12244
11107 1 10.7154 54.5135 33.8048 3 1e-16 -4.12244
11108 1 9.89114 54.5135 31.4734 3 4e-16 -4.12244
11109 1 12.3639 54.5135 31.4734 3 5.04871e-29 -4.12244
11110 1 11.5397 54.5135 29.142 3 1e-16 -4.12244
11111 1 14.0124 54.5135 29.142 3 1e-16 -4.12244
11112 1 13.1882 54.5135 26.8107 3 0 -4.12244
11113 1 15.661 54.5135 26.8107 3 4e-16 -4.12244
11114 1 14.8367 54.5135 24.4793 3 9.99999e-17 -4.12244
11115 1 17.3095 54.5135 24.4793 3 1e-16 -4.12244
11116 1 16.4852 54.5135 22.1479 3 4e-16 -4.12244
11117 1 18.958 54.5135 22.1479 3 2.01948e-28 -4.12244
11118 1 18.1337 54.5135 19.8166 3 1e-16 -4.12244
11119 1 20.6065 54.5135 19.8166 3 1e-16 -4.12244
11120 1 19.7823 54.5135 17.4852 3 1e-16 -4.12244
11121 1 22.2551 54.5135 17.4852 3 4e-16 -4.12244
11122 1 21.4308 54.5135 15.1539 3 4e-16 -4.12244
11123 1 23.9036 54.5135 15.1539 3 1e-16 -4.12244
11124 1 23.0793 54.5135 12.8225 3 1e-16 -4.12244
11125 1 25.5521 54.5135 12.8225 3 1.89327e-28 -4.12244
11126 1 24.7278 54.5135 10.4911 3 0 -4.12244
11127 1 27.2006 54.5135 10.4911 3 1e-16 -4.12244
11128 1 26.3764 54.5135 8.15977 3 1e-16 -4.12244
11129 1 28.8491 54.5135 8.15977 3 4e-16 -4.12244
11130 1 28.0249 54.5135 5.82841 3 3.99999e-16 -4.12244
11131 1 30.4977 54.5135 5.82841 3 9.99999e-17 -4.12244
11132 1 29.6734 54.5135 3.49704 3 1e-16 -4.12244
11133 1 32.1462 54.5135 3.49704 3 9.99999e-17 -4.12244
11134 1 31.3219 54.5135 1.16568 3 1.69e-18 -4.12244
11135 1 33.7947 54.5135 1.16568 3 4.01691e-16 -4.12244
11136 1 1.64852 52.4945 46.6273 3 5.945e-17 -4.12244
11137 1 4.12131 52.4945 46.6273 3 1.0169e-16 -4.12244
11138 1 3.29705 52.4945 44.2959 3 4e-16 -4.12244
11139 1 5.76983 52.4945 44.2959 3 0 -4.12244
11140 1 4.94557 52.4945 41.9645 3 1e-16 -4.12244
11141 1 7.41835 52.4945 41.9645 3 1e-16 -4.12244
11142 1 6.59409 52.4945 39.6332 3 0 -4.12244
11143 1 9.06687 52.4945 39.6332 3 4e-16 -4.12244
11144 1 8.24261 52.4945 37.3018 3 9.99999e-17 -4.12244
11145 1 10.7154 52.4945 37.3018 3 1e-16 -4.12244
11146 1 9.89114 52.4945 34.9704 3 4e-16 -4.12244
11147 1 12.3639 52.4945 34.9704 3 2.01948e-28 -4.12244
11148 1 11.5397 52.4945 32.6391 3 1e-16 -4.12244
11149 1 14.0124 52.4945 32.6391 3 1e-16 -4.12244
11150 1 13.1882 52.4945 30.3077 3 0 -4.12244
11151 1 15.661 52.4945 30.3077 3 4e-16 -4.12244
11152 1 14.8367 52.4945 27.9764 3 9.99999e-17 -4.12244
11153 1 17.3095 52.4945 27.9764 3 1e-16 -4.12244
11154 1 16.4852 52.4945 25.645 3 4e-16 -4.12244
11155 1 18.958 52.4945 25.645 3 3.5341e-28 -4.12244
11156 1 18.1337 52.4945 23.3136 3 1e-16 -4.12244
11157 1 20.6065 52.4945 23.3136 3 1e-16 -4.12244
11158 1 19.7823 52.4945 20.9823 3 1e-16 -4.12244
11159 1 22.2551 52.4945 20.9823 3 4e-16 -4.12244
11160 1 21.4308 52.4945 18.6509 3 4e-16 -4.12244
11161 1 23.9036 52.4945 18.6509 3 1e-16 -4.12244
11162 1 23.0793 52.4945 16.3195 3 1e-16 -4.12244
11163 1 25.5521 52.4945 16.3195 3 2.52435e-28 -4.12244
11164 1 24.7278 52.4945 13.9882 3 2.52435e-29 -4.12244
11165 1 27.2006 52.4945 13.9882 3 1e-16 -4.12244
11166 1 26.3764 52.4945 11.6568 3 1e-16 -4.12244
11167 1 28.8491 52.4945 11.6568 3 4e-16 -4.12244
11168 1 28.0249 52.4945 9.32545 3 3.99999e-16 -4.12244
11169 1 30.4977 52.4945 9.32545 3 9.99999e-17 -4.12244
11170 1 29.6734 52.4945 6.99409 3 1e-16 -4.12244
11171 1 32.1462 52.4945 6.99409 3 9.99999e-17 -4.12244
11172 1 31.3219 52.4945 4.66273 3 0 -4.12244
11173 1 33.7947 52.4945 4.66273 3 4.00001e-16 -4.12244
11174 1 32.9705 52.4945 2.33136 3 9.99999e-17 -4.12244
11175 1 35.4432 52.4945 2.33136 3 1e-16 -4.12244
11176 1 34.619 52.4945 0 3 4.0507e-16 -4.12244
11177 1 37.0918 52.4945 0 3 5.07001e-18 -4.12244
11178 1 3.29705 50.4755 47.7929 3 4.0507e-16 -4.12244
11179 1 5.76983 50.4755 47.7929 3 5.06996e-18 -4.12244
11180 1 4.94557 50.4755 45.4616 3 1e-16 -4.12244
11181 1 7.41835 50.4755 45.4616 3 1e-16 -4.12244
11182 1 6.59409 50.4755 43.1302 3 6.05845e-28 -4.12244
11183 1 9.06687 50.4755 43.1302 3 4e-16 -4.12244
11184 1 8.24261 50.4755 40.7989 3 9.99999e-17 -4.12244
11185 1 10.7154 50.4755 40.7989 3 1e-16 -4.12244
11186 1 9.89114 50.4755 38.4675 3 4e-16 -4.12244
11187 1 12.3639 50.4755 38.4675 3 0 -4.12244
11188 1 11.5397 50.4755 36.1361 3 1e-16 -4.12244
11189 1 14.0124 50.4755 36.1361 3 1e-16 -4.12244
11190 1 13.1882 50.4755 33.8048 3 0 -4.12244
11191 1 15.661 50.4755 33.8048 3 4e-16 -4.12244
11192 1 14.8367 50.4755 31.4734 3 9.99999e-17 -4.12244
11193 1 17.3095 50.4755 31.4734 3 1e-16 -4.12244
11194 1 16.4852 50.4755 29.142 3 4e-16 -4.12244
11195 1 18.958 50.4755 29.142 3 3.5341e-28 -4.12244
11196 1 18.1337 50.4755 26.8107 3 1e-16 -4.12244
11197 1 20.6065 50.4755 26.8107 3 1e-16 -4.12244
11198 1 19.7823 50.4755 24.4793 3 1e-16 -4.12244
11199 1 22.2551 50.4755 24.4793 3 4e-16 -4.12244
11200 1 21.4308 50.4755 22.1479 3 4e-16 -4.12244
11201 1 23.9036 50.4755 22.1479 3 1e-16 -4.12244
11202 1 23.0793 50.4755 19.8166 3 1e-16 -4.12244
11203 1 25.5521 50.4755 19.8166 3 1.51461e-28 -4.12244
11204 1 24.7278 50.4755 17.4852 3 1.00974e-28 -4.12244
11205 1 27.2006 50.4755 17.4852 3 1e-16 -4.12244
11206 1 26.3764 50.4755 15.1539 3 1e-16 -4.12244
11207 1 28.8491 50.4755 15.1539 3 4e-16 -4.12244
11208 1 28.0249 50.4755 12.8225 3 3.99999e-16 -4.12244
11209 1 30.4977 50.4755 12.8225 3 9.99999e-17 -4.12244
11210 1 29.6734 50.4755 10.4911 3 1e-16 -4.12244
11211 1 32.1462 50.4755 10.4911 3 9.99999e-17 -4.12244
11212 1 31.3219 50.4755 8.15977 3 1.26218e-29 -4.12244
11213 1 33.7947 50.4755 8.15977 3 4.00001e-16 -4.12244
11214 1 32.9705 50.4755 5.82841 3 9.99999e-17 -4.12244
11215 1 35.4432 50.4755 5.82841 3 1e-16 -4.12244
11216 1 34.619 50.4755 3.49704 3 4e-16 -4.12244
11217 1 37.0918 50.4755 3.49704 3 7.88861e-31 -4.12244
11218 1 36.2675 50.4755 1.16568 3 1.0169e-16 -4.12244
11219 1 38.7403 50.4755 1.16568 3 1.0169e-16 -4.12244
11220 1 6.59409 48.4565 46.6273 3 1.69002e-18 -4.12244
11221 1 9.06687 48.4565 46.6273 3 4.0169e-16 -4.12244
11222 1 8.24261 48.4565 44.2959 3 9.99999e-17 -4.12244
11223 1 10.7154 48.4565 44.2959 3 1e-16 -4.12244
11224 1 9.89114 48.4565 41.9645 3 4e-16 -4.12244
11225 1 12.3639 48.4565 41.9645 3 0 -4.12244
11226 1 11.5397 48.4565 39.6332 3 1e-16 -4.12244
11227 1 14.0124 48.4565 39.6332 3 1e-16 -4.12244
11228 1 13.1882 48.4565 37.3018 3 0 -4.12244
11229 1 15.661 48.4565 37.3018 3 4e-16 -4.12244
11230 1 14.8367 48.4565 34.9704 3 9.99999e-17 -4.12244
11231 1 17.3095 48.4565 34.9704 3 1e-16 -4.12244
11232 1 16.4852 48.4565 32.6391 3 4e-16 -4.12244
11233 1 18.958 48.4565 32.6391 3 4.03897e-28 -4.12244
11234 1 18.1337 48.4565 30.3077 3 1e-16 -4.12244
11235 1 20.6065 48.4565 30.3077 3 1e-16 -4.12244
11236 1 19.7823 48.4565 27.9764 3 1e-16 -4.12244
11237 1 22.2551 48.4565 27.9764 3 4e-16 -4.12244
11238 1 21.4308 48.4565 25.645 3 4e-16 -4.12244
11239 1 23.9036 48.4565 25.645 3 1e-16 -4.12244
11240 1 23.0793 48.4565 23.3136 3 1e-16 -4.12244
11241 1 25.5521 48.4565 23.3136 3 1.51461e-28 -4.12244
11242 1 24.7278 48.4565 20.9823 3 0 -4.12244
11243 1 27.2006 48.4565 20.9823 3 1e-16 -4.12244
11244 1 26.3764 48.4565 18.6509 3 1e-16 -4.12244
11245 1 28.8491 48.4565 18.6509 3 4e-16 -4.12244
11246 1 28.0249 48.4565 16.3195 3 3.99999e-16 -4.12244
11247 1 30.4977 48.4565 16.3195 3 9.99999e-17 -4.12244
11248 1 29.6734 48.4565 13.9882 3 1e-16 -4.12244
11249 1 32.1462 48.4565 13.9882 3 9.99999e-17 -4.12244
11250 1 31.3219 48.4565 11.6568 3 0 -4.12244
11251 1 33.7947 48.4565 11.6568 3 4.00001e-16 -4.12244
11252 1 32.9705 48.4565 9.32545 3 9.99999e-17 -4.12244
11253 1 35.4432 48.4565 9.32545 3 1e-16 -4.12244
11254 1 34.619 48.4565 6.99409 3 4e-16 -4.12244
11255 1 37.0918 48.4565 6.99409 3 0 -4.12244
11256 1 36.2675 48.4565 4.66273 3 1e-16 -4.12244
11257 1 38.7403 48.4565 4.66273 3 1e-16 -4.12244
11258 1 37.916 48.4565 2.33136 3 8.07794e-28 -4.12244
11259 1 40.3888 48.4565 2.33136 3 3.99999e-16 -4.12244
11260 1 39.5645 48.4565 0 3 1.0507e-16 -4.12244
11261 1 42.0373 48.4565 0 3 1.0507e-16 -4.12244
11262 1 8.24261 46.4375 47.7929 3 1.0507e-16 -4.12244
11263 1 10.7154 46.4375 47.7929 3 1.0507e-16 -4.12244
11264 1 9.89114 46.4375 45.4616 3 4e-16 -4.12244
11265 1 12.3639 46.4375 45.4616 3 0 -4.12244
11266 1 11.5397 46.4375 43.1302 3 1e-16 -4.12244
11267 1 14.0124 46.4375 43.1302 3 1e-16 -4.12244
11268 1 13.1882 46.4375 40.7989 3 6.05845e-28 -4.12244
11269 1 15.661 46.4375 40.7989 3 4e-16 -4.12244
11270 1 14.8367 46.4375 38.4675 3 9.99999e-17 -4.12244
11271 1 17.3095 46.4375 38.4675 3 1e-16 -4.12244
11272 1 16.4852 46.4375 36.1361 3 4e-16 -4.12244
11273 1 18.958 46.4375 36.1361 3 8.07794e-28 -4.12244
11274 1 18.1337 46.4375 33.8048 3 1e-16 -4.12244
11275 1 20.6065 46.4375 33.8048 3 1e-16 -4.12244
11276 1 19.7823 46.4375 31.4734 3 1e-16 -4.12244
11277 1 22.2551 46.4375 31.4734 3 4e-16 -4.12244
11278 1 21.4308 46.4375 29.142 3 4e-16 -4.12244
11279 1 23.9036 46.4375 29.142 3 1e-16 -4.12244
11280 1 23.0793 46.4375 26.8107 3 1e-16 -4.12244
11281 1 25.5521 46.4375 26.8107 3 1.51461e-28 -4.12244
11282 1 24.7278 46.4375 24.4793 3 1.00974e-28 -4.12244
11283 1 27.2006 46.4375 24.4793 3 1e-16 -4.12244
11284 1 26.3764 46.4375 22.1479 3 1e-16 -4.12244
11285 1 28.8491 46.4375 22.1479 3 4e-16 -4.12244
11286 1 28.0249 46.4375 19.8166 3 3.99999e-16 -4.12244
11287 1 30.4977 46.4375 19.8166 3 9.99999e-17 -4.12244
11288 1 29.6734 46.4375 17.4852 3 1e-16 -4.12244
11289 1 32.1462 46.4375 17.4852 3 9.99999e-17 -4.12244
11290 1 31.3219 46.4375 15.1539 3 0 -4.12244
11291 1 33.7947 46.4375 15.1539 3 4.00001e-16 -4.12244
11292 1 32.9705 46.4375 12.8225 3 9.99999e-17 -4.12244
11293 1 35.4432 46.4375 12.8225 3 1e-16 -4.12244
11294 1 34.619 46.4375 10.4911 3 4e-16 -4.12244
11295 1 37.0918 46.4375 10.4911 3 0 -4.12244
11296 1 36.2675 46.4375 8.15977 3 1e-16 -4.12244
11297 1 38.7403 46.4375 8.15977 3 1e-16 -4.12244
11298 1 37.916 46.4375 5.82841 3 8.10949e-28 -4.12244
11299 1 40.3888 46.4375 5.82841 3 3.99999e-16 -4.12244
11300 1 39.5645 46.4375 3.49704 3 1e-16 -4.12244
11301 1 42.0373 46.4375 3.49704 3 1e-16 -4.12244
11302 1 41.2131 46.4375 1.16568 3 4.01691e-16 -4.12244
11303 1 43.6859 46.4375 1.16568 3 1.69e-18 -4.12244
11304 1 11.5397 44.4184 46.6273 3 1.0169e-16 -4.12244
11305 1 14.0124 44.4184 46.6273 3 1.0169e-16 -4.12244
11306 1 13.1882 44.4184 44.2959 3 0 -4.12244
11307 1 15.661 44.4184 44.2959 3 4e-16 -4.12244
11308 1 14.8367 44.4184 41.9645 3 9.99999e-17 -4.12244
11309 1 17.3095 44.4184 41.9645 3 1e-16 -4.12244
11310 1 16.4852 44.4184 39.6332 3 4e-16 -4.12244
11311 1 18.958 44.4184 39.6332 3 2.01948e-28 -4.12244
11312 1 18.1337 44.4184 37.3018 3 1e-16 -4.12244
11313 1 20.6065 44.4184 37.3018 3 1e-16 -4.12244
11314 1 19.7823 44.4184 34.9704 3 1e-16 -4.12244
11315 1 22.2551 44.4184 34.9704 3 4e-16 -4.12244
11316 1 21.4308 44.4184 32.6391 3 4e-16 -4.12244
11317 1 23.9036 44.4184 32.6391 3 1e-16 -4.12244
11318 1 23.0793 44.4184 30.3077 3 1e-16 -4.12244
11319 1 25.5521 44.4184 30.3077 3 1.51461e-28 -4.12244
11320 1 24.7278 44.4184 27.9764 3 1.51461e-28 -4.12244
11321 1 27.2006 44.4184 27.9764 3 1e-16 -4.12244
11322 1 26.3764 44.4184 25.645 3 1e-16 -4.12244
11323 1 28.8491 44.4184 25.645 3 4e-16 -4.12244
11324 1 28.0249 44.4184 23.3136 3 3.99999e-16 -4.12244
11325 1 30.4977 44.4184 23.3136 3 9.99999e-17 -4.12244
11326 1 29.6734 44.4184 20.9823 3 1e-16 -4.12244
11327 1 32.1462 44.4184 20.9823 3 9.99999e-17 -4.12244
11328 1 31.3219 44.4184 18.6509 3 0 -4.12244
11329 1 33.7947 44.4184 18.6509 3 4.00001e-16 -4.12244
11330 1 32.9705 44.4184 16.3195 3 9.99999e-17 -4.12244
11331 1 35.4432 44.4184 16.3195 3 1e-16 -4.12244
11332 1 34.619 44.4184 13.9882 3 4e-16 -4.12244
11333 1 37.0918 44.4184 13.9882 3 2.52435e-29 -4.12244
11334 1 36.2675 44.4184 11.6568 3 1e-16 -4.12244
11335 1 38.7403 44.4184 11.6568 3 1e-16 -4.12244
11336 1 37.916 44.4184 9.32545 3 8.07794e-28 -4.12244
11337 1 40.3888 44.4184 9.32545 3 3.99999e-16 -4.12244
11338 1 39.5645 44.4184 6.99409 3 1e-16 -4.12244
11339 1 42.0373 44.4184 6.99409 3 1e-16 -4.12244
11340 1 41.2131 44.4184 4.66273 3 4.00001e-16 -4.12244
11341 1 43.6859 44.4184 4.66273 3 2.01948e-28 -4.12244
11342 1 42.8616 44.4184 2.33136 3 9.99999e-17 -4.12244
11343 1 45.3344 44.4184 2.33136 3 9.99999e-17 -4.12244
11344 1 44.5101 44.4184 0 3 5.07001e-18 -4.12244
11345 1 46.9829 44.4184 0 3 4.0507e-16 -4.12244
11346 1 13.1882 42.3994 47.7929 3 5.06996e-18 -4.12244
11347 1 15.661 42.3994 47.7929 3 4.0507e-16 -4.12244
11348 1 14.8367 42.3994 45.4616 3 9.99999e-17 -4.12244
11349 1 17.3095 42.3994 45.4616 3 1e-16 -4.12244
11350 1 16.4852 42.3994 43.1302 3 4e-16 -4.12244
11351 1 18.958 42.3994 43.1302 3 8.07794e-28 -4.12244
11352 1 18.1337 42.3994 40.7989 3 1e-16 -4.12244
11353 1 20.6065 42.3994 40.7989 3 1e-16 -4.12244
11354 1 19.7823 42.3994 38.4675 3 1e-16 -4.12244
11355 1 22.2551 42.3994 38.4675 3 4e-16 -4.12244
11356 1 21.4308 42.3994 36.1361 3 4e-16 -4.12244
11357 1 23.9036 42.3994 36.1361 3 1e-16 -4.12244
11358 1 23.0793 42.3994 33.8048 3 1e-16 -4.12244
11359 1 25.5521 42.3994 33.8048 3 1.51461e-28 -4.12244
11360 1 24.7278 42.3994 31.4734 3 5.04871e-29 -4.12244
11361 1 27.2006 42.3994 31.4734 3 1e-16 -4.12244
11362 1 26.3764 42.3994 29.142 3 1e-16 -4.12244
11363 1 28.8491 42.3994 29.142 3 4e-16 -4.12244
11364 1 28.0249 42.3994 26.8107 3 3.99999e-16 -4.12244
11365 1 30.4977 42.3994 26.8107 3 9.99999e-17 -4.12244
11366 1 29.6734 42.3994 24.4793 3 1e-16 -4.12244
11367 1 32.1462 42.3994 24.4793 3 9.99999e-17 -4.12244
11368 1 31.3219 42.3994 22.1479 3 0 -4.12244
11369 1 33.7947 42.3994 22.1479 3 4.00001e-16 -4.12244
11370 1 32.9705 42.3994 19.8166 3 9.99999e-17 -4.12244
11371 1 35.4432 42.3994 19.8166 3 1e-16 -4.12244
11372 1 34.619 42.3994 17.4852 3 4e-16 -4.12244
11373 1 37.0918 42.3994 17.4852 3 1.00974e-28 -4.12244
11374 1 36.2675 42.3994 15.1539 3 1e-16 -4.12244
11375 1 38.7403 42.3994 15.1539 3 1e-16 -4.12244
11376 1 37.916 42.3994 12.8225 3 8.45659e-28 -4.12244
11377 1 40.3888 42.3994 12.8225 3 3.99999e-16 -4.12244
11378 1 39.5645 42.3994 10.4911 3 1e-16 -4.12244
11379 1 42.0373 42.3994 10.4911 3 1e-16 -4.12244
11380 1 41.2131 42.3994 8.15977 3 4.00001e-16 -4.12244
11381 1 43.6859 42.3994 8.15977 3 2.1457e-28 -4.12244
11382 1 42.8616 42.3994 5.82841 3 9.99999e-17 -4.12244
11383 1 45.3344 42.3994 5.82841 3 9.99999e-17 -4.12244
11384 1 44.5101 42.3994 3.49704 3 2.02737e-28 -4.12244
11385 1 46.9829 42.3994 3.49704 3 3.99999e-16 -4.12244
11386 1 46.1586 42.3994 1.16568 3 1.0169e-16 -4.12244
11387 1 48.6314 42.3994 1.16568 3 1.0169e-16 -4.12244
11388 1 16.4852 40.3804 46.6273 3 4.0169e-16 -4.12244
11389 1 18.958 40.3804 46.6273 3 1.69002e-18 -4.12244
11390 1 18.1337 40.3804 44.2959 3 1e-16 -4.12244
11391 1 20.6065 40.3804 44.2959 3 1e-16 -4.12244
11392 1 19.7823 40.3804 41.9645 3 1e-16 -4.12244
11393 1 22.2551 40.3804 41.9645 3 4e-16 -4.12244
11394 1 21.4308 40.3804 39.6332 3 4e-16 -4.12244
11395 1 23.9036 40.3804 39.6332 3 1e-16 -4.12244
11396 1 23.0793 40.3804 37.3018 3 1e-16 -4.12244
11397 1 25.5521 40.3804 37.3018 3 1.51461e-28 -4.12244
11398 1 24.7278 40.3804 34.9704 3 2.01948e-28 -4.12244
11399 1 27.2006 40.3804 34.9704 3 1e-16 -4.12244
11400 1 26.3764 40.3804 32.6391 3 1e-16 -4.12244
11401 1 28.8491 40.3804 32.6391 3 4e-16 -4.12244
11402 1 28.0249 40.3804 30.3077 3 3.99999e-16 -4.12244
11403 1 30.4977 40.3804 30.3077 3 9.99999e-17 -4.12244
11404 1 29.6734 40.3804 27.9764 3 1e-16 -4.12244
11405 1 32.1462 40.3804 27.9764 3 9.99999e-17 -4.12244
11406 1 31.3219 40.3804 25.645 3 1.51461e-28 -4.12244
11407 1 33.7947 40.3804 25.645 3 4.00001e-16 -4.12244
11408 1 32.9705 40.3804 23.3136 3 9.99999e-17 -4.12244
11409 1 35.4432 40.3804 23.3136 3 1e-16 -4.12244
11410 1 34.619 40.3804 20.9823 3 4e-16 -4.12244
11411 1 37.0918 40.3804 20.9823 3 0 -4.12244
11412 1 36.2675 40.3804 18.6509 3 1e-16 -4.12244
11413 1 38.7403 40.3804 18.6509 3 1e-16 -4.12244
11414 1 37.916 40.3804 16.3195 3 9.08768e-28 -4.12244
11415 1 40.3888 40.3804 16.3195 3 3.99999e-16 -4.12244
11416 1 39.5645 40.3804 13.9882 3 1e-16 -4.12244
11417 1 42.0373 40.3804 13.9882 3 1e-16 -4.12244
11418 1 41.2131 40.3804 11.6568 3 4.00001e-16 -4.12244
11419 1 43.6859 40.3804 11.6568 3 2.01948e-28 -4.12244
11420 1 42.8616 40.3804 9.32545 3 9.99999e-17 -4.12244
11421 1 45.3344 40.3804 9.32545 3 9.99999e-17 -4.12244
11422 1 44.5101 40.3804 6.99409 3 2.01948e-28 -4.12244
11423 1 46.9829 40.3804 6.99409 3 3.99999e-16 -4.12244
11424 1 46.1586 40.3804 4.66273 3 9.99999e-17 -4.12244
11425 1 48.6314 40.3804 4.66273 3 9.99999e-17 -4.12244
11426 1 47.8072 40.3804 2.33136 3 3.99999e-16 -4.12244
11427 1 50.2799 40.3804 2.33136 3 2.01948e-28 -4.12244
11428 1 49.4557 40.3804 0 3 1.0507e-16 -4.12244
11429 1 51.9285 40.3804 0 3 1.0507e-16 -4.12244
11430 1 18.1337 38.3614 47.7929 3 1.0507e-16 -4.12244
11431 1 20.6065 38.3614 47.7929 3 1.0507e-16 -4.12244
11432 1 19.7823 38.3614 45.4616 3 1e-16 -4.12244
11433 1 22.2551 38.3614 45.4616 3 4e-16 -4.12244
11434 1 21.4308 38.3614 43.1302 3 4e-16 -4.12244
11435 1 23.9036 38.3614 43.1302 3 1e-16 -4.12244
11436 1 23.0793 38.3614 40.7989 3 1e-16 -4.12244
11437 1 25.5521 38.3614 40.7989 3 7.57306e-28 -4.12244
11438 1 24.7278 38.3614 38.4675 3 0 -4.12244
11439 1 27.2006 38.3614 38.4675 3 1e-16 -4.12244
11440 1 26.3764 38.3614 36.1361 3 1e-16 -4.12244
11441 1 28.8491 38.3614 36.1361 3 4e-16 -4.12244
11442 1 28.0249 38.3614 33.8048 3 3.99999e-16 -4.12244
11443 1 30.4977 38.3614 33.8048 3 9.99999e-17 -4.12244
11444 1 29.6734 38.3614 31.4734 3 1e-16 -4.12244
11445 1 32.1462 38.3614 31.4734 3 9.99999e-17 -4.12244
11446 1 31.3219 38.3614 29.142 3 1.51461e-28 -4.12244
11447 1 33.7947 38.3614 29.142 3 4.00001e-16 -4.12244
11448 1 32.9705 38.3614 26.8107 3 9.99999e-17 -4.12244
11449 1 35.4432 38.3614 26.8107 3 1e-16 -4.12244
11450 1 34.619 38.3614 24.4793 3 4e-16 -4.12244
11451 1 37.0918 38.3614 24.4793 3 1.00974e-28 -4.12244
11452 1 36.2675 38.3614 22.1479 3 1e-16 -4.12244
11453 1 38.7403 38.3614 22.1479 3 1e-16 -4.12244
11454 1 37.916 38.3614 19.8166 3 8.07794e-28 -4.12244
11455 1 40.3888 38.3614 19.8166 3 3.99999e-16 -4.12244
11456 1 39.5645 38.3614 17.4852 3 1e-16 -4.12244
11457 1 42.0373 38.3614 17.4852 3 1e-16 -4.12244
11458 1 41.2131 38.3614 15.1539 3 4.00001e-16 -4.12244
11459 1 43.6859 38.3614 15.1539 3 2.01948e-28 -4.12244
11460 1 42.8616 38.3614 12.8225 3 9.99999e-17 -4.12244
11461 1 45.3344 38.3614 12.8225 3 9.99999e-17 -4.12244
11462 1 44.5101 38.3614 10.4911 3 2.01948e-28 -4.12244
11463 1 46.9829 38.3614 10.4911 3 3.99999e-16 -4.12244
11464 1 46.1586 38.3614 8.15977 3 9.99999e-17 -4.12244
11465 1 48.6314 38.3614 8.15977 3 9.99999e-17 -4.12244
11466 1 47.8072 38.3614 5.82841 3 3.99999e-16 -4.12244
11467 1 50.2799 38.3614 5.82841 3 2.05104e-28 -4.12244
11468 1 49.4557 38.3614 3.49704 3 9.99999e-17 -4.12244
11469 1 51.9285 38.3614 3.49704 3 1e-16 -4.12244
11470 1 51.1042 38.3614 1.16568 3 1.0169e-16 -4.12244
11471 1 53.577 38.3614 1.16568 3 4.01689e-16 -4.12244
11472 1 21.4308 36.3424 46.6273 3 4.01691e-16 -4.12244
11473 1 23.9036 36.3424 46.6273 3 1.0169e-16 -4.12244
11474 1 23.0793 36.3424 44.2959 3 1e-16 -4.12244
11475 1 25.5521 36.3424 44.2959 3 1.51461e-28 -4.12244
11476 1 24.7278 36.3424 41.9645 3 0 -4.12244
11477 1 27.2006 36.3424 41.9645 3 1e-16 -4.12244
11478 1 26.3764 36.3424 39.6332 3 1e-16 -4.12244
11479 1 28.8491 36.3424 39.6332 3 4e-16 -4.12244
11480 1 28.0249 36.3424 37.3018 3 3.99999e-16 -4.12244
11481 1 30.4977 36.3424 37.3018 3 9.99999e-17 -4.12244
11482 1 29.6734 36.3424 34.9704 3 1e-16 -4.12244
11483 1 32.1462 36.3424 34.9704 3 9.99999e-17 -4.12244
11484 1 31.3219 36.3424 32.6391 3 2.01948e-28 -4.12244
11485 1 33.7947 36.3424 32.6391 3 4.00001e-16 -4.12244
11486 1 32.9705 36.3424 30.3077 3 9.99999e-17 -4.12244
11487 1 35.4432 36.3424 30.3077 3 1e-16 -4.12244
11488 1 34.619 36.3424 27.9764 3 4e-16 -4.12244
11489 1 37.0918 36.3424 27.9764 3 1.51461e-28 -4.12244
11490 1 36.2675 36.3424 25.645 3 1e-16 -4.12244
11491 1 38.7403 36.3424 25.645 3 1e-16 -4.12244
11492 1 37.916 36.3424 23.3136 3 8.07794e-28 -4.12244
11493 1 40.3888 36.3424 23.3136 3 3.99999e-16 -4.12244
11494 1 39.5645 36.3424 20.9823 3 1e-16 -4.12244
11495 1 42.0373 36.3424 20.9823 3 1e-16 -4.12244
11496 1 41.2131 36.3424 18.6509 3 4.00001e-16 -4.12244
11497 1 43.6859 36.3424 18.6509 3 2.01948e-28 -4.12244
11498 1 42.8616 36.3424 16.3195 3 9.99999e-17 -4.12244
11499 1 45.3344 36.3424 16.3195 3 9.99999e-17 -4.12244
11500 1 44.5101 36.3424 13.9882 3 2.27192e-28 -4.12244
11501 1 46.9829 36.3424 13.9882 3 3.99999e-16 -4.12244
11502 1 46.1586 36.3424 11.6568 3 9.99999e-17 -4.12244
11503 1 48.6314 36.3424 11.6568 3 9.99999e-17 -4.12244
11504 1 47.8072 36.3424 9.32545 3 3.99999e-16 -4.12244
11505 1 50.2799 36.3424 9.32545 3 2.01948e-28 -4.12244
11506 1 49.4557 36.3424 6.99409 3 9.99999e-17 -4.12244
11507 1 51.9285 36.3424 6.99409 3 1e-16 -4.12244
11508 1 51.1042 36.3424 4.66273 3 9.99999e-17 -4.12244
11509 1 53.577 36.3424 4.66273 3 3.99999e-16 -4.12244
11510 1 52.7527 36.3424 2.33136 3 4.00001e-16 -4.12244
11511 1 55.2255 36.3424 2.33136 3 1e-16 -4.12244
11512 1 54.4012 36.3424 0 3 1.0507e-16 -4.12244
11513 1 56.874 36.3424 0 3 5.07001e-18 -4.12244
11514 1 23.0793 34.3233 47.7929 3 1.0507e-16 -4.12244
11515 1 25.5521 34.3233 47.7929 3 5.06996e-18 -4.12244
11516 1 24.7278 34.3233 45.4616 3 0 -4.12244
11517 1 27.2006 34.3233 45.4616 3 1e-16 -4.12244
11518 1 26.3764 34.3233 43.1302 3 1e-16 -4.12244
11519 1 28.8491 34.3233 43.1302 3 4e-16 -4.12244
11520 1 28.0249 34.3233 40.7989 3 3.99999e-16 -4.12244
11521 1 30.4977 34.3233 40.7989 3 9.99999e-17 -4.12244
11522 1 29.6734 34.3233 38.4675 3 1e-16 -4.12244
11523 1 32.1462 34.3233 38.4675 3 9.99999e-17 -4.12244
11524 1 31.3219 34.3233 36.1361 3 6.05845e-28 -4.12244
11525 1 33.7947 34.3233 36.1361 3 4.00001e-16 -4.12244
11526 1 32.9705 34.3233 33.8048 3 9.99999e-17 -4.12244
11527 1 35.4432 34.3233 33.8048 3 1e-16 -4.12244
11528 1 34.619 34.3233 31.4734 3 4e-16 -4.12244
11529 1 37.0918 34.3233 31.4734 3 5.04871e-29 -4.12244
11530 1 36.2675 34.3233 29.142 3 1e-16 -4.12244
11531 1 38.7403 34.3233 29.142 3 1e-16 -4.12244
11532 1 37.916 34.3233 26.8107 3 8.07794e-28 -4.12244
11533 1 40.3888 34.3233 26.8107 3 3.99999e-16 -4.12244
11534 1 39.5645 34.3233 24.4793 3 1e-16 -4.12244
11535 1 42.0373 34.3233 24.4793 3 1e-16 -4.12244
11536 1 41.2131 34.3233 22.1479 3 4.00001e-16 -4.12244
11537 1 43.6859 34.3233 22.1479 3 2.01948e-28 -4.12244
11538 1 42.8616 34.3233 19.8166 3 9.99999e-17 -4.12244
11539 1 45.3344 34.3233 19.8166 3 9.99999e-17 -4.12244
11540 1 44.5101 34.3233 17.4852 3 3.02923e-28 -4.12244
11541 1 46.9829 34.3233 17.4852 3 3.99999e-16 -4.12244
11542 1 46.1586 34.3233 15.1539 3 9.99999e-17 -4.12244
11543 1 48.6314 34.3233 15.1539 3 9.99999e-17 -4.12244
11544 1 47.8072 34.3233 12.8225 3 3.99999e-16 -4.12244
11545 1 50.2799 34.3233 12.8225 3 2.39814e-28 -4.12244
11546 1 49.4557 34.3233 10.4911 3 9.99999e-17 -4.12244
11547 1 51.9285 34.3233 10.4911 3 1e-16 -4.12244
11548 1 51.1042 34.3233 8.15977 3 9.99999e-17 -4.12244
11549 1 53.577 34.3233 8.15977 3 3.99999e-16 -4.12244
11550 1 52.7527 34.3233 5.82841 3 4.00001e-16 -4.12244
11551 1 55.2255 34.3233 5.82841 3 1e-16 -4.12244
11552 1 54.4012 34.3233 3.49704 3 1e-16 -4.12244
11553 1 56.874 34.3233 3.49704 3 7.88861e-31 -4.12244
11554 1 56.0498 34.3233 1.16568 3 1.69e-18 -4.12244
11555 1 58.5226 34.3233 1.16568 3 1.0169e-16 -4.12244
11556 1 26.3764 32.3043 46.6273 3 1.0169e-16 -4.12244
11557 1 28.8491 32.3043 46.6273 3 4.0169e-16 -4.12244
11558 1 28.0249 32.3043 44.2959 3 3.99999e-16 -4.12244
11559 1 30.4977 32.3043 44.2959 3 9.99999e-17 -4.12244
11560 1 29.6734 32.3043 41.9645 3 1e-16 -4.12244
11561 1 32.1462 32.3043 41.9645 3 9.99999e-17 -4.12244
11562 1 31.3219 32.3043 39.6332 3 0 -4.12244
11563 1 33.7947 32.3043 39.6332 3 4.00001e-16 -4.12244
11564 1 32.9705 32.3043 37.3018 3 9.99999e-17 -4.12244
11565 1 35.4432 32.3043 37.3018 3 1e-16 -4.12244
11566 1 34.619 32.3043 34.9704 3 4e-16 -4.12244
11567 1 37.0918 32.3043 34.9704 3 2.01948e-28 -4.12244
11568 1 36.2675 32.3043 32.6391 3 1e-16 -4.12244
11569 1 38.7403 32.3043 32.6391 3 1e-16 -4.12244
11570 1 37.916 32.3043 30.3077 3 8.07794e-28 -4.12244
11571 1 40.3888 32.3043 30.3077 3 3.99999e-16 -4.12244
11572 1 39.5645 32.3043 27.9764 3 1e-16 -4.12244
11573 1 42.0373 32.3043 27.9764 3 1e-16 -4.12244
11574 1 41.2131 32.3043 25.645 3 4.00001e-16 -4.12244
11575 1 43.6859 32.3043 25.645 3 3.5341e-28 -4.12244
11576 1 42.8616 32.3043 23.3136 3 9.99999e-17 -4.12244
11577 1 45.3344 32.3043 23.3136 3 9.99999e-17 -4.12244
11578 1 44.5101 32.3043 20.9823 3 2.01948e-28 -4.12244
11579 1 46.9829 32.3043 20.9823 3 3.99999e-16 -4.12244
11580 1 46.1586 32.3043 18.6509 3 9.99999e-17 -4.12244
11581 1 48.6314 32.3043 18.6509 3 9.99999e-17 -4.12244
11582 1 47.8072 32.3043 16.3195 3 3.99999e-16 -4.12244
11583 1 50.2799 32.3043 16.3195 3 3.02923e-28 -4.12244
11584 1 49.4557 32.3043 13.9882 3 9.99999e-17 -4.12244
11585 1 51.9285 32.3043 13.9882 3 1e-16 -4.12244
11586 1 51.1042 32.3043 11.6568 3 9.99999e-17 -4.12244
11587 1 53.577 32.3043 11.6568 3 3.99999e-16 -4.12244
11588 1 52.7527 32.3043 9.32545 3 4.00001e-16 -4.12244
11589 1 55.2255 32.3043 9.32545 3 1e-16 -4.12244
11590 1 54.4012 32.3043 6.99409 3 1e-16 -4.12244
11591 1 56.874 32.3043 6.99409 3 0 -4.12244
11592 1 56.0498 32.3043 4.66273 3 0 -4.12244
11593 1 58.5226 32.3043 4.66273 3 9.99999e-17 -4.12244
11594 1 57.6983 32.3043 2.33136 3 1e-16 -4.12244
11595 1 60.1711 32.3043 2.33136 3 3.99999e-16 -4.12244
11596 1 59.3468 32.3043 0 3 4.0507e-16 -4.12244
11597 1 61.8196 32.3043 0 3 6.28299e-17 -4.12244
11598 1 28.0249 30.2853 47.7929 3 4.05069e-16 -4.12244
11599 1 30.4977 30.2853 47.7929 3 1.0507e-16 -4.12244
11600 1 29.6734 30.2853 45.4616 3 1e-16 -4.12244
11601 1 32.1462 30.2853 45.4616 3 9.99999e-17 -4.12244
11602 1 31.3219 30.2853 43.1302 3 7.06819e-28 -4.12244
11603 1 33.7947 30.2853 43.1302 3 4.00001e-16 -4.12244
11604 1 32.9705 30.2853 40.7989 3 9.99999e-17 -4.12244
11605 1 35.4432 30.2853 40.7989 3 1e-16 -4.12244
11606 1 34.619 30.2853 38.4675 3 4e-16 -4.12244
11607 1 37.0918 30.2853 38.4675 3 1.00974e-28 -4.12244
11608 1 36.2675 30.2853 36.1361 3 1e-16 -4.12244
11609 1 38.7403 30.2853 36.1361 3 1e-16 -4.12244
11610 1 37.916 30.2853 33.8048 3 9.08768e-28 -4.12244
11611 1 40.3888 30.2853 33.8048 3 3.99999e-16 -4.12244
11612 1 39.5645 30.2853 31.4734 3 1e-16 -4.12244
11613 1 42.0373 30.2853 31.4734 3 1e-16 -4.12244
11614 1 41.2131 30.2853 29.142 3 4.00001e-16 -4.12244
11615 1 43.6859 30.2853 29.142 3 4.54384e-28 -4.12244
11616 1 42.8616 30.2853 26.8107 3 9.99999e-17 -4.12244
11617 1 45.3344 30.2853 26.8107 3 9.99999e-17 -4.12244
11618 1 44.5101 30.2853 24.4793 3 4.03897e-28 -4.12244
11619 1 46.9829 30.2853 24.4793 3 3.99999e-16 -4.12244
11620 1 46.1586 30.2853 22.1479 3 9.99999e-17 -4.12244
11621 1 48.6314 30.2853 22.1479 3 9.99999e-17 -4.12244
11622 1 47.8072 30.2853 19.8166 3 3.99999e-16 -4.12244
11623 1 50.2799 30.2853 19.8166 3 3.02923e-28 -4.12244
11624 1 49.4557 30.2853 17.4852 3 9.99999e-17 -4.12244
11625 1 51.9285 30.2853 17.4852 3 1e-16 -4.12244
11626 1 51.1042 30.2853 15.1539 3 9.99999e-17 -4.12244
11627 1 53.577 30.2853 15.1539 3 3.99999e-16 -4.12244
11628 1 52.7527 30.2853 12.8225 3 4.00001e-16 -4.12244
11629 1 55.2255 30.2853 12.8225 3 1e-16 -4.12244
11630 1 54.4012 30.2853 10.4911 3 1e-16 -4.12244
11631 1 56.874 30.2853 10.4911 3 1.00974e-28 -4.12244
11632 1 56.0498 30.2853 8.15977 3 1.13596e-28 -4.12244
11633 1 58.5226 30.2853 8.15977 3 9.99999e-17 -4.12244
11634 1 57.6983 30.2853 5.82841 3 1e-16 -4.12244
11635 1 60.1711 30.2853 5.82841 3 3.99999e-16 -4.12244
11636 1 59.3468 30.2853 3.49704 3 3.99999e-16 -4.12244
11637 1 61.8196 30.2853 3.49704 3 5.77599e-17 -4.12244
11638 1 60.9953 30.2853 1.16568 3 1.0169e-16 -4.12244
11639 1 63.4681 30.2853 1.16568 3 2.473e-17 -4.12244
11640 1 31.3219 28.2663 46.6273 3 1.69002e-18 -4.12244
11641 1 33.7947 28.2663 46.6273 3 4.01691e-16 -4.12244
11642 1 32.9705 28.2663 44.2959 3 9.99999e-17 -4.12244
11643 1 35.4432 28.2663 44.2959 3 1e-16 -4.12244
11644 1 34.619 28.2663 41.9645 3 4e-16 -4.12244
11645 1 37.0918 28.2663 41.9645 3 0 -4.12244
11646 1 36.2675 28.2663 39.6332 3 1e-16 -4.12244
11647 1 38.7403 28.2663 39.6332 3 1e-16 -4.12244
11648 1 37.916 28.2663 37.3018 3 8.07794e-28 -4.12244
11649 1 40.3888 28.2663 37.3018 3 3.99999e-16 -4.12244
11650 1 39.5645 28.2663 34.9704 3 1e-16 -4.12244
11651 1 42.0373 28.2663 34.9704 3 1e-16 -4.12244
11652 1 41.2131 28.2663 32.6391 3 4.00001e-16 -4.12244
11653 1 43.6859 28.2663 32.6391 3 4.03897e-28 -4.12244
11654 1 42.8616 28.2663 30.3077 3 9.99999e-17 -4.12244
11655 1 45.3344 28.2663 30.3077 3 9.99999e-17 -4.12244
11656 1 44.5101 28.2663 27.9764 3 3.5341e-28 -4.12244
11657 1 46.9829 28.2663 27.9764 3 3.99999e-16 -4.12244
11658 1 46.1586 28.2663 25.645 3 9.99999e-17 -4.12244
11659 1 48.6314 28.2663 25.645 3 9.99999e-17 -4.12244
11660 1 47.8072 28.2663 23.3136 3 3.99999e-16 -4.12244
11661 1 50.2799 28.2663 23.3136 3 2.01948e-28 -4.12244
11662 1 49.4557 28.2663 20.9823 3 9.99999e-17 -4.12244
11663 1 51.9285 28.2663 20.9823 3 1e-16 -4.12244
11664 1 51.1042 28.2663 18.6509 3 9.99999e-17 -4.12244
11665 1 53.577 28.2663 18.6509 3 3.99999e-16 -4.12244
11666 1 52.7527 28.2663 16.3195 3 4.00001e-16 -4.12244
11667 1 55.2255 28.2663 16.3195 3 1e-16 -4.12244
11668 1 54.4012 28.2663 13.9882 3 1e-16 -4.12244
11669 1 56.874 28.2663 13.9882 3 2.52435e-29 -4.12244
11670 1 56.0498 28.2663 11.6568 3 0 -4.12244
11671 1 58.5226 28.2663 11.6568 3 9.99999e-17 -4.12244
11672 1 57.6983 28.2663 9.32545 3 1e-16 -4.12244
11673 1 60.1711 28.2663 9.32545 3 3.99999e-16 -4.12244
11674 1 59.3468 28.2663 6.99409 3 3.99999e-16 -4.12244
11675 1 61.8196 28.2663 6.99409 3 5.77599e-17 -4.12244
11676 1 60.9953 28.2663 4.66273 3 9.99999e-17 -4.12244
11677 1 63.4681 28.2663 4.66273 3 2.304e-17 -4.12244
11678 1 62.6439 28.2663 2.33136 3 5.76e-18 -4.12244
11679 1 32.9705 26.2473 47.7929 3 1.0507e-16 -4.12244
11680 1 35.4432 26.2473 47.7929 3 1.0507e-16 -4.12244
11681 1 34.619 26.2473 45.4616 3 4e-16 -4.12244
11682 1 37.0918 26.2473 45.4616 3 1.00974e-28 -4.12244
11683 1 36.2675 26.2473 43.1302 3 1e-16 -4.12244
11684 1 38.7403 26.2473 43.1302 3 1e-16 -4.12244
11685 1 37.916 26.2473 40.7989 3 1.51461e-27 -4.12244
11686 1 40.3888 26.2473 40.7989 3 3.99999e-16 -4.12244
11687 1 39.5645 26.2473 38.4675 3 1e-16 -4.12244
11688 1 42.0373 26.2473 38.4675 3 1e-16 -4.12244
11689 1 41.2131 26.2473 36.1361 3 4.00001e-16 -4.12244
11690 1 43.6859 26.2473 36.1361 3 9.08768e-28 -4.12244
11691 1 42.8616 26.2473 33.8048 3 9.99999e-17 -4.12244
11692 1 45.3344 26.2473 33.8048 3 9.99999e-17 -4.12244
11693 1 44.5101 26.2473 31.4734 3 3.5341e-28 -4.12244
11694 1 46.9829 26.2473 31.4734 3 3.99999e-16 -4.12244
11695 1 46.1586 26.2473 29.142 3 9.99999e-17 -4.12244
11696 1 48.6314 26.2473 29.142 3 9.99999e-17 -4.12244
11697 1 47.8072 26.2473 26.8107 3 3.99999e-16 -4.12244
11698 1 50.2799 26.2473 26.8107 3 3.02923e-28 -4.12244
11699 1 49.4557 26.2473 24.4793 3 9.99999e-17 -4.12244
11700 1 51.9285 26.2473 24.4793 3 1e-16 -4.12244
11701 1 51.1042 26.2473 22.1479 3 9.99999e-17 -4.12244
11702 1 53.577 26.2473 22.1479 3 3.99999e-16 -4.12244
11703 1 52.7527 26.2473 19.8166 3 4.00001e-16 -4.12244
11704 1 55.2255 26.2473 19.8166 3 1e-16 -4.12244
11705 1 54.4012 26.2473 17.4852 3 1e-16 -4.12244
11706 1 56.874 26.2473 17.4852 3 2.01948e-28 -4.12244
11707 1 56.0498 26.2473 15.1539 3 1.00974e-28 -4.12244
11708 1 58.5226 26.2473 15.1539 3 9.99999e-17 -4.12244
11709 1 57.6983 26.2473 12.8225 3 1e-16 -4.12244
11710 1 60.1711 26.2473 12.8225 3 3.99999e-16 -4.12244
11711 1 59.3468 26.2473 10.4911 3 3.99999e-16 -4.12244
11712 1 61.8196 26.2473 10.4911 3 5.77599e-17 -4.12244
11713 1 60.9953 26.2473 8.15977 3 9.99999e-17 -4.12244
11714 1 63.4681 26.2473 8.15977 3 2.304e-17 -4.12244
11715 1 62.6439 26.2473 5.82841 3 5.76e-18 -4.12244
11716 1 36.2675 24.2282 46.6273 3 1.0169e-16 -4.12244
11717 1 38.7403 24.2282 46.6273 3 1.0169e-16 -4.12244
11718 1 37.916 24.2282 44.2959 3 8.07794e-28 -4.12244
11719 1 40.3888 24.2282 44.2959 3 3.99999e-16 -4.12244
11720 1 39.5645 24.2282 41.9645 3 1e-16 -4.12244
11721 1 42.0373 24.2282 41.9645 3 1e-16 -4.12244
11722 1 41.2131 24.2282 39.6332 3 4.00001e-16 -4.12244
11723 1 43.6859 24.2282 39.6332 3 2.01948e-28 -4.12244
11724 1 42.8616 24.2282 37.3018 3 9.99999e-17 -4.12244
11725 1 45.3344 24.2282 37.3018 3 9.99999e-17 -4.12244
11726 1 44.5101 24.2282 34.9704 3 4.03897e-28 -4.12244
11727 1 46.9829 24.2282 34.9704 3 3.99999e-16 -4.12244
11728 1 46.1586 24.2282 32.6391 3 9.99999e-17 -4.12244
11729 1 48.6314 24.2282 32.6391 3 9.99999e-17 -4.12244
11730 1 47.8072 24.2282 30.3077 3 3.99999e-16 -4.12244
11731 1 50.2799 24.2282 30.3077 3 2.01948e-28 -4.12244
11732 1 49.4557 24.2282 27.9764 3 9.99999e-17 -4.12244
11733 1 51.9285 24.2282 27.9764 3 1e-16 -4.12244
11734 1 51.1042 24.2282 25.645 3 9.99999e-17 -4.12244
11735 1 53.577 24.2282 25.645 3 3.99999e-16 -4.12244
11736 1 52.7527 24.2282 23.3136 3 4.00001e-16 -4.12244
11737 1 55.2255 24.2282 23.3136 3 1e-16 -4.12244
11738 1 54.4012 24.2282 20.9823 3 1e-16 -4.12244
11739 1 56.874 24.2282 20.9823 3 0 -4.12244
11740 1 56.0498 24.2282 18.6509 3 0 -4.12244
11741 1 58.5226 24.2282 18.6509 3 9.99999e-17 -4.12244
11742 1 57.6983 24.2282 16.3195 3 1e-16 -4.12244
11743 1 60.1711 24.2282 16.3195 3 3.99999e-16 -4.12244
11744 1 59.3468 24.2282 13.9882 3 3.99999e-16 -4.12244
11745 1 61.8196 24.2282 13.9882 3 5.77599e-17 -4.12244
11746 1 60.9953 24.2282 11.6568 3 9.99999e-17 -4.12244
11747 1 63.4681 24.2282 11.6568 3 2.304e-17 -4.12244
11748 1 62.6439 24.2282 9.32545 3 5.76e-18 -4.12244
11749 1 37.916 22.2092 47.7929 3 5.06996e-18 -4.12244
11750 1 40.3888 22.2092 47.7929 3 4.05069e-16 -4.12244
11751 1 39.5645 22.2092 45.4616 3 1e-16 -4.12244
11752 1 42.0373 22.2092 45.4616 3 1e-16 -4.12244
11753 1 41.2131 22.2092 43.1302 3 4.00001e-16 -4.12244
11754 1 43.6859 22.2092 43.1302 3 8.07794e-28 -4.12244
11755 1 42.8616 22.2092 40.7989 3 9.99999e-17 -4.12244
11756 1 45.3344 22.2092 40.7989 3 9.99999e-17 -4.12244
11757 1 44.5101 22.2092 38.4675 3 2.01948e-28 -4.12244
11758 1 46.9829 22.2092 38.4675 3 3.99999e-16 -4.12244
11759 1 46.1586 22.2092 36.1361 3 9.99999e-17 -4.12244
11760 1 48.6314 22.2092 36.1361 3 9.99999e-17 -4.12244
11761 1 47.8072 22.2092 33.8048 3 3.99999e-16 -4.12244
11762 1 50.2799 22.2092 33.8048 3 2.01948e-28 -4.12244
11763 1 49.4557 22.2092 31.4734 3 9.99999e-17 -4.12244
11764 1 51.9285 22.2092 31.4734 3 1e-16 -4.12244
11765 1 51.1042 22.2092 29.142 3 9.99999e-17 -4.12244
11766 1 53.577 22.2092 29.142 3 3.99999e-16 -4.12244
11767 1 52.7527 22.2092 26.8107 3 4.00001e-16 -4.12244
11768 1 55.2255 22.2092 26.8107 3 1e-16 -4.12244
11769 1 54.4012 22.2092 24.4793 3 1e-16 -4.12244
11770 1 56.874 22.2092 24.4793 3 1.00974e-28 -4.12244
11771 1 56.0498 22.2092 22.1479 3 0 -4.12244
11772 1 58.5226 22.2092 22.1479 3 9.99999e-17 -4.12244
11773 1 57.6983 22.2092 19.8166 3 1e-16 -4.12244
11774 1 60.1711 22.2092 19.8166 3 3.99999e-16 -4.12244
11775 1 59.3468 22.2092 17.4852 3 3.99999e-16 -4.12244
11776 1 61.8196 22.2092 17.4852 3 5.77599e-17 -4.12244
11777 1 60.9953 22.2092 15.1539 3 9.99999e-17 -4.12244
11778 1 63.4681 22.2092 15.1539 3 2.304e-17 -4.12244
11779 1 62.6439 22.2092 12.8225 3 5.76e-18 -4.12244
11780 1 41.2131 20.1902 46.6273 3 4.01691e-16 -4.12244
11781 1 43.6859 20.1902 46.6273 3 1.69002e-18 -4.12244
11782 1 42.8616 20.1902 44.2959 3 9.99999e-17 -4.12244
11783 1 45.3344 20.1902 44.2959 3 9.99999e-17 -4.12244
11784 1 44.5101 20.1902 41.9645 3 2.01948e-28 -4.12244
11785 1 46.9829 20.1902 41.9645 3 3.99999e-16 -4.12244
11786 1 46.1586 20.1902 39.6332 3 9.99999e-17 -4.12244
11787 1 48.6314 20.1902 39.6332 3 9.99999e-17 -4.12244
11788 1 47.8072 20.1902 37.3018 3 3.99999e-16 -4.12244
11789 1 50.2799 20.1902 37.3018 3 2.01948e-28 -4.12244
11790 1 49.4557 20.1902 34.9704 3 9.99999e-17 -4.12244
11791 1 51.9285 20.1902 34.9704 3 1e-16 -4.12244
11792 1 51.1042 20.1902 32.6391 3 9.99999e-17 -4.12244
11793 1 53.577 20.1902 32.6391 3 3.99999e-16 -4.12244
11794 1 52.7527 20.1902 30.3077 3 4.00001e-16 -4.12244
11795 1 55.2255 20.1902 30.3077 3 1e-16 -4.12244
11796 1 54.4012 20.1902 27.9764 3 1e-16 -4.12244
11797 1 56.874 20.1902 27.9764 3 1.51461e-28 -4.12244
11798 1 56.0498 20.1902 25.645 3 1.51461e-28 -4.12244
11799 1 58.5226 20.1902 25.645 3 9.99999e-17 -4.12244
11800 1 57.6983 20.1902 23.3136 3 1e-16 -4.12244
11801 1 60.1711 20.1902 23.3136 3 3.99999e-16 -4.12244
11802 1 59.3468 20.1902 20.9823 3 3.99999e-16 -4.12244
11803 1 61.8196 20.1902 20.9823 3 5.77599e-17 -4.12244
11804 1 60.9953 20.1902 18.6509 3 9.99999e-17 -4.12244
11805 1 63.4681 20.1902 18.6509 3 2.304e-17 -4.12244
11806 1 62.6439 20.1902 16.3195 3 5.76e-18 -4.12244
11807 1 42.8616 18.1712 47.7929 3 1.0507e-16 -4.12244
11808 1 45.3344 18.1712 47.7929 3 1.0507e-16 -4.12244
11809 1 44.5101 18.1712 45.4616 3 3.02923e-28 -4.12244
11810 1 46.9829 18.1712 45.4616 3 3.99999e-16 -4.12244
11811 1 46.1586 18.1712 43.1302 3 9.99999e-17 -4.12244
11812 1 48.6314 18.1712 43.1302 3 9.99999e-17 -4.12244
11813 1 47.8072 18.1712 40.7989 3 3.99999e-16 -4.12244
11814 1 50.2799 18.1712 40.7989 3 9.08768e-28 -4.12244
11815 1 49.4557 18.1712 38.4675 3 9.99999e-17 -4.12244
11816 1 51.9285 18.1712 38.4675 3 1e-16 -4.12244
11817 1 51.1042 18.1712 36.1361 3 9.99999e-17 -4.12244
11818 1 53.577 18.1712 36.1361 3 3.99999e-16 -4.12244
11819 1 52.7527 18.1712 33.8048 3 4.00001e-16 -4.12244
11820 1 55.2255 18.1712 33.8048 3 1e-16 -4.12244
11821 1 54.4012 18.1712 31.4734 3 1e-16 -4.12244
11822 1 56.874 18.1712 31.4734 3 1.51461e-28 -4.12244
11823 1 56.0498 18.1712 29.142 3 2.52435e-28 -4.12244
11824 1 58.5226 18.1712 29.142 3 9.99999e-17 -4.12244
11825 1 57.6983 18.1712 26.8107 3 1e-16 -4.12244
11826 1 60.1711 18.1712 26.8107 3 3.99999e-16 -4.12244
11827 1 59.3468 18.1712 24.4793 3 3.99999e-16 -4.12244
11828 1 61.8196 18.1712 24.4793 3 5.77599e-17 -4.12244
11829 1 60.9953 18.1712 22.1479 3 9.99999e-17 -4.12244
11830 1 63.4681 18.1712 22.1479 3 2.304e-17 -4.12244
11831 1 62.6439 18.1712 19.8166 3 5.76e-18 -4.12244
11832 1 46.1586 16.1522 46.6273 3 1.0169e-16 -4.12244
11833 1 48.6314 16.1522 46.6273 3 1.0169e-16 -4.12244
11834 1 47.8072 16.1522 44.2959 3 3.99999e-16 -4.12244
11835 1 50.2799 16.1522 44.2959 3 2.01948e-28 -4.12244
11836 1 49.4557 16.1522 41.9645 3 9.99999e-17 -4.12244
11837 1 51.9285 16.1522 41.9645 3 1e-16 -4.12244
11838 1 51.1042 16.1522 39.6332 3 9.99999e-17 -4.12244
11839 1 53.577 16.1522 39.6332 3 3.99999e-16 -4.12244
11840 1 52.7527 16.1522 37.3018 3 4.00001e-16 -4.12244
11841 1 55.2255 16.1522 37.3018 3 1e-16 -4.12244
11842 1 54.4012 16.1522 34.9704 3 1e-16 -4.12244
11843 1 56.874 16.1522 34.9704 3 2.01948e-28 -4.12244
11844 1 56.0498 16.1522 32.6391 3 2.01948e-28 -4.12244
11845 1 58.5226 16.1522 32.6391 3 9.99999e-17 -4.12244
11846 1 57.6983 16.1522 30.3077 3 1e-16 -4.12244
11847 1 60.1711 16.1522 30.3077 3 3.99999e-16 -4.12244
11848 1 59.3468 16.1522 27.9764 3 3.99999e-16 -4.12244
11849 1 61.8196 16.1522 27.9764 3 5.77599e-17 -4.12244
11850 1 60.9953 16.1522 25.645 3 9.99999e-17 -4.12244
11851 1 63.4681 16.1522 25.645 3 2.304e-17 -4.12244
11852 1 62.6439 16.1522 23.3136 3 5.76e-18 -4.12244
11853 1 47.8072 14.1331 47.7929 3 4.05069e-16 -4.12244
11854 1 50.2799 14.1331 47.7929 3 5.06996e-18 -4.12244
11855 1 49.4557 14.1331 45.4616 3 9.99999e-17 -4.12244
11856 1 51.9285 14.1331 45.4616 3 1e-16 -4.12244
11857 1 51.1042 14.1331 43.1302 3 9.99999e-17 -4.12244
11858 1 53.577 14.1331 43.1302 3 3.99999e-16 -4.12244
11859 1 52.7527 14.1331 40.7989 3 4.00001e-16 -4.12244
11860 1 55.2255 14.1331 40.7989 3 1e-16 -4.12244
11861 1 54.4012 14.1331 38.4675 3 1e-16 -4.12244
11862 1 56.874 14.1331 38.4675 3 0 -4.12244
11863 1 56.0498 14.1331 36.1361 3 6.05845e-28 -4.12244
11864 1 58.5226 14.1331 36.1361 3 9.99999e-17 -4.12244
11865 1 57.6983 14.1331 33.8048 3 1e-16 -4.12244
11866 1 60.1711 14.1331 33.8048 3 3.99999e-16 -4.12244
11867 1 59.3468 14.1331 31.4734 3 3.99999e-16 -4.12244
11868 1 61.8196 14.1331 31.4734 3 5.77599e-17 -4.12244
11869 1 60.9953 14.1331 29.142 3 9.99999e-17 -4.12244
11870 1 63.4681 14.1331 29.142 3 2.304e-17 -4.12244
11871 1 62.6439 14.1331 26.8107 3 5.76e-18 -4.12244
11872 1 51.1042 12.1141 46.6273 3 1.0169e-16 -4.12244
11873 1 53.577 12.1141 46.6273 3 4.0169e-16 -4.12244
11874 1 52.7527 12.1141 44.2959 3 4.00001e-16 -4.12244
11875 1 55.2255 12.1141 44.2959 3 1e-16 -4.12244
11876 1 54.4012 12.1141 41.9645 3 1e-16 -4.12244
11877 1 56.874 12.1141 41.9645 3 0 -4.12244
11878 1 56.0498 12.1141 39.6332 3 0 -4.12244
11879 1 58.5226 12.1141 39.6332 3 9.99999e-17 -4.12244
11880 1 57.6983 12.1141 37.3018 3 1e-16 -4.12244
11881 1 60.1711 12.1141 37.3018 3 3.99999e-16 -4.12244
11882 1 59.3468 12.1141 34.9704 3 3.99999e-16 -4.12244
11883 1 61.8196 12.1141 34.9704 3 5.77599e-17 -4.12244
11884 1 60.9953 12.1141 32.6391 3 9.99999e-17 -4.12244
11885 1 63.4681 12.1141 32.6391 3 2.304e-17 -4.12244
11886 1 62.6439 12.1141 30.3077 3 5.76e-18 -4.12244
11887 1 52.7527 10.0951 47.7929 3 4.05071e-16 -4.12244
11888 1 55.2255 10.0951 47.7929 3 1.0507e-16 -4.12244
11889 1 54.4012 10.0951 45.4616 3 1e-16 -4.12244
11890 1 56.874 10.0951 45.4616 3 0 -4.12244
11891 1 56.0498 10.0951 43.1302 3 6.05845e-28 -4.12244
11892 1 58.5226 10.0951 43.1302 3 9.99999e-17 -4.12244
11893 1 57.6983 10.0951 40.7989 3 1e-16 -4.12244
11894 1 60.1711 10.0951 40.7989 3 3.99999e-16 -4.12244
11895 1 59.3468 10.0951 38.4675 3 3.99999e-16 -4.12244
11896 1 61.8196 10.0951 38.4675 3 5.77599e-17 -4.12244
11897 1 60.9953 10.0951 36.1361 3 9.99999e-17 -4.12244
11898 1 63.4681 10.0951 36.1361 3 2.304e-17 -4.12244
11899 1 62.6439 10.0951 33.8048 3 5.76e-18 -4.12244
11900 1 56.0498 8.07608 46.6273 3 1.69002e-18 -4.12244
11901 1 58.5226 8.07608 46.6273 3 1.0169e-16 -4.12244
11902 1 57.6983 8.07608 44.2959 3 1e-16 -4.12244
11903 1 60.1711 8.07608 44.2959 3 3.99999e-16 -4.12244
11904 1 59.3468 8.07608 41.9645 3 3.99999e-16 -4.12244
11905 1 61.8196 8.07608 41.9645 3 5.77599e-17 -4.12244
11906 1 60.9953 8.07608 39.6332 3 9.99999e-17 -4.12244
11907 1 63.4681 8.07608 39.6332 3 2.304e-17 -4.12244
11908 1 62.6439 8.07608 37.3018 3 5.76e-18 -4.12244
11909 1 57.6983 6.05706 47.7929 3 1.0507e-16 -4.12244
11910 1 60.1711 6.05706 47.7929 3 4.05069e-16 -4.12244
11911 1 59.3468 6.05706 45.4616 3 3.99999e-16 -4.12244
11912 1 61.8196 6.05706 45.4616 3 5.77599e-17 -4.12244
11913 1 60.9953 6.05706 43.1302 3 9.99999e-17 -4.12244
11914 1 63.4681 6.05706 43.1302 3 2.304e-17 -4.12244
11915 1 62.6439 6.05706 40.7989 3 5.76e-18 -4.12244
11916 1 60.9953 4.03804 46.6273 3 1.0169e-16 -4.12244
11917 1 63.4681 4.03804 46.6273 3 2.473e-17 -4.12244
11918 1 62.6439 4.03804 44.2959 3 5.76e-18 -4.12244
11919 1 62.6439 2.01902 47.7929 3 1.083e-17 -4.10627
11920 1 0.824261 62.5896 40.7989 5 12.2293 -3.54465
11921 1 0 62.5896 38.4675 5 12.2293 -3.54465
11922 1 2.47278 62.5896 38.4675 5 12.2293 -3.54465
11923 1 1.64852 62.5896 36.1361 5 12.2293 -3.54465
11924 1 4.12131 62.5896 36.1361 5 12.2293 -3.54465
11925 1 3.29705 62.5896 33.8048 5 12.2293 -3.54465
11926 1 5.76983 62.5896 33.8048 5 12.2293 -3.54465
11927 1 4.94557 62.5896 31.4734 5 12.2293 -3.54465
11928 1 7.41835 62.5896 31.4734 5 12.2293 -3.54465
11929 1 6.59409 62.5896 29.142 5 12.2293 -3.54465
11930 1 9.06687 62.5896 29.142 5 12.2293 -3.54465
11931 1 8.24261 62.5896 26.8107 5 12.2293 -3.54465
11932 1 10.7154 62.5896 26.8107 5 12.2293 -3.54465
11933 1 9.89114 62.5896 24.4793 5 12.2293 -3.54465
11934 1 12.3639 62.5896 24.4793 5 12.2293 -3.54465
11935 1 11.5397 62.5896 22.1479 5 12.2293 -3.54465
11936 1 14.0124 62.5896 22.1479 5 12.2293 -3.54465
11937 1 13.1882 62.5896 19.8166 5 12.2293 -3.54465
11938 1 15.661 62.5896 19.8166 5 12.2293 -3.54465
11939 1 14.8367 62.5896 17.4852 5 12.2293 -3.54465
11940 1 17.3095 62.5896 17.4852 5 12.2293 -3.54465
11941 1 16.4852 62.5896 15.1539 5 12.2293 -3.54465
11942 1 18.958 62.5896 15.1539 5 12.2293 -3.54465
11943 1 18.1337 62.5896 12.8225 5 12.2293 -3.54465
11944 1 20.6065 62.5896 12.8225 5 12.2293 -3.54465
11945 1 19.7823 62.5896 10.4911 5 12.2293 -3.54465
11946 1 22.2551 62.5896 10.4911 5 12.2293 -3.54465
11947 1 21.4308 62.5896 8.15977 5 12.2293 -3.54465
11948 1 23.9036 62.5896 8.15977 5 12.2293 -3.54465
11949 1 23.0793 62.5896 5.82841 5 12.2293 -3.54465
11950 1 25.5521 62.5896 5.82841 5 12.2293 -3.54465
11951 1 24.7278 62.5896 3.49704 5 12.2293 -3.54465
11952 1 27.2006 62.5896 3.49704 5 12.2293 -3.54465
11953 1 26.3764 62.5896 1.16568 5 12.2293 -3.54465
11954 1 28.8491 62.5896 1.16568 5 12.2293 -3.54465
11955 1 0.824261 60.5706 44.2959 3 5.776e-17 -4.10627
11956 1 0 60.5706 41.9645 3 2.304e-17 -4.10627
11957 1 2.47278 60.5706 41.9645 3 4e-16 -4.10627
11958 1 1.64852 60.5706 39.6332 3 5.776e-17 -4.10627
11959 1 4.12131 60.5706 39.6332 3 1e-16 -4.10627
11960 1 3.29705 60.5706 37.3018 3 4e-16 -4.10627
11961 1 5.76983 60.5706 37.3018 3 4.03897e-28 -4.10627
11962 1 4.94557 60.5706 34.9704 3 1e-16 -4.10627
11963 1 7.41835 60.5706 34.9704 3 1e-16 -4.10627
11964 1 6.59409 60.5706 32.6391 3 6.05845e-28 -4.10627
11965 1 9.06687 60.5706 32.6391 3 4e-16 -4.10627
11966 1 8.24261 60.5706 30.3077 3 9.99999e-17 -4.10627
11967 1 10.7154 60.5706 30.3077 3 1e-16 -4.10627
11968 1 9.89114 60.5706 27.9764 3 4e-16 -4.10627
11969 1 12.3639 60.5706 27.9764 3 5.55358e-28 -4.10627
11970 1 11.5397 60.5706 25.645 3 1e-16 -4.10627
11971 1 14.0124 60.5706 25.645 3 1e-16 -4.10627
11972 1 13.1882 60.5706 23.3136 3 4.03897e-28 -4.10627
11973 1 15.661 60.5706 23.3136 3 4e-16 -4.10627
11974 1 14.8367 60.5706 20.9823 3 9.99999e-17 -4.10627
11975 1 17.3095 60.5706 20.9823 3 1e-16 -4.10627
11976 1 16.4852 60.5706 18.6509 3 4e-16 -4.10627
11977 1 18.958 60.5706 18.6509 3 6.05845e-28 -4.10627
11978 1 18.1337 60.5706 16.3195 3 1e-16 -4.10627
11979 1 20.6065 60.5706 16.3195 3 1e-16 -4.10627
11980 1 19.7823 60.5706 13.9882 3 1e-16 -4.10627
11981 1 22.2551 60.5706 13.9882 3 4e-16 -4.10627
11982 1 21.4308 60.5706 11.6568 3 4e-16 -4.10627
11983 1 23.9036 60.5706 11.6568 3 1e-16 -4.10627
11984 1 23.0793 60.5706 9.32545 3 1e-16 -4.10627
11985 1 25.5521 60.5706 9.32545 3 5.55358e-28 -4.10627
11986 1 24.7278 60.5706 6.99409 3 4.03897e-28 -4.10627
11987 1 27.2006 60.5706 6.99409 3 1e-16 -4.10627
11988 1 26.3764 60.5706 4.66273 3 1e-16 -4.10627
11989 1 28.8491 60.5706 4.66273 3 4e-16 -4.10627
11990 1 28.0249 60.5706 2.33136 3 3.99999e-16 -4.10627
11991 1 30.4977 60.5706 2.33136 3 9.99999e-17 -4.10627
11992 1 29.6734 60.5706 0 3 1.0507e-16 -4.10627
11993 1 32.1462 60.5706 0 3 1.0507e-16 -4.10627
11994 1 0.824261 58.5516 47.7929 3 6.28299e-17 -4.12244
11995 1 0 58.5516 45.4616 3 2.304e-17 -4.12244
11996 1 2.47278 58.5516 45.4616 3 4e-16 -4.12244
11997 1 1.64852 58.5516 43.1302 3 5.776e-17 -4.12244
11998 1 4.12131 58.5516 43.1302 3 1e-16 -4.12244
11999 1 3.29705 58.5516 40.7989 3 4e-16 -4.12244
12000 1 5.76983 58.5516 40.7989 3 6.05845e-28 -4.12244
12001 1 4.94557 58.5516 38.4675 3 1e-16 -4.12244
12002 1 7.41835 58.5516 38.4675 3 1e-16 -4.12244
12003 1 6.59409 58.5516 36.1361 3 6.05845e-28 -4.12244
12004 1 9.06687 58.5516 36.1361 3 4e-16 -4.12244
12005 1 8.24261 58.5516 33.8048 3 9.99999e-17 -4.12244
12006 1 10.7154 58.5516 33.8048 3 1e-16 -4.12244
12007 1 9.89114 58.5516 31.4734 3 4e-16 -4.12244
12008 1 12.3639 58.5516 31.4734 3 5.04871e-29 -4.12244
12009 1 11.5397 58.5516 29.142 3 1e-16 -4.12244
12010 1 14.0124 58.5516 29.142 3 1e-16 -4.12244
12011 1 13.1882 58.5516 26.8107 3 0 -4.12244
12012 1 15.661 58.5516 26.8107 3 4e-16 -4.12244
12013 1 14.8367 58.5516 24.4793 3 9.99999e-17 -4.12244
12014 1 17.3095 58.5516 24.4793 3 1e-16 -4.12244
12015 1 16.4852 58.5516 22.1479 3 4e-16 -4.12244
12016 1 18.958 58.5516 22.1479 3 2.01948e-28 -4.12244
12017 1 18.1337 58.5516 19.8166 3 1e-16 -4.12244
12018 1 20.6065 58.5516 19.8166 3 1e-16 -4.12244
12019 1 19.7823 58.5516 17.4852 3 1e-16 -4.12244
12020 1 22.2551 58.5516 17.4852 3 4e-16 -4.12244
12021 1 21.4308 58.5516 15.1539 3 4e-16 -4.12244
12022 1 23.9036 58.5516 15.1539 3 1e-16 -4.12244
12023 1 23.0793 58.5516 12.8225 3 1e-16 -4.12244
12024 1 25.5521 58.5516 12.8225 3 1.89327e-28 -4.12244
12025 1 24.7278 58.5516 10.4911 3 0 -4.12244
12026 1 27.2006 58.5516 10.4911 3 1e-16 -4.12244
12027 1 26.3764 58.5516 8.15977 3 1e-16 -4.12244
12028 1 28.8491 58.5516 8.15977 3 4e-16 -4.12244
12029 1 28.0249 58.5516 5.82841 3 3.99999e-16 -4.12244
12030 1 30.4977 58.5516 5.82841 3 9.99999e-17 -4.12244
12031 1 29.6734 58.5516 3.49704 3 1e-16 -4.12244
12032 1 32.1462 58.5516 3.49704 3 9.99999e-17 -4.12244
12033 1 31.3219 58.5516 1.16568 3 1.69e-18 -4.12244
12034 1 33.7947 58.5516 1.16568 3 4.01691e-16 -4.12244
12035 1 1.64852 56.5326 46.6273 3 5.945e-17 -4.12244
12036 1 4.12131 56.5326 46.6273 3 1.0169e-16 -4.12244
12037 1 3.29705 56.5326 44.2959 3 4e-16 -4.12244
12038 1 5.76983 56.5326 44.2959 3 0 -4.12244
12039 1 4.94557 56.5326 41.9645 3 1e-16 -4.12244
12040 1 7.41835 56.5326 41.9645 3 1e-16 -4.12244
12041 1 6.59409 56.5326 39.6332 3 0 -4.12244
12042 1 9.06687 56.5326 39.6332 3 4e-16 -4.12244
12043 1 8.24261 56.5326 37.3018 3 9.99999e-17 -4.12244
12044 1 10.7154 56.5326 37.3018 3 1e-16 -4.12244
12045 1 9.89114 56.5326 34.9704 3 4e-16 -4.12244
12046 1 12.3639 56.5326 34.9704 3 2.01948e-28 -4.12244
12047 1 11.5397 56.5326 32.6391 3 1e-16 -4.12244
12048 1 14.0124 56.5326 32.6391 3 1e-16 -4.12244
12049 1 13.1882 56.5326 30.3077 3 0 -4.12244
12050 1 15.661 56.5326 30.3077 3 4e-16 -4.12244
12051 1 14.8367 56.5326 27.9764 3 9.99999e-17 -4.12244
12052 1 17.3095 56.5326 27.9764 3 1e-16 -4.12244
12053 1 16.4852 56.5326 25.645 3 4e-16 -4.12244
12054 1 18.958 56.5326 25.645 3 3.5341e-28 -4.12244
12055 1 18.1337 56.5326 23.3136 3 1e-16 -4.12244
12056 1 20.6065 56.5326 23.3136 3 1e-16 -4.12244
12057 1 19.7823 56.5326 20.9823 3 1e-16 -4.12244
12058 1 22.2551 56.5326 20.9823 3 4e-16 -4.12244
12059 1 21.4308 56.5326 18.6509 3 4e-16 -4.12244
12060 1 23.9036 56.5326 18.6509 3 1e-16 -4.12244
12061 1 23.0793 56.5326 16.3195 3 1e-16 -4.12244
12062 1 25.5521 56.5326 16.3195 3 2.52435e-28 -4.12244
12063 1 24.7278 56.5326 13.9882 3 2.52435e-29 -4.12244
12064 1 27.2006 56.5326 13.9882 3 1e-16 -4.12244
12065 1 26.3764 56.5326 11.6568 3 1e-16 -4.12244
12066 1 28.8491 56.5326 11.6568 3 4e-16 -4.12244
12067 1 28.0249 56.5326 9.32545 3 3.99999e-16 -4.12244
12068 1 30.4977 56.5326 9.32545 3 9.99999e-17 -4.12244
12069 1 29.6734 56.5326 6.99409 3 1e-16 -4.12244
12070 1 32.1462 56.5326 6.99409 3 9.99999e-17 -4.12244
12071 1 31.3219 56.5326 4.66273 3 0 -4.12244
12072 1 33.7947 56.5326 4.66273 3 4.00001e-16 -4.12244
12073 1 32.9705 56.5326 2.33136 3 9.99999e-17 -4.12244
12074 1 35.4432 56.5326 2.33136 3 1e-16 -4.12244
12075 1 34.619 56.5326 0 3 4.0507e-16 -4.12244
12076 1 37.0918 56.5326 0 3 5.07001e-18 -4.12244
12077 1 3.29705 54.5135 47.7929 3 4.0507e-16 -4.12244
12078 1 5.76983 54.5135 47.7929 3 5.06996e-18 -4.12244
12079 1 4.94557 54.5135 45.4616 3 1e-16 -4.12244
12080 1 7.41835 54.5135 45.4616 3 1e-16 -4.12244
12081 1 6.59409 54.5135 43.1302 3 6.05845e-28 -4.12244
12082 1 9.06687 54.5135 43.1302 3 4e-16 -4.12244
12083 1 8.24261 54.5135 40.7989 3 9.99999e-17 -4.12244
12084 1 10.7154 54.5135 40.7989 3 1e-16 -4.12244
12085 1 9.89114 54.5135 38.4675 3 4e-16 -4.12244
12086 1 12.3639 54.5135 38.4675 3 0 -4.12244
12087 1 11.5397 54.5135 36.1361 3 1e-16 -4.12244
12088 1 14.0124 54.5135 36.1361 3 1e-16 -4.12244
12089 1 13.1882 54.5135 33.8048 3 0 -4.12244
12090 1 15.661 54.5135 33.8048 3 4e-16 -4.12244
12091 1 14.8367 54.5135 31.4734 3 9.99999e-17 -4.12244
12092 1 17.3095 54.5135 31.4734 3 1e-16 -4.12244
12093 1 16.4852 54.5135 29.142 3 4e-16 -4.12244
12094 1 18.958 54.5135 29.142 3 3.5341e-28 -4.12244
12095 1 18.1337 54.5135 26.8107 3 1e-16 -4.12244
12096 1 20.6065 54.5135 26.8107 3 1e-16 -4.12244
12097 1 19.7823 54.5135 24.4793 3 1e-16 -4.12244
12098 1 22.2551 54.5135 24.4793 3 4e-16 -4.12244
12099 1 21.4308 54.5135 22.1479 3 4e-16 -4.12244
12100 1 23.9036 54.5135 22.1479 3 1e-16 -4.12244
12101 1 23.0793 54.5135 19.8166 3 1e-16 -4.12244
12102 1 25.5521 54.5135 19.8166 3 1.51461e-28 -4.12244
12103 1 24.7278 54.5135 17.4852 3 1.00974e-28 -4.12244
12104 1 27.2006 54.5135 17.4852 3 1e-16 -4.12244
12105 1 26.3764 54.5135 15.1539 3 1e-16 -4.12244
12106 1 28.8491 54.5135 15.1539 3 4e-16 -4.12244
12107 1 28.0249 54.5135 12.8225 3 3.99999e-16 -4.12244
12108 1 30.4977 54.5135 12.8225 3 9.99999e-17 -4.12244
12109 1 29.6734 54.5135 10.4911 3 1e-16 -4.12244
12110 1 32.1462 54.5135 10.4911 3 9.99999e-17 -4.12244
12111 1 31.3219 54.5135 8.15977 3 1.26218e-29 -4.12244
12112 1 33.7947 54.5135 8.15977 3 4.00001e-16 -4.12244
12113 1 32.9705 54.5135 5.82841 3 9.99999e-17 -4.12244
12114 1 35.4432 54.5135 5.82841 3 1e-16 -4.12244
12115 1 34.619 54.5135 3.49704 3 4e-16 -4.12244
12116 1 37.0918 54.5135 3.49704 3 7.88861e-31 -4.12244
12117 1 36.2675 54.5135 1.16568 3 1.0169e-16 -4.12244
12118 1 38.7403 54.5135 1.16568 3 1.0169e-16 -4.12244
12119 1 6.59409 52.4945 46.6273 3 1.69002e-18 -4.12244
12120 1 9.06687 52.4945 46.6273 3 4.0169e-16 -4.12244
12121 1 8.24261 52.4945 44.2959 3 9.99999e-17 -4.12244
12122 1 10.7154 52.4945 44.2959 3 1e-16 -4.12244
12123 1 9.89114 52.4945 41.9645 3 4e-16 -4.12244
12124 1 12.3639 52.4945 41.9645 3 0 -4.12244
12125 1 11.5397 52.4945 39.6332 3 1e-16 -4.12244
12126 1 14.0124 52.4945 39.6332 3 1e-16 -4.12244
12127 1 13.1882 52.4945 37.3018 3 0 -4.12244
12128 1 15.661 52.4945 37.3018 3 4e-16 -4.12244
12129 1 14.8367 52.4945 34.9704 3 9.99999e-17 -4.12244
12130 1 17.3095 52.4945 34.9704 3 1e-16 -4.12244
12131 1 16.4852 52.4945 32.6391 3 4e-16 -4.12244
12132 1 18.958 52.4945 32.6391 3 4.03897e-28 -4.12244
12133 1 18.1337 52.4945 30.3077 3 1e-16 -4.12244
12134 1 20.6065 52.4945 30.3077 3 1e-16 -4.12244
12135 1 19.7823 52.4945 27.9764 3 1e-16 -4.12244
12136 1 22.2551 52.4945 27.9764 3 4e-16 -4.12244
12137 1 21.4308 52.4945 25.645 3 4e-16 -4.12244
12138 1 23.9036 52.4945 25.645 3 1e-16 -4.12244
12139 1 23.0793 52.4945 23.3136 3 1e-16 -4.12244
12140 1 25.5521 52.4945 23.3136 3 1.51461e-28 -4.12244
12141 1 24.7278 52.4945 20.9823 3 0 -4.12244
12142 1 27.2006 52.4945 20.9823 3 1e-16 -4.12244
12143 1 26.3764 52.4945 18.6509 3 1e-16 -4.12244
12144 1 28.8491 52.4945 18.6509 3 4e-16 -4.12244
12145 1 28.0249 52.4945 16.3195 3 3.99999e-16 -4.12244
12146 1 30.4977 52.4945 16.3195 3 9.99999e-17 -4.12244
12147 1 29.6734 52.4945 13.9882 3 1e-16 -4.12244
12148 1 32.1462 52.4945 13.9882 3 9.99999e-17 -4.12244
12149 1 31.3219 52.4945 11.6568 3 0 -4.12244
12150 1 33.7947 52.4945 11.6568 3 4.00001e-16 -4.12244
12151 1 32.9705 52.4945 9.32545 3 9.99999e-17 -4.12244
12152 1 35.4432 52.4945 9.32545 3 1e-16 -4.12244
12153 1 34.619 52.4945 6.99409 3 4e-16 -4.12244
12154 1 37.0918 52.4945 6.99409 3 0 -4.12244
12155 1 36.2675 52.4945 4.66273 3 1e-16 -4.12244
12156 1 38.7403 52.4945 4.66273 3 1e-16 -4.12244
12157 1 37.916 52.4945 2.33136 3 8.07794e-28 -4.12244
12158 1 40.3888 52.4945 2.33136 3 3.99999e-16 -4.12244
12159 1 39.5645 52.4945 0 3 1.0507e-16 -4.12244
12160 1 42.0373 52.4945 0 3 1.0507e-16 -4.12244
12161 1 8.24261 50.4755 47.7929 3 1.0507e-16 -4.12244
12162 1 10.7154 50.4755 47.7929 3 1.0507e-16 -4.12244
12163 1 9.89114 50.4755 45.4616 3 4e-16 -4.12244
12164 1 12.3639 50.4755 45.4616 3 0 -4.12244
12165 1 11.5397 50.4755 43.1302 3 1e-16 -4.12244
12166 1 14.0124 50.4755 43.1302 3 1e-16 -4.12244
12167 1 13.1882 50.4755 40.7989 3 6.05845e-28 -4.12244
12168 1 15.661 50.4755 40.7989 3 4e-16 -4.12244
12169 1 14.8367 50.4755 38.4675 3 9.99999e-17 -4.12244
12170 1 17.3095 50.4755 38.4675 3 1e-16 -4.12244
12171 1 16.4852 50.4755 36.1361 3 4e-16 -4.12244
12172 1 18.958 50.4755 36.1361 3 8.07794e-28 -4.12244
12173 1 18.1337 50.4755 33.8048 3 1e-16 -4.12244
12174 1 20.6065 50.4755 33.8048 3 1e-16 -4.12244
12175 1 19.7823 50.4755 31.4734 3 1e-16 -4.12244
12176 1 22.2551 50.4755 31.4734 3 4e-16 -4.12244
12177 1 21.4308 50.4755 29.142 3 4e-16 -4.12244
12178 1 23.9036 50.4755 29.142 3 1e-16 -4.12244
12179 1 23.0793 50.4755 26.8107 3 1e-16 -4.12244
12180 1 25.5521 50.4755 26.8107 3 1.51461e-28 -4.12244
12181 1 24.7278 50.4755 24.4793 3 1.00974e-28 -4.12244
12182 1 27.2006 50.4755 24.4793 3 1e-16 -4.12244
12183 1 26.3764 50.4755 22.1479 3 1e-16 -4.12244
12184 1 28.8491 50.4755 22.1479 3 4e-16 -4.12244
12185 1 28.0249 50.4755 19.8166 3 3.99999e-16 -4.12244
12186 1 30.4977 50.4755 19.8166 3 9.99999e-17 -4.12244
12187 1 29.6734 50.4755 17.4852 3 1e-16 -4.12244
12188 1 32.1462 50.4755 17.4852 3 9.99999e-17 -4.12244
12189 1 31.3219 50.4755 15.1539 3 0 -4.12244
12190 1 33.7947 50.4755 15.1539 3 4.00001e-16 -4.12244
12191 1 32.9705 50.4755 12.8225 3 9.99999e-17 -4.12244
12192 1 35.4432 50.4755 12.8225 3 1e-16 -4.12244
12193 1 34.619 50.4755 10.4911 3 4e-16 -4.12244
12194 1 37.0918 50.4755 10.4911 3 0 -4.12244
12195 1 36.2675 50.4755 8.15977 3 1e-16 -4.12244
12196 1 38.7403 50.4755 8.15977 3 1e-16 -4.12244
12197 1 37.916 50.4755 5.82841 3 8.10949e-28 -4.12244
12198 1 40.3888 50.4755 5.82841 3 3.99999e-16 -4.12244
12199 1 39.5645 50.4755 3.49704 3 1e-16 -4.12244
12200 1 42.0373 50.4755 3.49704 3 1e-16 -4.12244
12201 1 41.2131 50.4755 1.16568 3 4.01691e-16 -4.12244
12202 1 43.6859 50.4755 1.16568 3 1.69e-18 -4.12244
12203 1 11.5397 48.4565 46.6273 3 1.0169e-16 -4.12244
12204 1 14.0124 48.4565 46.6273 3 1.0169e-16 -4.12244
12205 1 13.1882 48.4565 44.2959 3 0 -4.12244
12206 1 15.661 48.4565 44.2959 3 4e-16 -4.12244
12207 1 14.8367 48.4565 41.9645 3 9.99999e-17 -4.12244
12208 1 17.3095 48.4565 41.9645 3 1e-16 -4.12244
12209 1 16.4852 48.4565 39.6332 3 4e-16 -4.12244
12210 1 18.958 48.4565 39.6332 3 2.01948e-28 -4.12244
12211 1 18.1337 48.4565 37.3018 3 1e-16 -4.12244
12212 1 20.6065 48.4565 37.3018 3 1e-16 -4.12244
12213 1 19.7823 48.4565 34.9704 3 1e-16 -4.12244
12214 1 22.2551 48.4565 34.9704 3 4e-16 -4.12244
12215 1 21.4308 48.4565 32.6391 3 4e-16 -4.12244
12216 1 23.9036 48.4565 32.6391 3 1e-16 -4.12244
12217 1 23.0793 48.4565 30.3077 3 1e-16 -4.12244
12218 1 25.5521 48.4565 30.3077 3 1.51461e-28 -4.12244
12219 1 24.7278 48.4565 27.9764 3 1.51461e-28 -4.12244
12220 1 27.2006 48.4565 27.9764 3 1e-16 -4.12244
12221 1 26.3764 48.4565 25.645 3 1e-16 -4.12244
12222 1 28.8491 48.4565 25.645 3 4e-16 -4.12244
12223 1 28.0249 48.4565 23.3136 3 3.99999e-16 -4.12244
12224 1 30.4977 48.4565 23.3136 3 9.99999e-17 -4.12244
12225 1 29.6734 48.4565 20.9823 3 1e-16 -4.12244
12226 1 32.1462 48.4565 20.9823 3 9.99999e-17 -4.12244
12227 1 31.3219 48.4565 18.6509 3 0 -4.12244
12228 1 33.7947 48.4565 18.6509 3 4.00001e-16 -4.12244
12229 1 32.9705 48.4565 16.3195 3 9.99999e-17 -4.12244
12230 1 35.4432 48.4565 16.3195 3 1e-16 -4.12244
12231 1 34.619 48.4565 13.9882 3 4e-16 -4.12244
12232 1 37.0918 48.4565 13.9882 3 2.52435e-29 -4.12244
12233 1 36.2675 48.4565 11.6568 3 1e-16 -4.12244
12234 1 38.7403 48.4565 11.6568 3 1e-16 -4.12244
12235 1 37.916 48.4565 9.32545 3 8.07794e-28 -4.12244
12236 1 40.3888 48.4565 9.32545 3 3.99999e-16 -4.12244
12237 1 39.5645 48.4565 6.99409 3 1e-16 -4.12244
12238 1 42.0373 48.4565 6.99409 3 1e-16 -4.12244
12239 1 41.2131 48.4565 4.66273 3 4.00001e-16 -4.12244
12240 1 43.6859 48.4565 4.66273 3 2.01948e-28 -4.12244
12241 1 42.8616 48.4565 2.33136 3 9.99999e-17 -4.12244
12242 1 45.3344 48.4565 2.33136 3 9.99999e-17 -4.12244
12243 1 44.5101 48.4565 0 3 5.07001e-18 -4.12244
12244 1 46.9829 48.4565 0 3 4.0507e-16 -4.12244
12245 1 13.1882 46.4375 47.7929 3 5.06996e-18 -4.12244
12246 1 15.661 46.4375 47.7929 3 4.0507e-16 -4.12244
12247 1 14.8367 46.4375 45.4616 3 9.99999e-17 -4.12244
12248 1 17.3095 46.4375 45.4616 3 1e-16 -4.12244
12249 1 16.4852 46.4375 43.1302 3 4e-16 -4.12244
12250 1 18.958 46.4375 43.1302 3 8.07794e-28 -4.12244
12251 1 18.1337 46.4375 40.7989 3 1e-16 -4.12244
12252 1 20.6065 46.4375 40.7989 3 1e-16 -4.12244
12253 1 19.7823 46.4375 38.4675 3 1e-16 -4.12244
12254 1 22.2551 46.4375 38.4675 3 4e-16 -4.12244
12255 1 21.4308 46.4375 36.1361 3 4e-16 -4.12244
12256 1 23.9036 46.4375 36.1361 3 1e-16 -4.12244
12257 1 23.0793 46.4375 33.8048 3 1e-16 -4.12244
12258 1 25.5521 46.4375 33.8048 3 1.51461e-28 -4.12244
12259 1 24.7278 46.4375 31.4734 3 5.04871e-29 -4.12244
12260 1 27.2006 46.4375 31.4734 3 1e-16 -4.12244
12261 1 26.3764 46.4375 29.142 3 1e-16 -4.12244
12262 1 28.8491 46.4375 29.142 3 4e-16 -4.12244
12263 1 28.0249 46.4375 26.8107 3 3.99999e-16 -4.12244
12264 1 30.4977 46.4375 26.8107 3 9.99999e-17 -4.12244
12265 1 29.6734 46.4375 24.4793 3 1e-16 -4.12244
12266 1 32.1462 46.4375 24.4793 3 9.99999e-17 -4.12244
12267 1 31.3219 46.4375 22.1479 3 0 -4.12244
12268 1 33.7947 46.4375 22.1479 3 4.00001e-16 -4.12244
12269 1 32.9705 46.4375 19.8166 3 9.99999e-17 -4.12244
12270 1 35.4432 46.4375 19.8166 3 1e-16 -4.12244
12271 1 34.619 46.4375 17.4852 3 4e-16 -4.12244
12272 1 37.0918 46.4375 17.4852 3 1.00974e-28 -4.12244
12273 1 36.2675 46.4375 15.1539 3 1e-16 -4.12244
12274 1 38.7403 46.4375 15.1539 3 1e-16 -4.12244
12275 1 37.916 46.4375 12.8225 3 8.45659e-28 -4.12244
12276 1 40.3888 46.4375 12.8225 3 3.99999e-16 -4.12244
12277 1 39.5645 46.4375 10.4911 3 1e-16 -4.12244
12278 1 42.0373 46.4375 10.4911 3 1e-16 -4.12244
12279 1 41.2131 46.4375 8.15977 3 4.00001e-16 -4.12244
12280 1 43.6859 46.4375 8.15977 3 2.1457e-28 -4.12244
12281 1 42.8616 46.4375 5.82841 3 9.99999e-17 -4.12244
12282 1 45.3344 46.4375 5.82841 3 9.99999e-17 -4.12244
12283 1 44.5101 46.4375 3.49704 3 2.02737e-28 -4.12244
12284 1 46.9829 46.4375 3.49704 3 3.99999e-16 -4.12244
12285 1 46.1586 46.4375 1.16568 3 1.0169e-16 -4.12244
12286 1 48.6314 46.4375 1.16568 3 1.0169e-16 -4.12244
12287 1 16.4852 44.4184 46.6273 3 4.0169e-16 -4.12244
12288 1 18.958 44.4184 46.6273 3 1.69002e-18 -4.12244
12289 1 18.1337 44.4184 44.2959 3 1e-16 -4.12244
12290 1 20.6065 44.4184 44.2959 3 1e-16 -4.12244
12291 1 19.7823 44.4184 41.9645 3 1e-16 -4.12244
12292 1 22.2551 44.4184 41.9645 3 4e-16 -4.12244
12293 1 21.4308 44.4184 39.6332 3 4e-16 -4.12244
12294 1 23.9036 44.4184 39.6332 3 1e-16 -4.12244
12295 1 23.0793 44.4184 37.3018 3 1e-16 -4.12244
12296 1 25.5521 44.4184 37.3018 3 1.51461e-28 -4.12244
12297 1 24.7278 44.4184 34.9704 3 2.01948e-28 -4.12244
12298 1 27.2006 44.4184 34.9704 3 1e-16 -4.12244
12299 1 26.3764 44.4184 32.6391 3 1e-16 -4.12244
12300 1 28.8491 44.4184 32.6391 3 4e-16 -4.12244
12301 1 28.0249 44.4184 30.3077 3 3.99999e-16 -4.12244
12302 1 30.4977 44.4184 30.3077 3 9.99999e-17 -4.12244
12303 1 29.6734 44.4184 27.9764 3 1e-16 -4.12244
12304 1 32.1462 44.4184 27.9764 3 9.99999e-17 -4.12244
12305 1 31.3219 44.4184 25.645 3 1.51461e-28 -4.12244
12306 1 33.7947 44.4184 25.645 3 4.00001e-16 -4.12244
12307 1 32.9705 44.4184 23.3136 3 9.99999e-17 -4.12244
12308 1 35.4432 44.4184 23.3136 3 1e-16 -4.12244
12309 1 34.619 44.4184 20.9823 3 4e-16 -4.12244
12310 1 37.0918 44.4184 20.9823 3 0 -4.12244
12311 1 36.2675 44.4184 18.6509 3 1e-16 -4.12244
12312 1 38.7403 44.4184 18.6509 3 1e-16 -4.12244
12313 1 37.916 44.4184 16.3195 3 9.08768e-28 -4.12244
12314 1 40.3888 44.4184 16.3195 3 3.99999e-16 -4.12244
12315 1 39.5645 44.4184 13.9882 3 1e-16 -4.12244
12316 1 42.0373 44.4184 13.9882 3 1e-16 -4.12244
12317 1 41.2131 44.4184 11.6568 3 4.00001e-16 -4.12244
12318 1 43.6859 44.4184 11.6568 3 2.01948e-28 -4.12244
12319 1 42.8616 44.4184 9.32545 3 9.99999e-17 -4.12244
12320 1 45.3344 44.4184 9.32545 3 9.99999e-17 -4.12244
12321 1 44.5101 44.4184 6.99409 3 2.01948e-28 -4.12244
12322 1 46.9829 44.4184 6.99409 3 3.99999e-16 -4.12244
12323 1 46.1586 44.4184 4.66273 3 9.99999e-17 -4.12244
12324 1 48.6314 44.4184 4.66273 3 9.99999e-17 -4.12244
12325 1 47.8072 44.4184 2.33136 3 3.99999e-16 -4.12244
12326 1 50.2799 44.4184 2.33136 3 2.01948e-28 -4.12244
12327 1 49.4557 44.4184 0 3 1.0507e-16 -4.12244
12328 1 51.9285 44.4184 0 3 1.0507e-16 -4.12244
12329 1 18.1337 42.3994 47.7929 3 1.0507e-16 -4.12244
12330 1 20.6065 42.3994 47.7929 3 1.0507e-16 -4.12244
12331 1 19.7823 42.3994 45.4616 3 1e-16 -4.12244
12332 1 22.2551 42.3994 45.4616 3 4e-16 -4.12244
12333 1 21.4308 42.3994 43.1302 3 4e-16 -4.12244
12334 1 23.9036 42.3994 43.1302 3 1e-16 -4.12244
12335 1 23.0793 42.3994 40.7989 3 1e-16 -4.12244
12336 1 25.5521 42.3994 40.7989 3 7.57306e-28 -4.12244
12337 1 24.7278 42.3994 38.4675 3 0 -4.12244
12338 1 27.2006 42.3994 38.4675 3 1e-16 -4.12244
12339 1 26.3764 42.3994 36.1361 3 1e-16 -4.12244
12340 1 28.8491 42.3994 36.1361 3 4e-16 -4.12244
12341 1 28.0249 42.3994 33.8048 3 3.99999e-16 -4.12244
12342 1 30.4977 42.3994 33.8048 3 9.99999e-17 -4.12244
12343 1 29.6734 42.3994 31.4734 3 1e-16 -4.12244
12344 1 32.1462 42.3994 31.4734 3 9.99999e-17 -4.12244
12345 1 31.3219 42.3994 29.142 3 1.51461e-28 -4.12244
12346 1 33.7947 42.3994 29.142 3 4.00001e-16 -4.12244
12347 1 32.9705 42.3994 26.8107 3 9.99999e-17 -4.12244
12348 1 35.4432 42.3994 26.8107 3 1e-16 -4.12244
12349 1 34.619 42.3994 24.4793 3 4e-16 -4.12244
12350 1 37.0918 42.3994 24.4793 3 1.00974e-28 -4.12244
12351 1 36.2675 42.3994 22.1479 3 1e-16 -4.12244
12352 1 38.7403 42.3994 22.1479 3 1e-16 -4.12244
12353 1 37.916 42.3994 19.8166 3 8.07794e-28 -4.12244
12354 1 40.3888 42.3994 19.8166 3 3.99999e-16 -4.12244
12355 1 39.5645 42.3994 17.4852 3 1e-16 -4.12244
12356 1 42.0373 42.3994 17.4852 3 1e-16 -4.12244
12357 1 41.2131 42.3994 15.1539 3 4.00001e-16 -4.12244
12358 1 43.6859 42.3994 15.1539 3 2.01948e-28 -4.12244
12359 1 42.8616 42.3994 12.8225 3 9.99999e-17 -4.12244
12360 1 45.3344 42.3994 12.8225 3 9.99999e-17 -4.12244
12361 1 44.5101 42.3994 10.4911 3 2.01948e-28 -4.12244
12362 1 46.9829 42.3994 10.4911 3 3.99999e-16 -4.12244
12363 1 46.1586 42.3994 8.15977 3 9.99999e-17 -4.12244
12364 1 48.6314 42.3994 8.15977 3 9.99999e-17 -4.12244
12365 1 47.8072 42.3994 5.82841 3 3.99999e-16 -4.12244
12366 1 50.2799 42.3994 5.82841 3 2.05104e-28 -4.12244
12367 1 49.4557 42.3994 3.49704 3 9.99999e-17 -4.12244
12368 1 51.9285 42.3994 3.49704 3 1e-16 -4.12244
12369 1 51.1042 42.3994 1.16568 3 1.0169e-16 -4.12244
12370 1 53.577 42.3994 1.16568 3 4.01689e-16 -4.12244
12371 1 21.4308 40.3804 46.6273 3 4.01691e-16 -4.12244
12372 1 23.9036 40.3804 46.6273 3 1.0169e-16 -4.12244
12373 1 23.0793 40.3804 44.2959 3 1e-16 -4.12244
12374 1 25.5521 40.3804 44.2959 3 1.51461e-28 -4.12244
12375 1 24.7278 40.3804 41.9645 3 0 -4.12244
12376 1 27.2006 40.3804 41.9645 3 1e-16 -4.12244
12377 1 26.3764 40.3804 39.6332 3 1e-16 -4.12244
12378 1 28.8491 40.3804 39.6332 3 4e-16 -4.12244
12379 1 28.0249 40.3804 37.3018 3 3.99999e-16 -4.12244
12380 1 30.4977 40.3804 37.3018 3 9.99999e-17 -4.12244
12381 1 29.6734 40.3804 34.9704 3 1e-16 -4.12244
12382 1 32.1462 40.3804 34.9704 3 9.99999e-17 -4.12244
12383 1 31.3219 40.3804 32.6391 3 2.01948e-28 -4.12244
12384 1 33.7947 40.3804 32.6391 3 4.00001e-16 -4.12244
12385 1 32.9705 40.3804 30.3077 3 9.99999e-17 -4.12244
12386 1 35.4432 40.3804 30.3077 3 1e-16 -4.12244
12387 1 34.619 40.3804 27.9764 3 4e-16 -4.12244
12388 1 37.0918 40.3804 27.9764 3 1.51461e-28 -4.12244
12389 1 36.2675 40.3804 25.645 3 1e-16 -4.12244
12390 1 38.7403 40.3804 25.645 3 1e-16 -4.12244
12391 1 37.916 40.3804 23.3136 3 8.07794e-28 -4.12244
12392 1 40.3888 40.3804 23.3136 3 3.99999e-16 -4.12244
12393 1 39.5645 40.3804 20.9823 3 1e-16 -4.12244
12394 1 42.0373 40.3804 20.9823 3 1e-16 -4.12244
12395 1 41.2131 40.3804 18.6509 3 4.00001e-16 -4.12244
12396 1 43.6859 40.3804 18.6509 3 2.01948e-28 -4.12244
12397 1 42.8616 40.3804 16.3195 3 9.99999e-17 -4.12244
12398 1 45.3344 40.3804 16.3195 3 9.99999e-17 -4.12244
12399 1 44.5101 40.3804 13.9882 3 2.27192e-28 -4.12244
12400 1 46.9829 40.3804 13.9882 3 3.99999e-16 -4.12244
12401 1 46.1586 40.3804 11.6568 3 9.99999e-17 -4.12244
12402 1 48.6314 40.3804 11.6568 3 9.99999e-17 -4.12244
12403 1 47.8072 40.3804 9.32545 3 3.99999e-16 -4.12244
12404 1 50.2799 40.3804 9.32545 3 2.01948e-28 -4.12244
12405 1 49.4557 40.3804 6.99409 3 9.99999e-17 -4.12244
12406 1 51.9285 40.3804 6.99409 3 1e-16 -4.12244
12407 1 51.1042 40.3804 4.66273 3 9.99999e-17 -4.12244
12408 1 53.577 40.3804 4.66273 3 3.99999e-16 -4.12244
12409 1 52.7527 40.3804 2.33136 3 4.00001e-16 -4.12244
12410 1 55.2255 40.3804 2.33136 3 1e-16 -4.12244
12411 1 54.4012 40.3804 0 3 1.0507e-16 -4.12244
12412 1 56.874 40.3804 0 3 5.07001e-18 -4.12244
12413 1 23.0793 38.3614 47.7929 3 1.0507e-16 -4.12244
12414 1 25.5521 38.3614 47.7929 3 5.06996e-18 -4.12244
12415 1 24.7278 38.3614 45.4616 3 0 -4.12244
12416 1 27.2006 38.3614 45.4616 3 1e-16 -4.12244
12417 1 26.3764 38.3614 43.1302 3 1e-16 -4.12244
12418 1 28.8491 38.3614 43.1302 3 4e-16 -4.12244
12419 1 28.0249 38.3614 40.7989 3 3.99999e-16 -4.12244
12420 1 30.4977 38.3614 40.7989 3 9.99999e-17 -4.12244
12421 1 29.6734 38.3614 38.4675 3 1e-16 -4.12244
12422 1 32.1462 38.3614 38.4675 3 9.99999e-17 -4.12244
12423 1 31.3219 38.3614 36.1361 3 6.05845e-28 -4.12244
12424 1 33.7947 38.3614 36.1361 3 4.00001e-16 -4.12244
12425 1 32.9705 38.3614 33.8048 3 9.99999e-17 -4.12244
12426 1 35.4432 38.3614 33.8048 3 1e-16 -4.12244
12427 1 34.619 38.3614 31.4734 3 4e-16 -4.12244
12428 1 37.0918 38.3614 31.4734 3 5.04871e-29 -4.12244
12429 1 36.2675 38.3614 29.142 3 1e-16 -4.12244
12430 1 38.7403 38.3614 29.142 3 1e-16 -4.12244
12431 1 37.916 38.3614 26.8107 3 8.07794e-28 -4.12244
12432 1 40.3888 38.3614 26.8107 3 3.99999e-16 -4.12244
12433 1 39.5645 38.3614 24.4793 3 1e-16 -4.12244
12434 1 42.0373 38.3614 24.4793 3 1e-16 -4.12244
12435 1 41.2131 38.3614 22.1479 3 4.00001e-16 -4.12244
12436 1 43.6859 38.3614 22.1479 3 2.01948e-28 -4.12244
12437 1 42.8616 38.3614 19.8166 3 9.99999e-17 -4.12244
12438 1 45.3344 38.3614 19.8166 3 9.99999e-17 -4.12244
12439 1 44.5101 38.3614 17.4852 3 3.02923e-28 -4.12244
12440 1 46.9829 38.3614 17.4852 3 3.99999e-16 -4.12244
12441 1 46.1586 38.3614 15.1539 3 9.99999e-17 -4.12244
12442 1 48.6314 38.3614 15.1539 3 9.99999e-17 -4.12244
12443 1 47.8072 38.3614 12.8225 3 3.99999e-16 -4.12244
12444 1 50.2799 38.3614 12.8225 3 2.39814e-28 -4.12244
12445 1 49.4557 38.3614 10.4911 3 9.99999e-17 -4.12244
12446 1 51.9285 38.3614 10.4911 3 1e-16 -4.12244
12447 1 51.1042 38.3614 8.15977 3 9.99999e-17 -4.12244
12448 1 53.577 38.3614 8.15977 3 3.99999e-16 -4.12244
12449 1 52.7527 38.3614 5.82841 3 4.00001e-16 -4.12244
12450 1 55.2255 38.3614 5.82841 3 1e-16 -4.12244
12451 1 54.4012 38.3614 3.49704 3 1e-16 -4.12244
12452 1 56.874 38.3614 3.49704 3 7.88861e-31 -4.12244
12453 1 56.0498 38.3614 1.16568 3 1.69e-18 -4.12244
12454 1 58.5226 38.3614 1.16568 3 1.0169e-16 -4.12244
12455 1 26.3764 36.3424 46.6273 3 1.0169e-16 -4.12244
12456 1 28.8491 36.3424 46.6273 3 4.0169e-16 -4.12244
12457 1 28.0249 36.3424 44.2959 3 3.99999e-16 -4.12244
12458 1 30.4977 36.3424 44.2959 3 9.99999e-17 -4.12244
12459 1 29.6734 36.3424 41.9645 3 1e-16 -4.12244
12460 1 32.1462 36.3424 41.9645 3 9.99999e-17 -4.12244
12461 1 31.3219 36.3424 39.6332 3 0 -4.12244
12462 1 33.7947 36.3424 39.6332 3 4.00001e-16 -4.12244
12463 1 32.9705 36.3424 37.3018 3 9.99999e-17 -4.12244
12464 1 35.4432 36.3424 37.3018 3 1e-16 -4.12244
12465 1 34.619 36.3424 34.9704 3 4e-16 -4.12244
12466 1 37.0918 36.3424 34.9704 3 2.01948e-28 -4.12244
12467 1 36.2675 36.3424 32.6391 3 1e-16 -4.12244
12468 1 38.7403 36.3424 32.6391 3 1e-16 -4.12244
12469 1 37.916 36.3424 30.3077 3 8.07794e-28 -4.12244
12470 1 40.3888 36.3424 30.3077 3 3.99999e-16 -4.12244
12471 1 39.5645 36.3424 27.9764 3 1e-16 -4.12244
12472 1 42.0373 36.3424 27.9764 3 1e-16 -4.12244
12473 1 41.2131 36.3424 25.645 3 4.00001e-16 -4.12244
12474 1 43.6859 36.3424 25.645 3 3.5341e-28 -4.12244
12475 1 42.8616 36.3424 23.3136 3 9.99999e-17 -4.12244
12476 1 45.3344 36.3424 23.3136 3 9.99999e-17 -4.12244
12477 1 44.5101 36.3424 20.9823 3 2.01948e-28 -4.12244
12478 1 46.9829 36.3424 20.9823 3 3.99999e-16 -4.12244
12479 1 46.1586 36.3424 18.6509 3 9.99999e-17 -4.12244
12480 1 48.6314 36.3424 18.6509 3 9.99999e-17 -4.12244
12481 1 47.8072 36.3424 16.3195 3 3.99999e-16 -4.12244
12482 1 50.2799 36.3424 16.3195 3 3.02923e-28 -4.12244
12483 1 49.4557 36.3424 13.9882 3 9.99999e-17 -4.12244
12484 1 51.9285 36.3424 13.9882 3 1e-16 -4.12244
12485 1 51.1042 36.3424 11.6568 3 9.99999e-17 -4.12244
12486 1 53.577 36.3424 11.6568 3 3.99999e-16 -4.12244
12487 1 52.7527 36.3424 9.32545 3 4.00001e-16 -4.12244
12488 1 55.2255 36.3424 9.32545 3 1e-16 -4.12244
12489 1 54.4012 36.3424 6.99409 3 1e-16 -4.12244
12490 1 56.874 36.3424 6.99409 3 0 -4.12244
12491 1 56.0498 36.3424 4.66273 3 0 -4.12244
12492 1 58.5226 36.3424 4.66273 3 9.99999e-17 -4.12244
12493 1 57.6983 36.3424 2.33136 3 1e-16 -4.12244
12494 1 60.1711 36.3424 2.33136 3 3.99999e-16 -4.12244
12495 1 59.3468 36.3424 0 3 4.0507e-16 -4.12244
12496 1 61.8196 36.3424 0 3 6.28299e-17 -4.12244
12497 1 28.0249 34.3233 47.7929 3 4.05069e-16 -4.12244
12498 1 30.4977 34.3233 47.7929 3 1.0507e-16 -4.12244
12499 1 29.6734 34.3233 45.4616 3 1e-16 -4.12244
12500 1 32.1462 34.3233 45.4616 3 9.99999e-17 -4.12244
12501 1 31.3219 34.3233 43.1302 3 6.05845e-28 -4.12244
12502 1 33.7947 34.3233 43.1302 3 4.00001e-16 -4.12244
12503 1 32.9705 34.3233 40.7989 3 9.99999e-17 -4.12244
12504 1 35.4432 34.3233 40.7989 3 1e-16 -4.12244
12505 1 34.619 34.3233 38.4675 3 4e-16 -4.12244
12506 1 37.0918 34.3233 38.4675 3 0 -4.12244
12507 1 36.2675 34.3233 36.1361 3 1e-16 -4.12244
12508 1 38.7403 34.3233 36.1361 3 1e-16 -4.12244
12509 1 37.916 34.3233 33.8048 3 8.07794e-28 -4.12244
12510 1 40.3888 34.3233 33.8048 3 3.99999e-16 -4.12244
12511 1 39.5645 34.3233 31.4734 3 1e-16 -4.12244
12512 1 42.0373 34.3233 31.4734 3 1e-16 -4.12244
12513 1 41.2131 34.3233 29.142 3 4.00001e-16 -4.12244
12514 1 43.6859 34.3233 29.142 3 3.5341e-28 -4.12244
12515 1 42.8616 34.3233 26.8107 3 9.99999e-17 -4.12244
12516 1 45.3344 34.3233 26.8107 3 9.99999e-17 -4.12244
12517 1 44.5101 34.3233 24.4793 3 3.02923e-28 -4.12244
12518 1 46.9829 34.3233 24.4793 3 3.99999e-16 -4.12244
12519 1 46.1586 34.3233 22.1479 3 9.99999e-17 -4.12244
12520 1 48.6314 34.3233 22.1479 3 9.99999e-17 -4.12244
12521 1 47.8072 34.3233 19.8166 3 3.99999e-16 -4.12244
12522 1 50.2799 34.3233 19.8166 3 2.01948e-28 -4.12244
12523 1 49.4557 34.3233 17.4852 3 9.99999e-17 -4.12244
12524 1 51.9285 34.3233 17.4852 3 1e-16 -4.12244
12525 1 51.1042 34.3233 15.1539 3 9.99999e-17 -4.12244
12526 1 53.577 34.3233 15.1539 3 3.99999e-16 -4.12244
12527 1 52.7527 34.3233 12.8225 3 4.00001e-16 -4.12244
12528 1 55.2255 34.3233 12.8225 3 1e-16 -4.12244
12529 1 54.4012 34.3233 10.4911 3 1e-16 -4.12244
12530 1 56.874 34.3233 10.4911 3 0 -4.12244
12531 1 56.0498 34.3233 8.15977 3 1.26218e-29 -4.12244
12532 1 58.5226 34.3233 8.15977 3 9.99999e-17 -4.12244
12533 1 57.6983 34.3233 5.82841 3 1e-16 -4.12244
12534 1 60.1711 34.3233 5.82841 3 3.99999e-16 -4.12244
12535 1 59.3468 34.3233 3.49704 3 3.99999e-16 -4.12244
12536 1 61.8196 34.3233 3.49704 3 5.77599e-17 -4.12244
12537 1 60.9953 34.3233 1.16568 3 1.0169e-16 -4.12244
12538 1 63.4681 34.3233 1.16568 3 2.473e-17 -4.12244
12539 1 31.3219 32.3043 46.6273 3 1.69002e-18 -4.12244
12540 1 33.7947 32.3043 46.6273 3 4.01691e-16 -4.12244
12541 1 32.9705 32.3043 44.2959 3 9.99999e-17 -4.12244
12542 1 35.4432 32.3043 44.2959 3 1e-16 -4.12244
12543 1 34.619 32.3043 41.9645 3 4e-16 -4.12244
12544 1 37.0918 32.3043 41.9645 3 0 -4.12244
12545 1 36.2675 32.3043 39.6332 3 1e-16 -4.12244
12546 1 38.7403 32.3043 39.6332 3 1e-16 -4.12244
12547 1 37.916 32.3043 37.3018 3 8.07794e-28 -4.12244
12548 1 40.3888 32.3043 37.3018 3 3.99999e-16 -4.12244
12549 1 39.5645 32.3043 34.9704 3 1e-16 -4.12244
12550 1 42.0373 32.3043 34.9704 3 1e-16 -4.12244
12551 1 41.2131 32.3043 32.6391 3 4.00001e-16 -4.12244
12552 1 43.6859 32.3043 32.6391 3 4.03897e-28 -4.12244
12553 1 42.8616 32.3043 30.3077 3 9.99999e-17 -4.12244
12554 1 45.3344 32.3043 30.3077 3 9.99999e-17 -4.12244
12555 1 44.5101 32.3043 27.9764 3 3.5341e-28 -4.12244
12556 1 46.9829 32.3043 27.9764 3 3.99999e-16 -4.12244
12557 1 46.1586 32.3043 25.645 3 9.99999e-17 -4.12244
12558 1 48.6314 32.3043 25.645 3 9.99999e-17 -4.12244
12559 1 47.8072 32.3043 23.3136 3 3.99999e-16 -4.12244
12560 1 50.2799 32.3043 23.3136 3 2.01948e-28 -4.12244
12561 1 49.4557 32.3043 20.9823 3 9.99999e-17 -4.12244
12562 1 51.9285 32.3043 20.9823 3 1e-16 -4.12244
12563 1 51.1042 32.3043 18.6509 3 9.99999e-17 -4.12244
12564 1 53.577 32.3043 18.6509 3 3.99999e-16 -4.12244
12565 1 52.7527 32.3043 16.3195 3 4.00001e-16 -4.12244
12566 1 55.2255 32.3043 16.3195 3 1e-16 -4.12244
12567 1 54.4012 32.3043 13.9882 3 1e-16 -4.12244
12568 1 56.874 32.3043 13.9882 3 2.52435e-29 -4.12244
12569 1 56.0498 32.3043 11.6568 3 0 -4.12244
12570 1 58.5226 32.3043 11.6568 3 9.99999e-17 -4.12244
12571 1 57.6983 32.3043 9.32545 3 1e-16 -4.12244
12572 1 60.1711 32.3043 9.32545 3 3.99999e-16 -4.12244
12573 1 59.3468 32.3043 6.99409 3 3.99999e-16 -4.12244
12574 1 61.8196 32.3043 6.99409 3 5.77599e-17 -4.12244
12575 1 60.9953 32.3043 4.66273 3 9.99999e-17 -4.12244
12576 1 63.4681 32.3043 4.66273 3 2.304e-17 -4.12244
12577 1 62.6439 32.3043 2.33136 3 5.76e-18 -4.12244
12578 1 32.9705 30.2853 47.7929 3 1.0507e-16 -4.12244
12579 1 35.4432 30.2853 47.7929 3 1.0507e-16 -4.12244
12580 1 34.619 30.2853 45.4616 3 4e-16 -4.12244
12581 1 37.0918 30.2853 45.4616 3 1.00974e-28 -4.12244
12582 1 36.2675 30.2853 43.1302 3 1e-16 -4.12244
12583 1 38.7403 30.2853 43.1302 3 1e-16 -4.12244
12584 1 37.916 30.2853 40.7989 3 1.51461e-27 -4.12244
12585 1 40.3888 30.2853 40.7989 3 3.99999e-16 -4.12244
12586 1 39.5645 30.2853 38.4675 3 1e-16 -4.12244
12587 1 42.0373 30.2853 38.4675 3 1e-16 -4.12244
12588 1 41.2131 30.2853 36.1361 3 4.00001e-16 -4.12244
12589 1 43.6859 30.2853 36.1361 3 9.08768e-28 -4.12244
12590 1 42.8616 30.2853 33.8048 3 9.99999e-17 -4.12244
12591 1 45.3344 30.2853 33.8048 3 9.99999e-17 -4.12244
12592 1 44.5101 30.2853 31.4734 3 3.5341e-28 -4.12244
12593 1 46.9829 30.2853 31.4734 3 3.99999e-16 -4.12244
12594 1 46.1586 30.2853 29.142 3 9.99999e-17 -4.12244
12595 1 48.6314 30.2853 29.142 3 9.99999e-17 -4.12244
12596 1 47.8072 30.2853 26.8107 3 3.99999e-16 -4.12244
12597 1 50.2799 30.2853 26.8107 3 3.02923e-28 -4.12244
12598 1 49.4557 30.2853 24.4793 3 9.99999e-17 -4.12244
12599 1 51.9285 30.2853 24.4793 3 1e-16 -4.12244
12600 1 51.1042 30.2853 22.1479 3 9.99999e-17 -4.12244
12601 1 53.577 30.2853 22.1479 3 3.99999e-16 -4.12244
12602 1 52.7527 30.2853 19.8166 3 4.00001e-16 -4.12244
12603 1 55.2255 30.2853 19.8166 3 1e-16 -4.12244
12604 1 54.4012 30.2853 17.4852 3 1e-16 -4.12244
12605 1 56.874 30.2853 17.4852 3 2.01948e-28 -4.12244
12606 1 56.0498 30.2853 15.1539 3 1.00974e-28 -4.12244
12607 1 58.5226 30.2853 15.1539 3 9.99999e-17 -4.12244
12608 1 57.6983 30.2853 12.8225 3 1e-16 -4.12244
12609 1 60.1711 30.2853 12.8225 3 3.99999e-16 -4.12244
12610 1 59.3468 30.2853 10.4911 3 3.99999e-16 -4.12244
12611 1 61.8196 30.2853 10.4911 3 5.77599e-17 -4.12244
12612 1 60.9953 30.2853 8.15977 3 9.99999e-17 -4.12244
12613 1 63.4681 30.2853 8.15977 3 2.304e-17 -4.12244
12614 1 62.6439 30.2853 5.82841 3 5.76e-18 -4.12244
12615 1 36.2675 28.2663 46.6273 3 1.0169e-16 -4.12244
12616 1 38.7403 28.2663 46.6273 3 1.0169e-16 -4.12244
12617 1 37.916 28.2663 44.2959 3 8.07794e-28 -4.12244
12618 1 40.3888 28.2663 44.2959 3 3.99999e-16 -4.12244
12619 1 39.5645 28.2663 41.9645 3 1e-16 -4.12244
12620 1 42.0373 28.2663 41.9645 3 1e-16 -4.12244
12621 1 41.2131 28.2663 39.6332 3 4.00001e-16 -4.12244
12622 1 43.6859 28.2663 39.6332 3 2.01948e-28 -4.12244
12623 1 42.8616 28.2663 37.3018 3 9.99999e-17 -4.12244
12624 1 45.3344 28.2663 37.3018 3 9.99999e-17 -4.12244
12625 1 44.5101 28.2663 34.9704 3 4.03897e-28 -4.12244
12626 1 46.9829 28.2663 34.9704 3 3.99999e-16 -4.12244
12627 1 46.1586 28.2663 32.6391 3 9.99999e-17 -4.12244
12628 1 48.6314 28.2663 32.6391 3 9.99999e-17 -4.12244
12629 1 47.8072 28.2663 30.3077 3 3.99999e-16 -4.12244
12630 1 50.2799 28.2663 30.3077 3 2.01948e-28 -4.12244
12631 1 49.4557 28.2663 27.9764 3 9.99999e-17 -4.12244
12632 1 51.9285 28.2663 27.9764 3 1e-16 -4.12244
12633 1 51.1042 28.2663 25.645 3 9.99999e-17 -4.12244
12634 1 53.577 28.2663 25.645 3 3.99999e-16 -4.12244
12635 1 52.7527 28.2663 23.3136 3 4.00001e-16 -4.12244
12636 1 55.2255 28.2663 23.3136 3 1e-16 -4.12244
12637 1 54.4012 28.2663 20.9823 3 1e-16 -4.12244
12638 1 56.874 28.2663 20.9823 3 0 -4.12244
12639 1 56.0498 28.2663 18.6509 3 0 -4.12244
12640 1 58.5226 28.2663 18.6509 3 9.99999e-17 -4.12244
12641 1 57.6983 28.2663 16.3195 3 1e-16 -4.12244
12642 1 60.1711 28.2663 16.3195 3 3.99999e-16 -4.12244
12643 1 59.3468 28.2663 13.9882 3 3.99999e-16 -4.12244
12644 1 61.8196 28.2663 13.9882 3 5.77599e-17 -4.12244
12645 1 60.9953 28.2663 11.6568 3 9.99999e-17 -4.12244
12646 1 63.4681 28.2663 11.6568 3 2.304e-17 -4.12244
12647 1 62.6439 28.2663 9.32545 3 5.76e-18 -4.12244
12648 1 37.916 26.2473 47.7929 3 5.06996e-18 -4.12244
12649 1 40.3888 26.2473 47.7929 3 4.05069e-16 -4.12244
12650 1 39.5645 26.2473 45.4616 3 1e-16 -4.12244
12651 1 42.0373 26.2473 45.4616 3 1e-16 -4.12244
12652 1 41.2131 26.2473 43.1302 3 4.00001e-16 -4.12244
12653 1 43.6859 26.2473 43.1302 3 9.08768e-28 -4.12244
12654 1 42.8616 26.2473 40.7989 3 9.99999e-17 -4.12244
12655 1 45.3344 26.2473 40.7989 3 9.99999e-17 -4.12244
12656 1 44.5101 26.2473 38.4675 3 3.02923e-28 -4.12244
12657 1 46.9829 26.2473 38.4675 3 3.99999e-16 -4.12244
12658 1 46.1586 26.2473 36.1361 3 9.99999e-17 -4.12244
12659 1 48.6314 26.2473 36.1361 3 9.99999e-17 -4.12244
12660 1 47.8072 26.2473 33.8048 3 3.99999e-16 -4.12244
12661 1 50.2799 26.2473 33.8048 3 3.02923e-28 -4.12244
12662 1 49.4557 26.2473 31.4734 3 9.99999e-17 -4.12244
12663 1 51.9285 26.2473 31.4734 3 1e-16 -4.12244
12664 1 51.1042 26.2473 29.142 3 9.99999e-17 -4.12244
12665 1 53.577 26.2473 29.142 3 3.99999e-16 -4.12244
12666 1 52.7527 26.2473 26.8107 3 4.00001e-16 -4.12244
12667 1 55.2255 26.2473 26.8107 3 1e-16 -4.12244
12668 1 54.4012 26.2473 24.4793 3 1e-16 -4.12244
12669 1 56.874 26.2473 24.4793 3 2.01948e-28 -4.12244
12670 1 56.0498 26.2473 22.1479 3 1.00974e-28 -4.12244
12671 1 58.5226 26.2473 22.1479 3 9.99999e-17 -4.12244
12672 1 57.6983 26.2473 19.8166 3 1e-16 -4.12244
12673 1 60.1711 26.2473 19.8166 3 3.99999e-16 -4.12244
12674 1 59.3468 26.2473 17.4852 3 3.99999e-16 -4.12244
12675 1 61.8196 26.2473 17.4852 3 5.77599e-17 -4.12244
12676 1 60.9953 26.2473 15.1539 3 9.99999e-17 -4.12244
12677 1 63.4681 26.2473 15.1539 3 2.304e-17 -4.12244
12678 1 62.6439 26.2473 12.8225 3 5.76e-18 -4.12244
12679 1 41.2131 24.2282 46.6273 3 4.01691e-16 -4.12244
12680 1 43.6859 24.2282 46.6273 3 1.69002e-18 -4.12244
12681 1 42.8616 24.2282 44.2959 3 9.99999e-17 -4.12244
12682 1 45.3344 24.2282 44.2959 3 9.99999e-17 -4.12244
12683 1 44.5101 24.2282 41.9645 3 2.01948e-28 -4.12244
12684 1 46.9829 24.2282 41.9645 3 3.99999e-16 -4.12244
12685 1 46.1586 24.2282 39.6332 3 9.99999e-17 -4.12244
12686 1 48.6314 24.2282 39.6332 3 9.99999e-17 -4.12244
12687 1 47.8072 24.2282 37.3018 3 3.99999e-16 -4.12244
12688 1 50.2799 24.2282 37.3018 3 2.01948e-28 -4.12244
12689 1 49.4557 24.2282 34.9704 3 9.99999e-17 -4.12244
12690 1 51.9285 24.2282 34.9704 3 1e-16 -4.12244
12691 1 51.1042 24.2282 32.6391 3 9.99999e-17 -4.12244
12692 1 53.577 24.2282 32.6391 3 3.99999e-16 -4.12244
12693 1 52.7527 24.2282 30.3077 3 4.00001e-16 -4.12244
12694 1 55.2255 24.2282 30.3077 3 1e-16 -4.12244
12695 1 54.4012 24.2282 27.9764 3 1e-16 -4.12244
12696 1 56.874 24.2282 27.9764 3 1.51461e-28 -4.12244
12697 1 56.0498 24.2282 25.645 3 1.51461e-28 -4.12244
12698 1 58.5226 24.2282 25.645 3 9.99999e-17 -4.12244
12699 1 57.6983 24.2282 23.3136 3 1e-16 -4.12244
12700 1 60.1711 24.2282 23.3136 3 3.99999e-16 -4.12244
12701 1 59.3468 24.2282 20.9823 3 3.99999e-16 -4.12244
12702 1 61.8196 24.2282 20.9823 3 5.77599e-17 -4.12244
12703 1 60.9953 24.2282 18.6509 3 9.99999e-17 -4.12244
12704 1 63.4681 24.2282 18.6509 3 2.304e-17 -4.12244
12705 1 62.6439 24.2282 16.3195 3 5.76e-18 -4.12244
12706 1 42.8616 22.2092 47.7929 3 1.0507e-16 -4.12244
12707 1 45.3344 22.2092 47.7929 3 1.0507e-16 -4.12244
12708 1 44.5101 22.2092 45.4616 3 2.01948e-28 -4.12244
12709 1 46.9829 22.2092 45.4616 3 3.99999e-16 -4.12244
12710 1 46.1586 22.2092 43.1302 3 9.99999e-17 -4.12244
12711 1 48.6314 22.2092 43.1302 3 9.99999e-17 -4.12244
12712 1 47.8072 22.2092 40.7989 3 3.99999e-16 -4.12244
12713 1 50.2799 22.2092 40.7989 3 8.07794e-28 -4.12244
12714 1 49.4557 22.2092 38.4675 3 9.99999e-17 -4.12244
12715 1 51.9285 22.2092 38.4675 3 1e-16 -4.12244
12716 1 51.1042 22.2092 36.1361 3 9.99999e-17 -4.12244
12717 1 53.577 22.2092 36.1361 3 3.99999e-16 -4.12244
12718 1 52.7527 22.2092 33.8048 3 4.00001e-16 -4.12244
12719 1 55.2255 22.2092 33.8048 3 1e-16 -4.12244
12720 1 54.4012 22.2092 31.4734 3 1e-16 -4.12244
12721 1 56.874 22.2092 31.4734 3 5.04871e-29 -4.12244
12722 1 56.0498 22.2092 29.142 3 1.51461e-28 -4.12244
12723 1 58.5226 22.2092 29.142 3 9.99999e-17 -4.12244
12724 1 57.6983 22.2092 26.8107 3 1e-16 -4.12244
12725 1 60.1711 22.2092 26.8107 3 3.99999e-16 -4.12244
12726 1 59.3468 22.2092 24.4793 3 3.99999e-16 -4.12244
12727 1 61.8196 22.2092 24.4793 3 5.77599e-17 -4.12244
12728 1 60.9953 22.2092 22.1479 3 9.99999e-17 -4.12244
12729 1 63.4681 22.2092 22.1479 3 2.304e-17 -4.12244
12730 1 62.6439 22.2092 19.8166 3 5.76e-18 -4.12244
12731 1 46.1586 20.1902 46.6273 3 1.0169e-16 -4.12244
12732 1 48.6314 20.1902 46.6273 3 1.0169e-16 -4.12244
12733 1 47.8072 20.1902 44.2959 3 3.99999e-16 -4.12244
12734 1 50.2799 20.1902 44.2959 3 2.01948e-28 -4.12244
12735 1 49.4557 20.1902 41.9645 3 9.99999e-17 -4.12244
12736 1 51.9285 20.1902 41.9645 3 1e-16 -4.12244
12737 1 51.1042 20.1902 39.6332 3 9.99999e-17 -4.12244
12738 1 53.577 20.1902 39.6332 3 3.99999e-16 -4.12244
12739 1 52.7527 20.1902 37.3018 3 4.00001e-16 -4.12244
12740 1 55.2255 20.1902 37.3018 3 1e-16 -4.12244
12741 1 54.4012 20.1902 34.9704 3 1e-16 -4.12244
12742 1 56.874 20.1902 34.9704 3 2.01948e-28 -4.12244
12743 1 56.0498 20.1902 32.6391 3 2.01948e-28 -4.12244
12744 1 58.5226 20.1902 32.6391 3 9.99999e-17 -4.12244
12745 1 57.6983 20.1902 30.3077 3 1e-16 -4.12244
12746 1 60.1711 20.1902 30.3077 3 3.99999e-16 -4.12244
12747 1 59.3468 20.1902 27.9764 3 3.99999e-16 -4.12244
12748 1 61.8196 20.1902 27.9764 3 5.77599e-17 -4.12244
12749 1 60.9953 20.1902 25.645 3 9.99999e-17 -4.12244
12750 1 63.4681 20.1902 25.645 3 2.304e-17 -4.12244
12751 1 62.6439 20.1902 23.3136 3 5.76e-18 -4.12244
12752 1 47.8072 18.1712 47.7929 3 4.05069e-16 -4.12244
12753 1 50.2799 18.1712 47.7929 3 5.06996e-18 -4.12244
12754 1 49.4557 18.1712 45.4616 3 9.99999e-17 -4.12244
12755 1 51.9285 18.1712 45.4616 3 1e-16 -4.12244
12756 1 51.1042 18.1712 43.1302 3 9.99999e-17 -4.12244
12757 1 53.577 18.1712 43.1302 3 3.99999e-16 -4.12244
12758 1 52.7527 18.1712 40.7989 3 4.00001e-16 -4.12244
12759 1 55.2255 18.1712 40.7989 3 1e-16 -4.12244
12760 1 54.4012 18.1712 38.4675 3 1e-16 -4.12244
12761 1 56.874 18.1712 38.4675 3 1.00974e-28 -4.12244
12762 1 56.0498 18.1712 36.1361 3 7.06819e-28 -4.12244
12763 1 58.5226 18.1712 36.1361 3 9.99999e-17 -4.12244
12764 1 57.6983 18.1712 33.8048 3 1e-16 -4.12244
12765 1 60.1711 18.1712 33.8048 3 3.99999e-16 -4.12244
12766 1 59.3468 18.1712 31.4734 3 3.99999e-16 -4.12244
12767 1 61.8196 18.1712 31.4734 3 5.77599e-17 -4.12244
12768 1 60.9953 18.1712 29.142 3 9.99999e-17 -4.12244
12769 1 63.4681 18.1712 29.142 3 2.304e-17 -4.12244
12770 1 62.6439 18.1712 26.8107 3 5.76e-18 -4.12244
12771 1 51.1042 16.1522 46.6273 3 1.0169e-16 -4.12244
12772 1 53.577 16.1522 46.6273 3 4.0169e-16 -4.12244
12773 1 52.7527 16.1522 44.2959 3 4.00001e-16 -4.12244
12774 1 55.2255 16.1522 44.2959 3 1e-16 -4.12244
12775 1 54.4012 16.1522 41.9645 3 1e-16 -4.12244
12776 1 56.874 16.1522 41.9645 3 0 -4.12244
12777 1 56.0498 16.1522 39.6332 3 0 -4.12244
12778 1 58.5226 16.1522 39.6332 3 9.99999e-17 -4.12244
12779 1 57.6983 16.1522 37.3018 3 1e-16 -4.12244
12780 1 60.1711 16.1522 37.3018 3 3.99999e-16 -4.12244
12781 1 59.3468 16.1522 34.9704 3 3.99999e-16 -4.12244
12782 1 61.8196 16.1522 34.9704 3 5.77599e-17 -4.12244
12783 1 60.9953 16.1522 32.6391 3 9.99999e-17 -4.12244
12784 1 63.4681 16.1522 32.6391 3 2.304e-17 -4.12244
12785 1 62.6439 16.1522 30.3077 3 5.76e-18 -4.12244
12786 1 52.7527 14.1331 47.7929 3 4.05071e-16 -4.12244
12787 1 55.2255 14.1331 47.7929 3 1.0507e-16 -4.12244
12788 1 54.4012 14.1331 45.4616 3 1e-16 -4.12244
12789 1 56.874 14.1331 45.4616 3 0 -4.12244
12790 1 56.0498 14.1331 43.1302 3 6.05845e-28 -4.12244
12791 1 58.5226 14.1331 43.1302 3 9.99999e-17 -4.12244
12792 1 57.6983 14.1331 40.7989 3 1e-16 -4.12244
12793 1 60.1711 14.1331 40.7989 3 3.99999e-16 -4.12244
12794 1 59.3468 14.1331 38.4675 3 3.99999e-16 -4.12244
12795 1 61.8196 14.1331 38.4675 3 5.77599e-17 -4.12244
12796 1 60.9953 14.1331 36.1361 3 9.99999e-17 -4.12244
12797 1 63.4681 14.1331 36.1361 3 2.304e-17 -4.12244
12798 1 62.6439 14.1331 33.8048 3 5.76e-18 -4.12244
12799 1 56.0498 12.1141 46.6273 3 1.69002e-18 -4.12244
12800 1 58.5226 12.1141 46.6273 3 1.0169e-16 -4.12244
12801 1 57.6983 12.1141 44.2959 3 1e-16 -4.12244
12802 1 60.1711 12.1141 44.2959 3 3.99999e-16 -4.12244
12803 1 59.3468 12.1141 41.9645 3 3.99999e-16 -4.12244
12804 1 61.8196 12.1141 41.9645 3 5.77599e-17 -4.12244
12805 1 60.9953 12.1141 39.6332 3 9.99999e-17 -4.12244
12806 1 63.4681 12.1141 39.6332 3 2.304e-17 -4.12244
12807 1 62.6439 12.1141 37.3018 3 5.76e-18 -4.12244
12808 1 57.6983 10.0951 47.7929 3 1.0507e-16 -4.12244
12809 1 60.1711 10.0951 47.7929 3 4.05069e-16 -4.12244
12810 1 59.3468 10.0951 45.4616 3 3.99999e-16 -4.12244
12811 1 61.8196 10.0951 45.4616 3 5.77599e-17 -4.12244
12812 1 60.9953 10.0951 43.1302 3 9.99999e-17 -4.12244
12813 1 63.4681 10.0951 43.1302 3 2.304e-17 -4.12244
12814 1 62.6439 10.0951 40.7989 3 5.76e-18 -4.12244
12815 1 60.9953 8.07608 46.6273 3 1.0169e-16 -4.12244
12816 1 63.4681 8.07608 46.6273 3 2.473e-17 -4.12244
12817 1 62.6439 8.07608 44.2959 3 5.76e-18 -4.12244
12818 1 62.6439 6.05706 47.7929 3 1.083e-17 -4.12244
12819 1 0.824261 62.5896 47.7929 5 12.2293 -3.54465
12820 1 0 62.5896 45.4616 5 12.2293 -3.54465
12821 1 2.47278 62.5896 45.4616 5 12.2293 -3.54465
12822 1 1.64852 62.5896 43.1302 5 12.2293 -3.54465
12823 1 4.12131 62.5896 43.1302 5 12.2293 -3.54465
12824 1 3.29705 62.5896 40.7989 5 12.2293 -3.54465
12825 1 5.76983 62.5896 40.7989 5 12.2293 -3.54465
12826 1 4.94557 62.5896 38.4675 5 12.2293 -3.54465
12827 1 7.41835 62.5896 38.4675 5 12.2293 -3.54465
12828 1 6.59409 62.5896 36.1361 5 12.2293 -3.54465
12829 1 9.06687 62.5896 36.1361 5 12.2293 -3.54465
12830 1 8.24261 62.5896 33.8048 5 12.2293 -3.54465
12831 1 10.7154 62.5896 33.8048 5 12.2293 -3.54465
12832 1 9.89114 62.5896 31.4734 5 12.2293 -3.54465
12833 1 12.3639 62.5896 31.4734 5 12.2293 -3.54465
12834 1 11.5397 62.5896 29.142 5 12.2293 -3.54465
12835 1 14.0124 62.5896 29.142 5 12.2293 -3.54465
12836 1 13.1882 62.5896 26.8107 5 12.2293 -3.54465
12837 1 15.661 62.5896 26.8107 5 12.2293 -3.54465
12838 1 14.8367 62.5896 24.4793 5 12.2293 -3.54465
12839 1 17.3095 62.5896 24.4793 5 12.2293 -3.54465
12840 1 16.4852 62.5896 22.1479 5 12.2293 -3.54465
12841 1 18.958 62.5896 22.1479 5 12.2293 -3.54465
12842 1 18.1337 62.5896 19.8166 5 12.2293 -3.54465
12843 1 20.6065 62.5896 19.8166 5 12.2293 -3.54465
12844 1 19.7823 62.5896 17.4852 5 12.2293 -3.54465
12845 1 22.2551 62.5896 17.4852 5 12.2293 -3.54465
12846 1 21.4308 62.5896 15.1539 5 12.2293 -3.54465
12847 1 23.9036 62.5896 15.1539 5 12.2293 -3.54465
12848 1 23.0793 62.5896 12.8225 5 12.2293 -3.54465
12849 1 25.5521 62.5896 12.8225 5 12.2293 -3.54465
12850 1 24.7278 62.5896 10.4911 5 12.2293 -3.54465
12851 1 27.2006 62.5896 10.4911 5 12.2293 -3.54465
12852 1 26.3764 62.5896 8.15977 5 12.2293 -3.54465
12853 1 28.8491 62.5896 8.15977 5 12.2293 -3.54465
12854 1 28.0249 62.5896 5.82841 5 12.2293 -3.54465
12855 1 30.4977 62.5896 5.82841 5 12.2293 -3.54465
12856 1 29.6734 62.5896 3.49704 5 12.2293 -3.54465
12857 1 32.1462 62.5896 3.49704 5 12.2293 -3.54465
12858 1 31.3219 62.5896 1.16568 5 12.2293 -3.54465
12859 1 33.7947 62.5896 1.16568 5 12.2293 -3.54465
12860 1 1.64852 60.5706 46.6273 3 5.945e-17 -4.10627
12861 1 4.12131 60.5706 46.6273 3 1.0169e-16 -4.10627
12862 1 3.29705 60.5706 44.2959 3 4e-16 -4.10627
12863 1 5.76983 60.5706 44.2959 3 4.03897e-28 -4.10627
12864 1 4.94557 60.5706 41.9645 3 1e-16 -4.10627
12865 1 7.41835 60.5706 41.9645 3 1e-16 -4.10627
12866 1 6.59409 60.5706 39.6332 3 4.03897e-28 -4.10627
12867 1 9.06687 60.5706 39.6332 3 4e-16 -4.10627
12868 1 8.24261 60.5706 37.3018 3 9.99999e-17 -4.10627
12869 1 10.7154 60.5706 37.3018 3 1e-16 -4.10627
12870 1 9.89114 60.5706 34.9704 3 4e-16 -4.10627
12871 1 12.3639 60.5706 34.9704 3 6.05845e-28 -4.10627
12872 1 11.5397 60.5706 32.6391 3 1e-16 -4.10627
12873 1 14.0124 60.5706 32.6391 3 1e-16 -4.10627
12874 1 13.1882 60.5706 30.3077 3 4.03897e-28 -4.10627
12875 1 15.661 60.5706 30.3077 3 4e-16 -4.10627
12876 1 14.8367 60.5706 27.9764 3 9.99999e-17 -4.10627
12877 1 17.3095 60.5706 27.9764 3 1e-16 -4.10627
12878 1 16.4852 60.5706 25.645 3 4e-16 -4.10627
12879 1 18.958 60.5706 25.645 3 7.57306e-28 -4.10627
12880 1 18.1337 60.5706 23.3136 3 1e-16 -4.10627
12881 1 20.6065 60.5706 23.3136 3 1e-16 -4.10627
12882 1 19.7823 60.5706 20.9823 3 1e-16 -4.10627
12883 1 22.2551 60.5706 20.9823 3 4e-16 -4.10627
12884 1 21.4308 60.5706 18.6509 3 4e-16 -4.10627
12885 1 23.9036 60.5706 18.6509 3 1e-16 -4.10627
12886 1 23.0793 60.5706 16.3195 3 1e-16 -4.10627
12887 1 25.5521 60.5706 16.3195 3 6.56332e-28 -4.10627
12888 1 24.7278 60.5706 13.9882 3 4.2914e-28 -4.10627
12889 1 27.2006 60.5706 13.9882 3 1e-16 -4.10627
12890 1 26.3764 60.5706 11.6568 3 1e-16 -4.10627
12891 1 28.8491 60.5706 11.6568 3 4e-16 -4.10627
12892 1 28.0249 60.5706 9.32545 3 3.99999e-16 -4.10627
12893 1 30.4977 60.5706 9.32545 3 9.99999e-17 -4.10627
12894 1 29.6734 60.5706 6.99409 3 1e-16 -4.10627
12895 1 32.1462 60.5706 6.99409 3 9.99999e-17 -4.10627
12896 1 31.3219 60.5706 4.66273 3 4.03897e-28 -4.10627
12897 1 33.7947 60.5706 4.66273 3 4.00001e-16 -4.10627
12898 1 32.9705 60.5706 2.33136 3 9.99999e-17 -4.10627
12899 1 35.4432 60.5706 2.33136 3 1e-16 -4.10627
12900 1 34.619 60.5706 0 3 4.0507e-16 -4.10627
12901 1 37.0918 60.5706 0 3 5.07001e-18 -4.10627
12902 1 3.29705 58.5516 47.7929 3 4.0507e-16 -4.12244
12903 1 5.76983 58.5516 47.7929 3 5.06996e-18 -4.12244
12904 1 4.94557 58.5516 45.4616 3 1e-16 -4.12244
12905 1 7.41835 58.5516 45.4616 3 1e-16 -4.12244
12906 1 6.59409 58.5516 43.1302 3 6.05845e-28 -4.12244
12907 1 9.06687 58.5516 43.1302 3 4e-16 -4.12244
12908 1 8.24261 58.5516 40.7989 3 9.99999e-17 -4.12244
12909 1 10.7154 58.5516 40.7989 3 1e-16 -4.12244
12910 1 9.89114 58.5516 38.4675 3 4e-16 -4.12244
12911 1 12.3639 58.5516 38.4675 3 0 -4.12244
12912 1 11.5397 58.5516 36.1361 3 1e-16 -4.12244
12913 1 14.0124 58.5516 36.1361 3 1e-16 -4.12244
12914 1 13.1882 58.5516 33.8048 3 0 -4.12244
12915 1 15.661 58.5516 33.8048 3 4e-16 -4.12244
12916 1 14.8367 58.5516 31.4734 3 9.99999e-17 -4.12244
12917 1 17.3095 58.5516 31.4734 3 1e-16 -4.12244
12918 1 16.4852 58.5516 29.142 3 4e-16 -4.12244
12919 1 18.958 58.5516 29.142 3 3.5341e-28 -4.12244
12920 1 18.1337 58.5516 26.8107 3 1e-16 -4.12244
12921 1 20.6065 58.5516 26.8107 3 1e-16 -4.12244
12922 1 19.7823 58.5516 24.4793 3 1e-16 -4.12244
12923 1 22.2551 58.5516 24.4793 3 4e-16 -4.12244
12924 1 21.4308 58.5516 22.1479 3 4e-16 -4.12244
12925 1 23.9036 58.5516 22.1479 3 1e-16 -4.12244
12926 1 23.0793 58.5516 19.8166 3 1e-16 -4.12244
12927 1 25.5521 58.5516 19.8166 3 1.51461e-28 -4.12244
12928 1 24.7278 58.5516 17.4852 3 1.00974e-28 -4.12244
12929 1 27.2006 58.5516 17.4852 3 1e-16 -4.12244
12930 1 26.3764 58.5516 15.1539 3 1e-16 -4.12244
12931 1 28.8491 58.5516 15.1539 3 4e-16 -4.12244
12932 1 28.0249 58.5516 12.8225 3 3.99999e-16 -4.12244
12933 1 30.4977 58.5516 12.8225 3 9.99999e-17 -4.12244
12934 1 29.6734 58.5516 10.4911 3 1e-16 -4.12244
12935 1 32.1462 58.5516 10.4911 3 9.99999e-17 -4.12244
12936 1 31.3219 58.5516 8.15977 3 1.26218e-29 -4.12244
12937 1 33.7947 58.5516 8.15977 3 4.00001e-16 -4.12244
12938 1 32.9705 58.5516 5.82841 3 9.99999e-17 -4.12244
12939 1 35.4432 58.5516 5.82841 3 1e-16 -4.12244
12940 1 34.619 58.5516 3.49704 3 4e-16 -4.12244
12941 1 37.0918 58.5516 3.49704 3 7.88861e-31 -4.12244
12942 1 36.2675 58.5516 1.16568 3 1.0169e-16 -4.12244
12943 1 38.7403 58.5516 1.16568 3 1.0169e-16 -4.12244
12944 1 6.59409 56.5326 46.6273 3 1.69002e-18 -4.12244
12945 1 9.06687 56.5326 46.6273 3 4.0169e-16 -4.12244
12946 1 8.24261 56.5326 44.2959 3 9.99999e-17 -4.12244
12947 1 10.7154 56.5326 44.2959 3 1e-16 -4.12244
12948 1 9.89114 56.5326 41.9645 3 4e-16 -4.12244
12949 1 12.3639 56.5326 41.9645 3 0 -4.12244
12950 1 11.5397 56.5326 39.6332 3 1e-16 -4.12244
12951 1 14.0124 56.5326 39.6332 3 1e-16 -4.12244
12952 1 13.1882 56.5326 37.3018 3 0 -4.12244
12953 1 15.661 56.5326 37.3018 3 4e-16 -4.12244
12954 1 14.8367 56.5326 34.9704 3 9.99999e-17 -4.12244
12955 1 17.3095 56.5326 34.9704 3 1e-16 -4.12244
12956 1 16.4852 56.5326 32.6391 3 4e-16 -4.12244
12957 1 18.958 56.5326 32.6391 3 4.03897e-28 -4.12244
12958 1 18.1337 56.5326 30.3077 3 1e-16 -4.12244
12959 1 20.6065 56.5326 30.3077 3 1e-16 -4.12244
12960 1 19.7823 56.5326 27.9764 3 1e-16 -4.12244
12961 1 22.2551 56.5326 27.9764 3 4e-16 -4.12244
12962 1 21.4308 56.5326 25.645 3 4e-16 -4.12244
12963 1 23.9036 56.5326 25.645 3 1e-16 -4.12244
12964 1 23.0793 56.5326 23.3136 3 1e-16 -4.12244
12965 1 25.5521 56.5326 23.3136 3 1.51461e-28 -4.12244
12966 1 24.7278 56.5326 20.9823 3 0 -4.12244
12967 1 27.2006 56.5326 20.9823 3 1e-16 -4.12244
12968 1 26.3764 56.5326 18.6509 3 1e-16 -4.12244
12969 1 28.8491 56.5326 18.6509 3 4e-16 -4.12244
12970 1 28.0249 56.5326 16.3195 3 3.99999e-16 -4.12244
12971 1 30.4977 56.5326 16.3195 3 9.99999e-17 -4.12244
12972 1 29.6734 56.5326 13.9882 3 1e-16 -4.12244
12973 1 32.1462 56.5326 13.9882 3 9.99999e-17 -4.12244
12974 1 31.3219 56.5326 11.6568 3 0 -4.12244
12975 1 33.7947 56.5326 11.6568 3 4.00001e-16 -4.12244
12976 1 32.9705 56.5326 9.32545 3 9.99999e-17 -4.12244
12977 1 35.4432 56.5326 9.32545 3 1e-16 -4.12244
12978 1 34.619 56.5326 6.99409 3 4e-16 -4.12244
12979 1 37.0918 56.5326 6.99409 3 0 -4.12244
12980 1 36.2675 56.5326 4.66273 3 1e-16 -4.12244
12981 1 38.7403 56.5326 4.66273 3 1e-16 -4.12244
12982 1 37.916 56.5326 2.33136 3 8.07794e-28 -4.12244
12983 1 40.3888 56.5326 2.33136 3 3.99999e-16 -4.12244
12984 1 39.5645 56.5326 0 3 1.0507e-16 -4.12244
12985 1 42.0373 56.5326 0 3 1.0507e-16 -4.12244
12986 1 8.24261 54.5135 47.7929 3 1.0507e-16 -4.12244
12987 1 10.7154 54.5135 47.7929 3 1.0507e-16 -4.12244
12988 1 9.89114 54.5135 45.4616 3 4e-16 -4.12244
12989 1 12.3639 54.5135 45.4616 3 0 -4.12244
12990 1 11.5397 54.5135 43.1302 3 1e-16 -4.12244
12991 1 14.0124 54.5135 43.1302 3 1e-16 -4.12244
12992 1 13.1882 54.5135 40.7989 3 6.05845e-28 -4.12244
12993 1 15.661 54.5135 40.7989 3 4e-16 -4.12244
12994 1 14.8367 54.5135 38.4675 3 9.99999e-17 -4.12244
12995 1 17.3095 54.5135 38.4675 3 1e-16 -4.12244
12996 1 16.4852 54.5135 36.1361 3 4e-16 -4.12244
12997 1 18.958 54.5135 36.1361 3 8.07794e-28 -4.12244
12998 1 18.1337 54.5135 33.8048 3 1e-16 -4.12244
12999 1 20.6065 54.5135 33.8048 3 1e-16 -4.12244
13000 1 19.7823 54.5135 31.4734 3 1e-16 -4.12244
13001 1 22.2551 54.5135 31.4734 3 4e-16 -4.12244
13002 1 21.4308 54.5135 29.142 3 4e-16 -4.12244
13003 1 23.9036 54.5135 29.142 3 1e-16 -4.12244
13004 1 23.0793 54.5135 26.8107 3 1e-16 -4.12244
13005 1 25.5521 54.5135 26.8107 3 1.51461e-28 -4.12244
13006 1 24.7278 54.5135 24.4793 3 1.00974e-28 -4.12244
13007 1 27.2006 54.5135 24.4793 3 1e-16 -4.12244
13008 1 26.3764 54.5135 22.1479 3 1e-16 -4.12244
13009 1 28.8491 54.5135 22.1479 3 4e-16 -4.12244
13010 1 28.0249 54.5135 19.8166 3 3.99999e-16 -4.12244
13011 1 30.4977 54.5135 19.8166 3 9.99999e-17 -4.12244
13012 1 29.6734 54.5135 17.4852 3 1e-16 -4.12244
13013 1 32.1462 54.5135 17.4852 3 9.99999e-17 -4.12244
13014 1 31.3219 54.5135 15.1539 3 0 -4.12244
13015 1 33.7947 54.5135 15.1539 3 4.00001e-16 -4.12244
13016 1 32.9705 54.5135 12.8225 3 9.99999e-17 -4.12244
13017 1 35.4432 54.5135 12.8225 3 1e-16 -4.12244
13018 1 34.619 54.5135 10.4911 3 4e-16 -4.12244
13019 1 37.0918 54.5135 10.4911 3 0 -4.12244
13020 1 36.2675 54.5135 8.15977 3 1e-16 -4.12244
13021 1 38.7403 54.5135 8.15977 3 1e-16 -4.12244
13022 1 37.916 54.5135 5.82841 3 8.10949e-28 -4.12244
13023 1 40.3888 54.5135 5.82841 3 3.99999e-16 -4.12244
13024 1 39.5645 54.5135 3.49704 3 1e-16 -4.12244
13025 1 42.0373 54.5135 3.49704 3 1e-16 -4.12244
13026 1 41.2131 54.5135 1.16568 3 4.01691e-16 -4.12244
13027 1 43.6859 54.5135 1.16568 3 1.69e-18 -4.12244
13028 1 11.5397 52.4945 46.6273 3 1.0169e-16 -4.12244
13029 1 14.0124 52.4945 46.6273 3 1.0169e-16 -4.12244
13030 1 13.1882 52.4945 44.2959 3 0 -4.12244
13031 1 15.661 52.4945 44.2959 3 4e-16 -4.12244
13032 1 14.8367 52.4945 41.9645 3 9.99999e-17 -4.12244
13033 1 17.3095 52.4945 41.9645 3 1e-16 -4.12244
13034 1 16.4852 52.4945 39.6332 3 4e-16 -4.12244
13035 1 18.958 52.4945 39.6332 3 2.01948e-28 -4.12244
13036 1 18.1337 52.4945 37.3018 3 1e-16 -4.12244
13037 1 20.6065 52.4945 37.3018 3 1e-16 -4.12244
13038 1 19.7823 52.4945 34.9704 3 1e-16 -4.12244
13039 1 22.2551 52.4945 34.9704 3 4e-16 -4.12244
13040 1 21.4308 52.4945 32.6391 3 4e-16 -4.12244
13041 1 23.9036 52.4945 32.6391 3 1e-16 -4.12244
13042 1 23.0793 52.4945 30.3077 3 1e-16 -4.12244
13043 1 25.5521 52.4945 30.3077 3 1.51461e-28 -4.12244
13044 1 24.7278 52.4945 27.9764 3 1.51461e-28 -4.12244
13045 1 27.2006 52.4945 27.9764 3 1e-16 -4.12244
13046 1 26.3764 52.4945 25.645 3 1e-16 -4.12244
13047 1 28.8491 52.4945 25.645 3 4e-16 -4.12244
13048 1 28.0249 52.4945 23.3136 3 3.99999e-16 -4.12244
13049 1 30.4977 52.4945 23.3136 3 9.99999e-17 -4.12244
13050 1 29.6734 52.4945 20.9823 3 1e-16 -4.12244
13051 1 32.1462 52.4945 20.9823 3 9.99999e-17 -4.12244
13052 1 31.3219 52.4945 18.6509 3 0 -4.12244
13053 1 33.7947 52.4945 18.6509 3 4.00001e-16 -4.12244
13054 1 32.9705 52.4945 16.3195 3 9.99999e-17 -4.12244
13055 1 35.4432 52.4945 16.3195 3 1e-16 -4.12244
13056 1 34.619 52.4945 13.9882 3 4e-16 -4.12244
13057 1 37.0918 52.4945 13.9882 3 2.52435e-29 -4.12244
13058 1 36.2675 52.4945 11.6568 3 1e-16 -4.12244
13059 1 38.7403 52.4945 11.6568 3 1e-16 -4.12244
13060 1 37.916 52.4945 9.32545 3 8.07794e-28 -4.12244
13061 1 40.3888 52.4945 9.32545 3 3.99999e-16 -4.12244
13062 1 39.5645 52.4945 6.99409 3 1e-16 -4.12244
13063 1 42.0373 52.4945 6.99409 3 1e-16 -4.12244
13064 1 41.2131 52.4945 4.66273 3 4.00001e-16 -4.12244
13065 1 43.6859 52.4945 4.66273 3 2.01948e-28 -4.12244
13066 1 42.8616 52.4945 2.33136 3 9.99999e-17 -4.12244
13067 1 45.3344 52.4945 2.33136 3 9.99999e-17 -4.12244
13068 1 44.5101 52.4945 0 3 5.07001e-18 -4.12244
13069 1 46.9829 52.4945 0 3 4.0507e-16 -4.12244
13070 1 13.1882 50.4755 47.7929 3 5.06996e-18 -4.12244
13071 1 15.661 50.4755 47.7929 3 4.0507e-16 -4.12244
13072 1 14.8367 50.4755 45.4616 3 9.99999e-17 -4.12244
13073 1 17.3095 50.4755 45.4616 3 1e-16 -4.12244
13074 1 16.4852 50.4755 43.1302 3 4e-16 -4.12244
13075 1 18.958 50.4755 43.1302 3 8.07794e-28 -4.12244
13076 1 18.1337 50.4755 40.7989 3 1e-16 -4.12244
13077 1 20.6065 50.4755 40.7989 3 1e-16 -4.12244
13078 1 19.7823 50.4755 38.4675 3 1e-16 -4.12244
13079 1 22.2551 50.4755 38.4675 3 4e-16 -4.12244
13080 1 21.4308 50.4755 36.1361 3 4e-16 -4.12244
13081 1 23.9036 50.4755 36.1361 3 1e-16 -4.12244
13082 1 23.0793 50.4755 33.8048 3 1e-16 -4.12244
13083 1 25.5521 50.4755 33.8048 3 1.51461e-28 -4.12244
13084 1 24.7278 50.4755 31.4734 3 5.04871e-29 -4.12244
13085 1 27.2006 50.4755 31.4734 3 1e-16 -4.12244
13086 1 26.3764 50.4755 29.142 3 1e-16 -4.12244
13087 1 28.8491 50.4755 29.142 3 4e-16 -4.12244
13088 1 28.0249 50.4755 26.8107 3 3.99999e-16 -4.12244
13089 1 30.4977 50.4755 26.8107 3 9.99999e-17 -4.12244
13090 1 29.6734 50.4755 24.4793 3 1e-16 -4.12244
13091 1 32.1462 50.4755 24.4793 3 9.99999e-17 -4.12244
13092 1 31.3219 50.4755 22.1479 3 0 -4.12244
13093 1 33.7947 50.4755 22.1479 3 4.00001e-16 -4.12244
13094 1 32.9705 50.4755 19.8166 3 9.99999e-17 -4.12244
13095 1 35.4432 50.4755 19.8166 3 1e-16 -4.12244
13096 1 34.619 50.4755 17.4852 3 4e-16 -4.12244
13097 1 37.0918 50.4755 17.4852 3 1.00974e-28 -4.12244
13098 1 36.2675 50.4755 15.1539 3 1e-16 -4.12244
13099 1 38.7403 50.4755 15.1539 3 1e-16 -4.12244
13100 1 37.916 50.4755 12.8225 3 8.45659e-28 -4.12244
13101 1 40.3888 50.4755 12.8225 3 3.99999e-16 -4.12244
13102 1 39.5645 50.4755 10.4911 3 1e-16 -4.12244
13103 1 42.0373 50.4755 10.4911 3 1e-16 -4.12244
13104 1 41.2131 50.4755 8.15977 3 4.00001e-16 -4.12244
13105 1 43.6859 50.4755 8.15977 3 2.1457e-28 -4.12244
13106 1 42.8616 50.4755 5.82841 3 9.99999e-17 -4.12244
13107 1 45.3344 50.4755 5.82841 3 9.99999e-17 -4.12244
13108 1 44.5101 50.4755 3.49704 3 2.02737e-28 -4.12244
13109 1 46.9829 50.4755 3.49704 3 3.99999e-16 -4.12244
13110 1 46.1586 50.4755 1.16568 3 1.0169e-16 -4.12244
13111 1 48.6314 50.4755 1.16568 3 1.0169e-16 -4.12244
13112 1 16.4852 48.4565 46.6273 3 4.0169e-16 -4.12244
13113 1 18.958 48.4565 46.6273 3 1.69002e-18 -4.12244
13114 1 18.1337 48.4565 44.2959 3 1e-16 -4.12244
13115 1 20.6065 48.4565 44.2959 3 1e-16 -4.12244
13116 1 19.7823 48.4565 41.9645 3 1e-16 -4.12244
13117 1 22.2551 48.4565 41.9645 3 4e-16 -4.12244
13118 1 21.4308 48.4565 39.6332 3 4e-16 -4.12244
13119 1 23.9036 48.4565 39.6332 3 1e-16 -4.12244
13120 1 23.0793 48.4565 37.3018 3 1e-16 -4.12244
13121 1 25.5521 48.4565 37.3018 3 1.51461e-28 -4.12244
13122 1 24.7278 48.4565 34.9704 3 2.01948e-28 -4.12244
13123 1 27.2006 48.4565 34.9704 3 1e-16 -4.12244
13124 1 26.3764 48.4565 32.6391 3 1e-16 -4.12244
13125 1 28.8491 48.4565 32.6391 3 4e-16 -4.12244
13126 1 28.0249 48.4565 30.3077 3 3.99999e-16 -4.12244
13127 1 30.4977 48.4565 30.3077 3 9.99999e-17 -4.12244
13128 1 29.6734 48.4565 27.9764 3 1e-16 -4.12244
13129 1 32.1462 48.4565 27.9764 3 9.99999e-17 -4.12244
13130 1 31.3219 48.4565 25.645 3 1.51461e-28 -4.12244
13131 1 33.7947 48.4565 25.645 3 4.00001e-16 -4.12244
13132 1 32.9705 48.4565 23.3136 3 9.99999e-17 -4.12244
13133 1 35.4432 48.4565 23.3136 3 1e-16 -4.12244
13134 1 34.619 48.4565 20.9823 3 4e-16 -4.12244
13135 1 37.0918 48.4565 20.9823 3 0 -4.12244
13136 1 36.2675 48.4565 18.6509 3 1e-16 -4.12244
13137 1 38.7403 48.4565 18.6509 3 1e-16 -4.12244
13138 1 37.916 48.4565 16.3195 3 9.08768e-28 -4.12244
13139 1 40.3888 48.4565 16.3195 3 3.99999e-16 -4.12244
13140 1 39.5645 48.4565 13.9882 3 1e-16 -4.12244
13141 1 42.0373 48.4565 13.9882 3 1e-16 -4.12244
13142 1 41.2131 48.4565 11.6568 3 4.00001e-16 -4.12244
13143 1 43.6859 48.4565 11.6568 3 2.01948e-28 -4.12244
13144 1 42.8616 48.4565 9.32545 3 9.99999e-17 -4.12244
13145 1 45.3344 48.4565 9.32545 3 9.99999e-17 -4.12244
13146 1 44.5101 48.4565 6.99409 3 2.01948e-28 -4.12244
13147 1 46.9829 48.4565 6.99409 3 3.99999e-16 -4.12244
13148 1 46.1586 48.4565 4.66273 3 9.99999e-17 -4.12244
13149 1 48.6314 48.4565 4.66273 3 9.99999e-17 -4.12244
13150 1 47.8072 48.4565 2.33136 3 3.99999e-16 -4.12244
13151 1 50.2799 48.4565 2.33136 3 2.01948e-28 -4.12244
13152 1 49.4557 48.4565 0 3 1.0507e-16 -4.12244
13153 1 51.9285 48.4565 0 3 1.0507e-16 -4.12244
13154 1 18.1337 46.4375 47.7929 3 1.0507e-16 -4.12244
13155 1 20.6065 46.4375 47.7929 3 1.0507e-16 -4.12244
13156 1 19.7823 46.4375 45.4616 3 1e-16 -4.12244
13157 1 22.2551 46.4375 45.4616 3 4e-16 -4.12244
13158 1 21.4308 46.4375 43.1302 3 4e-16 -4.12244
13159 1 23.9036 46.4375 43.1302 3 1e-16 -4.12244
13160 1 23.0793 46.4375 40.7989 3 1e-16 -4.12244
13161 1 25.5521 46.4375 40.7989 3 7.57306e-28 -4.12244
13162 1 24.7278 46.4375 38.4675 3 0 -4.12244
13163 1 27.2006 46.4375 38.4675 3 1e-16 -4.12244
13164 1 26.3764 46.4375 36.1361 3 1e-16 -4.12244
13165 1 28.8491 46.4375 36.1361 3 4e-16 -4.12244
13166 1 28.0249 46.4375 33.8048 3 3.99999e-16 -4.12244
13167 1 30.4977 46.4375 33.8048 3 9.99999e-17 -4.12244
13168 1 29.6734 46.4375 31.4734 3 1e-16 -4.12244
13169 1 32.1462 46.4375 31.4734 3 9.99999e-17 -4.12244
13170 1 31.3219 46.4375 29.142 3 1.51461e-28 -4.12244
13171 1 33.7947 46.4375 29.142 3 4.00001e-16 -4.12244
13172 1 32.9705 46.4375 26.8107 3 9.99999e-17 -4.12244
13173 1 35.4432 46.4375 26.8107 3 1e-16 -4.12244
13174 1 34.619 46.4375 24.4793 3 4e-16 -4.12244
13175 1 37.0918 46.4375 24.4793 3 1.00974e-28 -4.12244
13176 1 36.2675 46.4375 22.1479 3 1e-16 -4.12244
13177 1 38.7403 46.4375 22.1479 3 1e-16 -4.12244
13178 1 37.916 46.4375 19.8166 3 8.07794e-28 -4.12244
13179 1 40.3888 46.4375 19.8166 3 3.99999e-16 -4.12244
13180 1 39.5645 46.4375 17.4852 3 1e-16 -4.12244
13181 1 42.0373 46.4375 17.4852 3 1e-16 -4.12244
13182 1 41.2131 46.4375 15.1539 3 4.00001e-16 -4.12244
13183 1 43.6859 46.4375 15.1539 3 2.01948e-28 -4.12244
13184 1 42.8616 46.4375 12.8225 3 9.99999e-17 -4.12244
13185 1 45.3344 46.4375 12.8225 3 9.99999e-17 -4.12244
13186 1 44.5101 46.4375 10.4911 3 2.01948e-28 -4.12244
13187 1 46.9829 46.4375 10.4911 3 3.99999e-16 -4.12244
13188 1 46.1586 46.4375 8.15977 3 9.99999e-17 -4.12244
13189 1 48.6314 46.4375 8.15977 3 9.99999e-17 -4.12244
13190 1 47.8072 46.4375 5.82841 3 3.99999e-16 -4.12244
13191 1 50.2799 46.4375 5.82841 3 2.05104e-28 -4.12244
13192 1 49.4557 46.4375 3.49704 3 9.99999e-17 -4.12244
13193 1 51.9285 46.4375 3.49704 3 1e-16 -4.12244
13194 1 51.1042 46.4375 1.16568 3 1.0169e-16 -4.12244
13195 1 53.577 46.4375 1.16568 3 4.01689e-16 -4.12244
13196 1 21.4308 44.4184 46.6273 3 4.01691e-16 -4.12244
13197 1 23.9036 44.4184 46.6273 3 1.0169e-16 -4.12244
13198 1 23.0793 44.4184 44.2959 3 1e-16 -4.12244
13199 1 25.5521 44.4184 44.2959 3 1.51461e-28 -4.12244
13200 1 24.7278 44.4184 41.9645 3 0 -4.12244
13201 1 27.2006 44.4184 41.9645 3 1e-16 -4.12244
13202 1 26.3764 44.4184 39.6332 3 1e-16 -4.12244
13203 1 28.8491 44.4184 39.6332 3 4e-16 -4.12244
13204 1 28.0249 44.4184 37.3018 3 3.99999e-16 -4.12244
13205 1 30.4977 44.4184 37.3018 3 9.99999e-17 -4.12244
13206 1 29.6734 44.4184 34.9704 3 1e-16 -4.12244
13207 1 32.1462 44.4184 34.9704 3 9.99999e-17 -4.12244
13208 1 31.3219 44.4184 32.6391 3 2.01948e-28 -4.12244
13209 1 33.7947 44.4184 32.6391 3 4.00001e-16 -4.12244
13210 1 32.9705 44.4184 30.3077 3 9.99999e-17 -4.12244
13211 1 35.4432 44.4184 30.3077 3 1e-16 -4.12244
13212 1 34.619 44.4184 27.9764 3 4e-16 -4.12244
13213 1 37.0918 44.4184 27.9764 3 1.51461e-28 -4.12244
13214 1 36.2675 44.4184 25.645 3 1e-16 -4.12244
13215 1 38.7403 44.4184 25.645 3 1e-16 -4.12244
13216 1 37.916 44.4184 23.3136 3 8.07794e-28 -4.12244
13217 1 40.3888 44.4184 23.3136 3 3.99999e-16 -4.12244
13218 1 39.5645 44.4184 20.9823 3 1e-16 -4.12244
13219 1 42.0373 44.4184 20.9823 3 1e-16 -4.12244
13220 1 41.2131 44.4184 18.6509 3 4.00001e-16 -4.12244
13221 1 43.6859 44.4184 18.6509 3 2.01948e-28 -4.12244
13222 1 42.8616 44.4184 16.3195 3 9.99999e-17 -4.12244
13223 1 45.3344 44.4184 16.3195 3 9.99999e-17 -4.12244
13224 1 44.5101 44.4184 13.9882 3 2.27192e-28 -4.12244
13225 1 46.9829 44.4184 13.9882 3 3.99999e-16 -4.12244
13226 1 46.1586 44.4184 11.6568 3 9.99999e-17 -4.12244
13227 1 48.6314 44.4184 11.6568 3 9.99999e-17 -4.12244
13228 1 47.8072 44.4184 9.32545 3 3.99999e-16 -4.12244
13229 1 50.2799 44.4184 9.32545 3 2.01948e-28 -4.12244
13230 1 49.4557 44.4184 6.99409 3 9.99999e-17 -4.12244
13231 1 51.9285 44.4184 6.99409 3 1e-16 -4.12244
13232 1 51.1042 44.4184 4.66273 3 9.99999e-17 -4.12244
13233 1 53.577 44.4184 4.66273 3 3.99999e-16 -4.12244
13234 1 52.7527 44.4184 2.33136 3 4.00001e-16 -4.12244
13235 1 55.2255 44.4184 2.33136 3 1e-16 -4.12244
13236 1 54.4012 44.4184 0 3 1.0507e-16 -4.12244
13237 1 56.874 44.4184 0 3 5.07001e-18 -4.12244
13238 1 23.0793 42.3994 47.7929 3 1.0507e-16 -4.12244
13239 1 25.5521 42.3994 47.7929 3 5.06996e-18 -4.12244
13240 1 24.7278 42.3994 45.4616 3 0 -4.12244
13241 1 27.2006 42.3994 45.4616 3 1e-16 -4.12244
13242 1 26.3764 42.3994 43.1302 3 1e-16 -4.12244
13243 1 28.8491 42.3994 43.1302 3 4e-16 -4.12244
13244 1 28.0249 42.3994 40.7989 3 3.99999e-16 -4.12244
13245 1 30.4977 42.3994 40.7989 3 9.99999e-17 -4.12244
13246 1 29.6734 42.3994 38.4675 3 1e-16 -4.12244
13247 1 32.1462 42.3994 38.4675 3 9.99999e-17 -4.12244
13248 1 31.3219 42.3994 36.1361 3 6.05845e-28 -4.12244
13249 1 33.7947 42.3994 36.1361 3 4.00001e-16 -4.12244
13250 1 32.9705 42.3994 33.8048 3 9.99999e-17 -4.12244
13251 1 35.4432 42.3994 33.8048 3 1e-16 -4.12244
13252 1 34.619 42.3994 31.4734 3 4e-16 -4.12244
13253 1 37.0918 42.3994 31.4734 3 5.04871e-29 -4.12244
13254 1 36.2675 42.3994 29.142 3 1e-16 -4.12244
13255 1 38.7403 42.3994 29.142 3 1e-16 -4.12244
13256 1 37.916 42.3994 26.8107 3 8.07794e-28 -4.12244
13257 1 40.3888 42.3994 26.8107 3 3.99999e-16 -4.12244
13258 1 39.5645 42.3994 24.4793 3 1e-16 -4.12244
13259 1 42.0373 42.3994 24.4793 3 1e-16 -4.12244
13260 1 41.2131 42.3994 22.1479 3 4.00001e-16 -4.12244
13261 1 43.6859 42.3994 22.1479 3 2.01948e-28 -4.12244
13262 1 42.8616 42.3994 19.8166 3 9.99999e-17 -4.12244
13263 1 45.3344 42.3994 19.8166 3 9.99999e-17 -4.12244
13264 1 44.5101 42.3994 17.4852 3 3.02923e-28 -4.12244
13265 1 46.9829 42.3994 17.4852 3 3.99999e-16 -4.12244
13266 1 46.1586 42.3994 15.1539 3 9.99999e-17 -4.12244
13267 1 48.6314 42.3994 15.1539 3 9.99999e-17 -4.12244
13268 1 47.8072 42.3994 12.8225 3 3.99999e-16 -4.12244
13269 1 50.2799 42.3994 12.8225 3 2.39814e-28 -4.12244
13270 1 49.4557 42.3994 10.4911 3 9.99999e-17 -4.12244
13271 1 51.9285 42.3994 10.4911 3 1e-16 -4.12244
13272 1 51.1042 42.3994 8.15977 3 9.99999e-17 -4.12244
13273 1 53.577 42.3994 8.15977 3 3.99999e-16 -4.12244
13274 1 52.7527 42.3994 5.82841 3 4.00001e-16 -4.12244
13275 1 55.2255 42.3994 5.82841 3 1e-16 -4.12244
13276 1 54.4012 42.3994 3.49704 3 1e-16 -4.12244
13277 1 56.874 42.3994 3.49704 3 7.88861e-31 -4.12244
13278 1 56.0498 42.3994 1.16568 3 1.69e-18 -4.12244
13279 1 58.5226 42.3994 1.16568 3 1.0169e-16 -4.12244
13280 1 26.3764 40.3804 46.6273 3 1.0169e-16 -4.12244
13281 1 28.8491 40.3804 46.6273 3 4.0169e-16 -4.12244
13282 1 28.0249 40.3804 44.2959 3 3.99999e-16 -4.12244
13283 1 30.4977 40.3804 44.2959 3 9.99999e-17 -4.12244
13284 1 29.6734 40.3804 41.9645 3 1e-16 -4.12244
13285 1 32.1462 40.3804 41.9645 3 9.99999e-17 -4.12244
13286 1 31.3219 40.3804 39.6332 3 0 -4.12244
13287 1 33.7947 40.3804 39.6332 3 4.00001e-16 -4.12244
13288 1 32.9705 40.3804 37.3018 3 9.99999e-17 -4.12244
13289 1 35.4432 40.3804 37.3018 3 1e-16 -4.12244
13290 1 34.619 40.3804 34.9704 3 4e-16 -4.12244
13291 1 37.0918 40.3804 34.9704 3 2.01948e-28 -4.12244
13292 1 36.2675 40.3804 32.6391 3 1e-16 -4.12244
13293 1 38.7403 40.3804 32.6391 3 1e-16 -4.12244
13294 1 37.916 40.3804 30.3077 3 8.07794e-28 -4.12244
13295 1 40.3888 40.3804 30.3077 3 3.99999e-16 -4.12244
13296 1 39.5645 40.3804 27.9764 3 1e-16 -4.12244
13297 1 42.0373 40.3804 27.9764 3 1e-16 -4.12244
13298 1 41.2131 40.3804 25.645 3 4.00001e-16 -4.12244
13299 1 43.6859 40.3804 25.645 3 3.5341e-28 -4.12244
13300 1 42.8616 40.3804 23.3136 3 9.99999e-17 -4.12244
13301 1 45.3344 40.3804 23.3136 3 9.99999e-17 -4.12244
13302 1 44.5101 40.3804 20.9823 3 2.01948e-28 -4.12244
13303 1 46.9829 40.3804 20.9823 3 3.99999e-16 -4.12244
13304 1 46.1586 40.3804 18.6509 3 9.99999e-17 -4.12244
13305 1 48.6314 40.3804 18.6509 3 9.99999e-17 -4.12244
13306 1 47.8072 40.3804 16.3195 3 3.99999e-16 -4.12244
13307 1 50.2799 40.3804 16.3195 3 3.02923e-28 -4.12244
13308 1 49.4557 40.3804 13.9882 3 9.99999e-17 -4.12244
13309 1 51.9285 40.3804 13.9882 3 1e-16 -4.12244
13310 1 51.1042 40.3804 11.6568 3 9.99999e-17 -4.12244
13311 1 53.577 40.3804 11.6568 3 3.99999e-16 -4.12244
13312 1 52.7527 40.3804 9.32545 3 4.00001e-16 -4.12244
13313 1 55.2255 40.3804 9.32545 3 1e-16 -4.12244
13314 1 54.4012 40.3804 6.99409 3 1e-16 -4.12244
13315 1 56.874 40.3804 6.99409 3 0 -4.12244
13316 1 56.0498 40.3804 4.66273 3 0 -4.12244
13317 1 58.5226 40.3804 4.66273 3 9.99999e-17 -4.12244
13318 1 57.6983 40.3804 2.33136 3 1e-16 -4.12244
13319 1 60.1711 40.3804 2.33136 3 3.99999e-16 -4.12244
13320 1 59.3468 40.3804 0 3 4.0507e-16 -4.12244
13321 1 61.8196 40.3804 0 3 6.28299e-17 -4.12244
13322 1 28.0249 38.3614 47.7929 3 4.05069e-16 -4.12244
13323 1 30.4977 38.3614 47.7929 3 1.0507e-16 -4.12244
13324 1 29.6734 38.3614 45.4616 3 1e-16 -4.12244
13325 1 32.1462 38.3614 45.4616 3 9.99999e-17 -4.12244
13326 1 31.3219 38.3614 43.1302 3 6.05845e-28 -4.12244
13327 1 33.7947 38.3614 43.1302 3 4.00001e-16 -4.12244
13328 1 32.9705 38.3614 40.7989 3 9.99999e-17 -4.12244
13329 1 35.4432 38.3614 40.7989 3 1e-16 -4.12244
13330 1 34.619 38.3614 38.4675 3 4e-16 -4.12244
13331 1 37.0918 38.3614 38.4675 3 0 -4.12244
13332 1 36.2675 38.3614 36.1361 3 1e-16 -4.12244
13333 1 38.7403 38.3614 36.1361 3 1e-16 -4.12244
13334 1 37.916 38.3614 33.8048 3 8.07794e-28 -4.12244
13335 1 40.3888 38.3614 33.8048 3 3.99999e-16 -4.12244
13336 1 39.5645 38.3614 31.4734 3 1e-16 -4.12244
13337 1 42.0373 38.3614 31.4734 3 1e-16 -4.12244
13338 1 41.2131 38.3614 29.142 3 4.00001e-16 -4.12244
13339 1 43.6859 38.3614 29.142 3 3.5341e-28 -4.12244
13340 1 42.8616 38.3614 26.8107 3 9.99999e-17 -4.12244
13341 1 45.3344 38.3614 26.8107 3 9.99999e-17 -4.12244
13342 1 44.5101 38.3614 24.4793 3 3.02923e-28 -4.12244
13343 1 46.9829 38.3614 24.4793 3 3.99999e-16 -4.12244
13344 1 46.1586 38.3614 22.1479 3 9.99999e-17 -4.12244
13345 1 48.6314 38.3614 22.1479 3 9.99999e-17 -4.12244
13346 1 47.8072 38.3614 19.8166 3 3.99999e-16 -4.12244
13347 1 50.2799 38.3614 19.8166 3 2.01948e-28 -4.12244
13348 1 49.4557 38.3614 17.4852 3 9.99999e-17 -4.12244
13349 1 51.9285 38.3614 17.4852 3 1e-16 -4.12244
13350 1 51.1042 38.3614 15.1539 3 9.99999e-17 -4.12244
13351 1 53.577 38.3614 15.1539 3 3.99999e-16 -4.12244
13352 1 52.7527 38.3614 12.8225 3 4.00001e-16 -4.12244
13353 1 55.2255 38.3614 12.8225 3 1e-16 -4.12244
13354 1 54.4012 38.3614 10.4911 3 1e-16 -4.12244
13355 1 56.874 38.3614 10.4911 3 0 -4.12244
13356 1 56.0498 38.3614 8.15977 3 1.26218e-29 -4.12244
13357 1 58.5226 38.3614 8.15977 3 9.99999e-17 -4.12244
13358 1 57.6983 38.3614 5.82841 3 1e-16 -4.12244
13359 1 60.1711 38.3614 5.82841 3 3.99999e-16 -4.12244
13360 1 59.3468 38.3614 3.49704 3 3.99999e-16 -4.12244
13361 1 61.8196 38.3614 3.49704 3 5.77599e-17 -4.12244
13362 1 60.9953 38.3614 1.16568 3 1.0169e-16 -4.12244
13363 1 63.4681 38.3614 1.16568 3 2.473e-17 -4.12244
13364 1 31.3219 36.3424 46.6273 3 1.69002e-18 -4.12244
13365 1 33.7947 36.3424 46.6273 3 4.01691e-16 -4.12244
13366 1 32.9705 36.3424 44.2959 3 9.99999e-17 -4.12244
13367 1 35.4432 36.3424 44.2959 3 1e-16 -4.12244
13368 1 34.619 36.3424 41.9645 3 4e-16 -4.12244
13369 1 37.0918 36.3424 41.9645 3 0 -4.12244
13370 1 36.2675 36.3424 39.6332 3 1e-16 -4.12244
13371 1 38.7403 36.3424 39.6332 3 1e-16 -4.12244
13372 1 37.916 36.3424 37.3018 3 8.07794e-28 -4.12244
13373 1 40.3888 36.3424 37.3018 3 3.99999e-16 -4.12244
13374 1 39.5645 36.3424 34.9704 3 1e-16 -4.12244
13375 1 42.0373 36.3424 34.9704 3 1e-16 -4.12244
13376 1 41.2131 36.3424 32.6391 3 4.00001e-16 -4.12244
13377 1 43.6859 36.3424 32.6391 3 4.03897e-28 -4.12244
13378 1 42.8616 36.3424 30.3077 3 9.99999e-17 -4.12244
13379 1 45.3344 36.3424 30.3077 3 9.99999e-17 -4.12244
13380 1 44.5101 36.3424 27.9764 3 3.5341e-28 -4.12244
13381 1 46.9829 36.3424 27.9764 3 3.99999e-16 -4.12244
13382 1 46.1586 36.3424 25.645 3 9.99999e-17 -4.12244
13383 1 48.6314 36.3424 25.645 3 9.99999e-17 -4.12244
13384 1 47.8072 36.3424 23.3136 3 3.99999e-16 -4.12244
13385 1 50.2799 36.3424 23.3136 3 2.01948e-28 -4.12244
13386 1 49.4557 36.3424 20.9823 3 9.99999e-17 -4.12244
13387 1 51.9285 36.3424 20.9823 3 1e-16 -4.12244
13388 1 51.1042 36.3424 18.6509 3 9.99999e-17 -4.12244
13389 1 53.577 36.3424 18.6509 3 3.99999e-16 -4.12244
13390 1 52.7527 36.3424 16.3195 3 4.00001e-16 -4.12244
13391 1 55.2255 36.3424 16.3195 3 1e-16 -4.12244
13392 1 54.4012 36.3424 13.9882 3 1e-16 -4.12244
13393 1 56.874 36.3424 13.9882 3 2.52435e-29 -4.12244
13394 1 56.0498 36.3424 11.6568 3 0 -4.12244
13395 1 58.5226 36.3424 11.6568 3 9.99999e-17 -4.12244
13396 1 57.6983 36.3424 9.32545 3 1e-16 -4.12244
13397 1 60.1711 36.3424 9.32545 3 3.99999e-16 -4.12244
13398 1 59.3468 36.3424 6.99409 3 3.99999e-16 -4.12244
13399 1 61.8196 36.3424 6.99409 3 5.77599e-17 -4.12244
13400 1 60.9953 36.3424 4.66273 3 9.99999e-17 -4.12244
13401 1 63.4681 36.3424 4.66273 3 2.304e-17 -4.12244
13402 1 62.6439 36.3424 2.33136 3 5.76e-18 -4.12244
13403 1 32.9705 34.3233 47.7929 3 1.0507e-16 -4.12244
13404 1 35.4432 34.3233 47.7929 3 1.0507e-16 -4.12244
13405 1 34.619 34.3233 45.4616 3 4e-16 -4.12244
13406 1 37.0918 34.3233 45.4616 3 0 -4.12244
13407 1 36.2675 34.3233 43.1302 3 1e-16 -4.12244
13408 1 38.7403 34.3233 43.1302 3 1e-16 -4.12244
13409 1 37.916 34.3233 40.7989 3 1.41364e-27 -4.12244
13410 1 40.3888 34.3233 40.7989 3 3.99999e-16 -4.12244
13411 1 39.5645 34.3233 38.4675 3 1e-16 -4.12244
13412 1 42.0373 34.3233 38.4675 3 1e-16 -4.12244
13413 1 41.2131 34.3233 36.1361 3 4.00001e-16 -4.12244
13414 1 43.6859 34.3233 36.1361 3 8.07794e-28 -4.12244
13415 1 42.8616 34.3233 33.8048 3 9.99999e-17 -4.12244
13416 1 45.3344 34.3233 33.8048 3 9.99999e-17 -4.12244
13417 1 44.5101 34.3233 31.4734 3 2.52435e-28 -4.12244
13418 1 46.9829 34.3233 31.4734 3 3.99999e-16 -4.12244
13419 1 46.1586 34.3233 29.142 3 9.99999e-17 -4.12244
13420 1 48.6314 34.3233 29.142 3 9.99999e-17 -4.12244
13421 1 47.8072 34.3233 26.8107 3 3.99999e-16 -4.12244
13422 1 50.2799 34.3233 26.8107 3 2.01948e-28 -4.12244
13423 1 49.4557 34.3233 24.4793 3 9.99999e-17 -4.12244
13424 1 51.9285 34.3233 24.4793 3 1e-16 -4.12244
13425 1 51.1042 34.3233 22.1479 3 9.99999e-17 -4.12244
13426 1 53.577 34.3233 22.1479 3 3.99999e-16 -4.12244
13427 1 52.7527 34.3233 19.8166 3 4.00001e-16 -4.12244
13428 1 55.2255 34.3233 19.8166 3 1e-16 -4.12244
13429 1 54.4012 34.3233 17.4852 3 1e-16 -4.12244
13430 1 56.874 34.3233 17.4852 3 1.00974e-28 -4.12244
13431 1 56.0498 34.3233 15.1539 3 0 -4.12244
13432 1 58.5226 34.3233 15.1539 3 9.99999e-17 -4.12244
13433 1 57.6983 34.3233 12.8225 3 1e-16 -4.12244
13434 1 60.1711 34.3233 12.8225 3 3.99999e-16 -4.12244
13435 1 59.3468 34.3233 10.4911 3 3.99999e-16 -4.12244
13436 1 61.8196 34.3233 10.4911 3 5.77599e-17 -4.12244
13437 1 60.9953 34.3233 8.15977 3 9.99999e-17 -4.12244
13438 1 63.4681 34.3233 8.15977 3 2.304e-17 -4.12244
13439 1 62.6439 34.3233 5.82841 3 5.76e-18 -4.12244
13440 1 36.2675 32.3043 46.6273 3 1.0169e-16 -4.12244
13441 1 38.7403 32.3043 46.6273 3 1.0169e-16 -4.12244
13442 1 37.916 32.3043 44.2959 3 8.07794e-28 -4.12244
13443 1 40.3888 32.3043 44.2959 3 3.99999e-16 -4.12244
13444 1 39.5645 32.3043 41.9645 3 1e-16 -4.12244
13445 1 42.0373 32.3043 41.9645 3 1e-16 -4.12244
13446 1 41.2131 32.3043 39.6332 3 4.00001e-16 -4.12244
13447 1 43.6859 32.3043 39.6332 3 2.01948e-28 -4.12244
13448 1 42.8616 32.3043 37.3018 3 9.99999e-17 -4.12244
13449 1 45.3344 32.3043 37.3018 3 9.99999e-17 -4.12244
13450 1 44.5101 32.3043 34.9704 3 4.03897e-28 -4.12244
13451 1 46.9829 32.3043 34.9704 3 3.99999e-16 -4.12244
13452 1 46.1586 32.3043 32.6391 3 9.99999e-17 -4.12244
13453 1 48.6314 32.3043 32.6391 3 9.99999e-17 -4.12244
13454 1 47.8072 32.3043 30.3077 3 3.99999e-16 -4.12244
13455 1 50.2799 32.3043 30.3077 3 2.01948e-28 -4.12244
13456 1 49.4557 32.3043 27.9764 3 9.99999e-17 -4.12244
13457 1 51.9285 32.3043 27.9764 3 1e-16 -4.12244
13458 1 51.1042 32.3043 25.645 3 9.99999e-17 -4.12244
13459 1 53.577 32.3043 25.645 3 3.99999e-16 -4.12244
13460 1 52.7527 32.3043 23.3136 3 4.00001e-16 -4.12244
13461 1 55.2255 32.3043 23.3136 3 1e-16 -4.12244
13462 1 54.4012 32.3043 20.9823 3 1e-16 -4.12244
13463 1 56.874 32.3043 20.9823 3 0 -4.12244
13464 1 56.0498 32.3043 18.6509 3 0 -4.12244
13465 1 58.5226 32.3043 18.6509 3 9.99999e-17 -4.12244
13466 1 57.6983 32.3043 16.3195 3 1e-16 -4.12244
13467 1 60.1711 32.3043 16.3195 3 3.99999e-16 -4.12244
13468 1 59.3468 32.3043 13.9882 3 3.99999e-16 -4.12244
13469 1 61.8196 32.3043 13.9882 3 5.77599e-17 -4.12244
13470 1 60.9953 32.3043 11.6568 3 9.99999e-17 -4.12244
13471 1 63.4681 32.3043 11.6568 3 2.304e-17 -4.12244
13472 1 62.6439 32.3043 9.32545 3 5.76e-18 -4.12244
13473 1 37.916 30.2853 47.7929 3 5.06996e-18 -4.12244
13474 1 40.3888 30.2853 47.7929 3 4.05069e-16 -4.12244
13475 1 39.5645 30.2853 45.4616 3 1e-16 -4.12244
13476 1 42.0373 30.2853 45.4616 3 1e-16 -4.12244
13477 1 41.2131 30.2853 43.1302 3 4.00001e-16 -4.12244
13478 1 43.6859 30.2853 43.1302 3 9.08768e-28 -4.12244
13479 1 42.8616 30.2853 40.7989 3 9.99999e-17 -4.12244
13480 1 45.3344 30.2853 40.7989 3 9.99999e-17 -4.12244
13481 1 44.5101 30.2853 38.4675 3 3.02923e-28 -4.12244
13482 1 46.9829 30.2853 38.4675 3 3.99999e-16 -4.12244
13483 1 46.1586 30.2853 36.1361 3 9.99999e-17 -4.12244
13484 1 48.6314 30.2853 36.1361 3 9.99999e-17 -4.12244
13485 1 47.8072 30.2853 33.8048 3 3.99999e-16 -4.12244
13486 1 50.2799 30.2853 33.8048 3 3.02923e-28 -4.12244
13487 1 49.4557 30.2853 31.4734 3 9.99999e-17 -4.12244
13488 1 51.9285 30.2853 31.4734 3 1e-16 -4.12244
13489 1 51.1042 30.2853 29.142 3 9.99999e-17 -4.12244
13490 1 53.577 30.2853 29.142 3 3.99999e-16 -4.12244
13491 1 52.7527 30.2853 26.8107 3 4.00001e-16 -4.12244
13492 1 55.2255 30.2853 26.8107 3 1e-16 -4.12244
13493 1 54.4012 30.2853 24.4793 3 1e-16 -4.12244
13494 1 56.874 30.2853 24.4793 3 2.01948e-28 -4.12244
13495 1 56.0498 30.2853 22.1479 3 1.00974e-28 -4.12244
13496 1 58.5226 30.2853 22.1479 3 9.99999e-17 -4.12244
13497 1 57.6983 30.2853 19.8166 3 1e-16 -4.12244
13498 1 60.1711 30.2853 19.8166 3 3.99999e-16 -4.12244
13499 1 59.3468 30.2853 17.4852 3 3.99999e-16 -4.12244
13500 1 61.8196 30.2853 17.4852 3 5.77599e-17 -4.12244
13501 1 60.9953 30.2853 15.1539 3 9.99999e-17 -4.12244
13502 1 63.4681 30.2853 15.1539 3 2.304e-17 -4.12244
13503 1 62.6439 30.2853 12.8225 3 5.76e-18 -4.12244
13504 1 41.2131 28.2663 46.6273 3 4.01691e-16 -4.12244
13505 1 43.6859 28.2663 46.6273 3 1.69002e-18 -4.12244
13506 1 42.8616 28.2663 44.2959 3 9.99999e-17 -4.12244
13507 1 45.3344 28.2663 44.2959 3 9.99999e-17 -4.12244
13508 1 44.5101 28.2663 41.9645 3 2.01948e-28 -4.12244
13509 1 46.9829 28.2663 41.9645 3 3.99999e-16 -4.12244
13510 1 46.1586 28.2663 39.6332 3 9.99999e-17 -4.12244
13511 1 48.6314 28.2663 39.6332 3 9.99999e-17 -4.12244
13512 1 47.8072 28.2663 37.3018 3 3.99999e-16 -4.12244
13513 1 50.2799 28.2663 37.3018 3 2.01948e-28 -4.12244
13514 1 49.4557 28.2663 34.9704 3 9.99999e-17 -4.12244
13515 1 51.9285 28.2663 34.9704 3 1e-16 -4.12244
13516 1 51.1042 28.2663 32.6391 3 9.99999e-17 -4.12244
13517 1 53.577 28.2663 32.6391 3 3.99999e-16 -4.12244
13518 1 52.7527 28.2663 30.3077 3 4.00001e-16 -4.12244
13519 1 55.2255 28.2663 30.3077 3 1e-16 -4.12244
13520 1 54.4012 28.2663 27.9764 3 1e-16 -4.12244
13521 1 56.874 28.2663 27.9764 3 1.51461e-28 -4.12244
13522 1 56.0498 28.2663 25.645 3 1.51461e-28 -4.12244
13523 1 58.5226 28.2663 25.645 3 9.99999e-17 -4.12244
13524 1 57.6983 28.2663 23.3136 3 1e-16 -4.12244
13525 1 60.1711 28.2663 23.3136 3 3.99999e-16 -4.12244
13526 1 59.3468 28.2663 20.9823 3 3.99999e-16 -4.12244
13527 1 61.8196 28.2663 20.9823 3 5.77599e-17 -4.12244
13528 1 60.9953 28.2663 18.6509 3 9.99999e-17 -4.12244
13529 1 63.4681 28.2663 18.6509 3 2.304e-17 -4.12244
13530 1 62.6439 28.2663 16.3195 3 5.76e-18 -4.12244
13531 1 42.8616 26.2473 47.7929 3 1.0507e-16 -4.12244
13532 1 45.3344 26.2473 47.7929 3 1.0507e-16 -4.12244
13533 1 44.5101 26.2473 45.4616 3 3.02923e-28 -4.12244
13534 1 46.9829 26.2473 45.4616 3 3.99999e-16 -4.12244
13535 1 46.1586 26.2473 43.1302 3 9.99999e-17 -4.12244
13536 1 48.6314 26.2473 43.1302 3 9.99999e-17 -4.12244
13537 1 47.8072 26.2473 40.7989 3 3.99999e-16 -4.12244
13538 1 50.2799 26.2473 40.7989 3 9.08768e-28 -4.12244
13539 1 49.4557 26.2473 38.4675 3 9.99999e-17 -4.12244
13540 1 51.9285 26.2473 38.4675 3 1e-16 -4.12244
13541 1 51.1042 26.2473 36.1361 3 9.99999e-17 -4.12244
13542 1 53.577 26.2473 36.1361 3 3.99999e-16 -4.12244
13543 1 52.7527 26.2473 33.8048 3 4.00001e-16 -4.12244
13544 1 55.2255 26.2473 33.8048 3 1e-16 -4.12244
13545 1 54.4012 26.2473 31.4734 3 1e-16 -4.12244
13546 1 56.874 26.2473 31.4734 3 1.51461e-28 -4.12244
13547 1 56.0498 26.2473 29.142 3 2.52435e-28 -4.12244
13548 1 58.5226 26.2473 29.142 3 9.99999e-17 -4.12244
13549 1 57.6983 26.2473 26.8107 3 1e-16 -4.12244
13550 1 60.1711 26.2473 26.8107 3 3.99999e-16 -4.12244
13551 1 59.3468 26.2473 24.4793 3 3.99999e-16 -4.12244
13552 1 61.8196 26.2473 24.4793 3 5.77599e-17 -4.12244
13553 1 60.9953 26.2473 22.1479 3 9.99999e-17 -4.12244
13554 1 63.4681 26.2473 22.1479 3 2.304e-17 -4.12244
13555 1 62.6439 26.2473 19.8166 3 5.76e-18 -4.12244
13556 1 46.1586 24.2282 46.6273 3 1.0169e-16 -4.12244
13557 1 48.6314 24.2282 46.6273 3 1.0169e-16 -4.12244
13558 1 47.8072 24.2282 44.2959 3 3.99999e-16 -4.12244
13559 1 50.2799 24.2282 44.2959 3 2.01948e-28 -4.12244
13560 1 49.4557 24.2282 41.9645 3 9.99999e-17 -4.12244
13561 1 51.9285 24.2282 41.9645 3 1e-16 -4.12244
13562 1 51.1042 24.2282 39.6332 3 9.99999e-17 -4.12244
13563 1 53.577 24.2282 39.6332 3 3.99999e-16 -4.12244
13564 1 52.7527 24.2282 37.3018 3 4.00001e-16 -4.12244
13565 1 55.2255 24.2282 37.3018 3 1e-16 -4.12244
13566 1 54.4012 24.2282 34.9704 3 1e-16 -4.12244
13567 1 56.874 24.2282 34.9704 3 2.01948e-28 -4.12244
13568 1 56.0498 24.2282 32.6391 3 2.01948e-28 -4.12244
13569 1 58.5226 24.2282 32.6391 3 9.99999e-17 -4.12244
13570 1 57.6983 24.2282 30.3077 3 1e-16 -4.12244
13571 1 60.1711 24.2282 30.3077 3 3.99999e-16 -4.12244
13572 1 59.3468 24.2282 27.9764 3 3.99999e-16 -4.12244
13573 1 61.8196 24.2282 27.9764 3 5.77599e-17 -4.12244
13574 1 60.9953 24.2282 25.645 3 9.99999e-17 -4.12244
13575 1 63.4681 24.2282 25.645 3 2.304e-17 -4.12244
13576 1 62.6439 24.2282 23.3136 3 5.76e-18 -4.12244
13577 1 47.8072 22.2092 47.7929 3 4.05069e-16 -4.12244
13578 1 50.2799 22.2092 47.7929 3 5.06996e-18 -4.12244
13579 1 49.4557 22.2092 45.4616 3 9.99999e-17 -4.12244
13580 1 51.9285 22.2092 45.4616 3 1e-16 -4.12244
13581 1 51.1042 22.2092 43.1302 3 9.99999e-17 -4.12244
13582 1 53.577 22.2092 43.1302 3 3.99999e-16 -4.12244
13583 1 52.7527 22.2092 40.7989 3 4.00001e-16 -4.12244
13584 1 55.2255 22.2092 40.7989 3 1e-16 -4.12244
13585 1 54.4012 22.2092 38.4675 3 1e-16 -4.12244
13586 1 56.874 22.2092 38.4675 3 0 -4.12244
13587 1 56.0498 22.2092 36.1361 3 6.05845e-28 -4.12244
13588 1 58.5226 22.2092 36.1361 3 9.99999e-17 -4.12244
13589 1 57.6983 22.2092 33.8048 3 1e-16 -4.12244
13590 1 60.1711 22.2092 33.8048 3 3.99999e-16 -4.12244
13591 1 59.3468 22.2092 31.4734 3 3.99999e-16 -4.12244
13592 1 61.8196 22.2092 31.4734 3 5.77599e-17 -4.12244
13593 1 60.9953 22.2092 29.142 3 9.99999e-17 -4.12244
13594 1 63.4681 22.2092 29.142 3 2.304e-17 -4.12244
13595 1 62.6439 22.2092 26.8107 3 5.76e-18 -4.12244
13596 1 51.1042 20.1902 46.6273 3 1.0169e-16 -4.12244
13597 1 53.577 20.1902 46.6273 3 4.0169e-16 -4.12244
13598 1 52.7527 20.1902 44.2959 3 4.00001e-16 -4.12244
13599 1 55.2255 20.1902 44.2959 3 1e-16 -4.12244
13600 1 54.4012 20.1902 41.9645 3 1e-16 -4.12244
13601 1 56.874 20.1902 41.9645 3 0 -4.12244
13602 1 56.0498 20.1902 39.6332 3 0 -4.12244
13603 1 58.5226 20.1902 39.6332 3 9.99999e-17 -4.12244
13604 1 57.6983 20.1902 37.3018 3 1e-16 -4.12244
13605 1 60.1711 20.1902 37.3018 3 3.99999e-16 -4.12244
13606 1 59.3468 20.1902 34.9704 3 3.99999e-16 -4.12244
13607 1 61.8196 20.1902 34.9704 3 5.77599e-17 -4.12244
13608 1 60.9953 20.1902 32.6391 3 9.99999e-17 -4.12244
13609 1 63.4681 20.1902 32.6391 3 2.304e-17 -4.12244
13610 1 62.6439 20.1902 30.3077 3 5.76e-18 -4.12244
13611 1 52.7527 18.1712 47.7929 3 4.05071e-16 -4.12244
13612 1 55.2255 18.1712 47.7929 3 1.0507e-16 -4.12244
13613 1 54.4012 18.1712 45.4616 3 1e-16 -4.12244
13614 1 56.874 18.1712 45.4616 3 1.00974e-28 -4.12244
13615 1 56.0498 18.1712 43.1302 3 7.06819e-28 -4.12244
13616 1 58.5226 18.1712 43.1302 3 9.99999e-17 -4.12244
13617 1 57.6983 18.1712 40.7989 3 1e-16 -4.12244
13618 1 60.1711 18.1712 40.7989 3 3.99999e-16 -4.12244
13619 1 59.3468 18.1712 38.4675 3 3.99999e-16 -4.12244
13620 1 61.8196 18.1712 38.4675 3 5.77599e-17 -4.12244
13621 1 60.9953 18.1712 36.1361 3 9.99999e-17 -4.12244
13622 1 63.4681 18.1712 36.1361 3 2.304e-17 -4.12244
13623 1 62.6439 18.1712 33.8048 3 5.76e-18 -4.12244
13624 1 56.0498 16.1522 46.6273 3 1.69002e-18 -4.12244
13625 1 58.5226 16.1522 46.6273 3 1.0169e-16 -4.12244
13626 1 57.6983 16.1522 44.2959 3 1e-16 -4.12244
13627 1 60.1711 16.1522 44.2959 3 3.99999e-16 -4.12244
13628 1 59.3468 16.1522 41.9645 3 3.99999e-16 -4.12244
13629 1 61.8196 16.1522 41.9645 3 5.77599e-17 -4.12244
13630 1 60.9953 16.1522 39.6332 3 9.99999e-17 -4.12244
13631 1 63.4681 16.1522 39.6332 3 2.304e-17 -4.12244
13632 1 62.6439 16.1522 37.3018 3 5.76e-18 -4.12244
13633 1 57.6983 14.1331 47.7929 3 1.0507e-16 -4.12244
13634 1 60.1711 14.1331 47.7929 3 4.05069e-16 -4.12244
13635 1 59.3468 14.1331 45.4616 3 3.99999e-16 -4.12244
13636 1 61.8196 14.1331 45.4616 3 5.77599e-17 -4.12244
13637 1 60.9953 14.1331 43.1302 3 9.99999e-17 -4.12244
13638 1 63.4681 14.1331 43.1302 3 2.304e-17 -4.12244
13639 1 62.6439 14.1331 40.7989 3 5.76e-18 -4.12244
13640 1 60.9953 12.1141 46.6273 3 1.0169e-16 -4.12244
13641 1 63.4681 12.1141 46.6273 3 2.473e-17 -4.12244
13642 1 62.6439 12.1141 44.2959 3 5.76e-18 -4.12244
13643 1 62.6439 10.0951 47.7929 3 1.083e-17 -4.12244
13644 1 3.29705 62.5896 47.7929 5 12.2293 -3.54465
13645 1 5.76983 62.5896 47.7929 5 12.2293 -3.54465
13646 1 4.94557 62.5896 45.4616 5 12.2293 -3.54465
13647 1 7.41835 62.5896 45.4616 5 12.2293 -3.54465
13648 1 6.59409 62.5896 43.1302 5 12.2293 -3.54465
13649 1 9.06687 62.5896 43.1302 5 12.2293 -3.54465
13650 1 8.24261 62.5896 40.7989 5 12.2293 -3.54465
13651 1 10.7154 62.5896 40.7989 5 12.2293 -3.54465
13652 1 9.89114 62.5896 38.4675 5 12.2293 -3.54465
13653 1 12.3639 62.5896 38.4675 5 12.2293 -3.54465
13654 1 11.5397 62.5896 36.1361 5 12.2293 -3.54465
13655 1 14.0124 62.5896 36.1361 5 12.2293 -3.54465
13656 1 13.1882 62.5896 33.8048 5 12.2293 -3.54465
13657 1 15.661 62.5896 33.8048 5 12.2293 -3.54465
13658 1 14.8367 62.5896 31.4734 5 12.2293 -3.54465
13659 1 17.3095 62.5896 31.4734 5 12.2293 -3.54465
13660 1 16.4852 62.5896 29.142 5 12.2293 -3.54465
13661 1 18.958 62.5896 29.142 5 12.2293 -3.54465
13662 1 18.1337 62.5896 26.8107 5 12.2293 -3.54465
13663 1 20.6065 62.5896 26.8107 5 12.2293 -3.54465
13664 1 19.7823 62.5896 24.4793 5 12.2293 -3.54465
13665 1 22.2551 62.5896 24.4793 5 12.2293 -3.54465
13666 1 21.4308 62.5896 22.1479 5 12.2293 -3.54465
13667 1 23.9036 62.5896 22.1479 5 12.2293 -3.54465
13668 1 23.0793 62.5896 19.8166 5 12.2293 -3.54465
13669 1 25.5521 62.5896 19.8166 5 12.2293 -3.54465
13670 1 24.7278 62.5896 17.4852 5 12.2293 -3.54465
13671 1 27.2006 62.5896 17.4852 5 12.2293 -3.54465
13672 1 26.3764 62.5896 15.1539 5 12.2293 -3.54465
13673 1 28.8491 62.5896 15.1539 5 12.2293 -3.54465
13674 1 28.0249 62.5896 12.8225 5 12.2293 -3.54465
13675 1 30.4977 62.5896 12.8225 5 12.2293 -3.54465
13676 1 29.6734 62.5896 10.4911 5 12.2293 -3.54465
13677 1 32.1462 62.5896 10.4911 5 12.2293 -3.54465
13678 1 31.3219 62.5896 8.15977 5 12.2293 -3.54465
13679 1 33.7947 62.5896 8.15977 5 12.2293 -3.54465
13680 1 32.9705 62.5896 5.82841 5 12.2293 -3.54465
13681 1 35.4432 62.5896 5.82841 5 12.2293 -3.54465
13682 1 34.619 62.5896 3.49704 5 12.2293 -3.54465
13683 1 37.0918 62.5896 3.49704 5 12.2293 -3.54465
13684 1 36.2675 62.5896 1.16568 5 12.2293 -3.54465
13685 1 38.7403 62.5896 1.16568 5 12.2293 -3.54465
13686 1 6.59409 60.5706 46.6273 3 1.69002e-18 -4.10627
13687 1 9.06687 60.5706 46.6273 3 4.0169e-16 -4.10627
13688 1 8.24261 60.5706 44.2959 3 9.99999e-17 -4.10627
13689 1 10.7154 60.5706 44.2959 3 1e-16 -4.10627
13690 1 9.89114 60.5706 41.9645 3 4e-16 -4.10627
13691 1 12.3639 60.5706 41.9645 3 4.03897e-28 -4.10627
13692 1 11.5397 60.5706 39.6332 3 1e-16 -4.10627
13693 1 14.0124 60.5706 39.6332 3 1e-16 -4.10627
13694 1 13.1882 60.5706 37.3018 3 4.03897e-28 -4.10627
13695 1 15.661 60.5706 37.3018 3 4e-16 -4.10627
13696 1 14.8367 60.5706 34.9704 3 9.99999e-17 -4.10627
13697 1 17.3095 60.5706 34.9704 3 1e-16 -4.10627
13698 1 16.4852 60.5706 32.6391 3 4e-16 -4.10627
13699 1 18.958 60.5706 32.6391 3 8.07794e-28 -4.10627
13700 1 18.1337 60.5706 30.3077 3 1e-16 -4.10627
13701 1 20.6065 60.5706 30.3077 3 1e-16 -4.10627
13702 1 19.7823 60.5706 27.9764 3 1e-16 -4.10627
13703 1 22.2551 60.5706 27.9764 3 4e-16 -4.10627
13704 1 21.4308 60.5706 25.645 3 4e-16 -4.10627
13705 1 23.9036 60.5706 25.645 3 1e-16 -4.10627
13706 1 23.0793 60.5706 23.3136 3 1e-16 -4.10627
13707 1 25.5521 60.5706 23.3136 3 5.55358e-28 -4.10627
13708 1 24.7278 60.5706 20.9823 3 4.03897e-28 -4.10627
13709 1 27.2006 60.5706 20.9823 3 1e-16 -4.10627
13710 1 26.3764 60.5706 18.6509 3 1e-16 -4.10627
13711 1 28.8491 60.5706 18.6509 3 4e-16 -4.10627
13712 1 28.0249 60.5706 16.3195 3 3.99999e-16 -4.10627
13713 1 30.4977 60.5706 16.3195 3 9.99999e-17 -4.10627
13714 1 29.6734 60.5706 13.9882 3 1e-16 -4.10627
13715 1 32.1462 60.5706 13.9882 3 9.99999e-17 -4.10627
13716 1 31.3219 60.5706 11.6568 3 4.03897e-28 -4.10627
13717 1 33.7947 60.5706 11.6568 3 4.00001e-16 -4.10627
13718 1 32.9705 60.5706 9.32545 3 9.99999e-17 -4.10627
13719 1 35.4432 60.5706 9.32545 3 1e-16 -4.10627
13720 1 34.619 60.5706 6.99409 3 4e-16 -4.10627
13721 1 37.0918 60.5706 6.99409 3 4.03897e-28 -4.10627
13722 1 36.2675 60.5706 4.66273 3 1e-16 -4.10627
13723 1 38.7403 60.5706 4.66273 3 1e-16 -4.10627
13724 1 37.916 60.5706 2.33136 3 1.21169e-27 -4.10627
13725 1 40.3888 60.5706 2.33136 3 3.99999e-16 -4.10627
13726 1 39.5645 60.5706 0 3 1.0507e-16 -4.10627
13727 1 42.0373 60.5706 0 3 1.0507e-16 -4.10627
13728 1 8.24261 58.5516 47.7929 3 1.0507e-16 -4.12244
13729 1 10.7154 58.5516 47.7929 3 1.0507e-16 -4.12244
13730 1 9.89114 58.5516 45.4616 3 4e-16 -4.12244
13731 1 12.3639 58.5516 45.4616 3 0 -4.12244
13732 1 11.5397 58.5516 43.1302 3 1e-16 -4.12244
13733 1 14.0124 58.5516 43.1302 3 1e-16 -4.12244
13734 1 13.1882 58.5516 40.7989 3 6.05845e-28 -4.12244
13735 1 15.661 58.5516 40.7989 3 4e-16 -4.12244
13736 1 14.8367 58.5516 38.4675 3 9.99999e-17 -4.12244
13737 1 17.3095 58.5516 38.4675 3 1e-16 -4.12244
13738 1 16.4852 58.5516 36.1361 3 4e-16 -4.12244
13739 1 18.958 58.5516 36.1361 3 8.07794e-28 -4.12244
13740 1 18.1337 58.5516 33.8048 3 1e-16 -4.12244
13741 1 20.6065 58.5516 33.8048 3 1e-16 -4.12244
13742 1 19.7823 58.5516 31.4734 3 1e-16 -4.12244
13743 1 22.2551 58.5516 31.4734 3 4e-16 -4.12244
13744 1 21.4308 58.5516 29.142 3 4e-16 -4.12244
13745 1 23.9036 58.5516 29.142 3 1e-16 -4.12244
13746 1 23.0793 58.5516 26.8107 3 1e-16 -4.12244
13747 1 25.5521 58.5516 26.8107 3 1.51461e-28 -4.12244
13748 1 24.7278 58.5516 24.4793 3 1.00974e-28 -4.12244
13749 1 27.2006 58.5516 24.4793 3 1e-16 -4.12244
13750 1 26.3764 58.5516 22.1479 3 1e-16 -4.12244
13751 1 28.8491 58.5516 22.1479 3 4e-16 -4.12244
13752 1 28.0249 58.5516 19.8166 3 3.99999e-16 -4.12244
13753 1 30.4977 58.5516 19.8166 3 9.99999e-17 -4.12244
13754 1 29.6734 58.5516 17.4852 3 1e-16 -4.12244
13755 1 32.1462 58.5516 17.4852 3 9.99999e-17 -4.12244
13756 1 31.3219 58.5516 15.1539 3 0 -4.12244
13757 1 33.7947 58.5516 15.1539 3 4.00001e-16 -4.12244
13758 1 32.9705 58.5516 12.8225 3 9.99999e-17 -4.12244
13759 1 35.4432 58.5516 12.8225 3 1e-16 -4.12244
13760 1 34.619 58.5516 10.4911 3 4e-16 -4.12244
13761 1 37.0918 58.5516 10.4911 3 0 -4.12244
13762 1 36.2675 58.5516 8.15977 3 1e-16 -4.12244
13763 1 38.7403 58.5516 8.15977 3 1e-16 -4.12244
13764 1 37.916 58.5516 5.82841 3 8.10949e-28 -4.12244
13765 1 40.3888 58.5516 5.82841 3 3.99999e-16 -4.12244
13766 1 39.5645 58.5516 3.49704 3 1e-16 -4.12244
13767 1 42.0373 58.5516 3.49704 3 1e-16 -4.12244
13768 1 41.2131 58.5516 1.16568 3 4.01691e-16 -4.12244
13769 1 43.6859 58.5516 1.16568 3 1.69e-18 -4.12244
13770 1 11.5397 56.5326 46.6273 3 1.0169e-16 -4.12244
13771 1 14.0124 56.5326 46.6273 3 1.0169e-16 -4.12244
13772 1 13.1882 56.5326 44.2959 3 0 -4.12244
13773 1 15.661 56.5326 44.2959 3 4e-16 -4.12244
13774 1 14.8367 56.5326 41.9645 3 9.99999e-17 -4.12244
13775 1 17.3095 56.5326 41.9645 3 1e-16 -4.12244
13776 1 16.4852 56.5326 39.6332 3 4e-16 -4.12244
13777 1 18.958 56.5326 39.6332 3 2.01948e-28 -4.12244
13778 1 18.1337 56.5326 37.3018 3 1e-16 -4.12244
13779 1 20.6065 56.5326 37.3018 3 1e-16 -4.12244
13780 1 19.7823 56.5326 34.9704 3 1e-16 -4.12244
13781 1 22.2551 56.5326 34.9704 3 4e-16 -4.12244
13782 1 21.4308 56.5326 32.6391 3 4e-16 -4.12244
13783 1 23.9036 56.5326 32.6391 3 1e-16 -4.12244
13784 1 23.0793 56.5326 30.3077 3 1e-16 -4.12244
13785 1 25.5521 56.5326 30.3077 3 1.51461e-28 -4.12244
13786 1 24.7278 56.5326 27.9764 3 1.51461e-28 -4.12244
13787 1 27.2006 56.5326 27.9764 3 1e-16 -4.12244
13788 1 26.3764 56.5326 25.645 3 1e-16 -4.12244
13789 1 28.8491 56.5326 25.645 3 4e-16 -4.12244
13790 1 28.0249 56.5326 23.3136 3 3.99999e-16 -4.12244
13791 1 30.4977 56.5326 23.3136 3 9.99999e-17 -4.12244
13792 1 29.6734 56.5326 20.9823 3 1e-16 -4.12244
13793 1 32.1462 56.5326 20.9823 3 9.99999e-17 -4.12244
13794 1 31.3219 56.5326 18.6509 3 0 -4.12244
13795 1 33.7947 56.5326 18.6509 3 4.00001e-16 -4.12244
13796 1 32.9705 56.5326 16.3195 3 9.99999e-17 -4.12244
13797 1 35.4432 56.5326 16.3195 3 1e-16 -4.12244
13798 1 34.619 56.5326 13.9882 3 4e-16 -4.12244
13799 1 37.0918 56.5326 13.9882 3 2.52435e-29 -4.12244
13800 1 36.2675 56.5326 11.6568 3 1e-16 -4.12244
13801 1 38.7403 56.5326 11.6568 3 1e-16 -4.12244
13802 1 37.916 56.5326 9.32545 3 8.07794e-28 -4.12244
13803 1 40.3888 56.5326 9.32545 3 3.99999e-16 -4.12244
13804 1 39.5645 56.5326 6.99409 3 1e-16 -4.12244
13805 1 42.0373 56.5326 6.99409 3 1e-16 -4.12244
13806 1 41.2131 56.5326 4.66273 3 4.00001e-16 -4.12244
13807 1 43.6859 56.5326 4.66273 3 2.01948e-28 -4.12244
13808 1 42.8616 56.5326 2.33136 3 9.99999e-17 -4.12244
13809 1 45.3344 56.5326 2.33136 3 9.99999e-17 -4.12244
13810 1 44.5101 56.5326 0 3 5.07001e-18 -4.12244
13811 1 46.9829 56.5326 0 3 4.0507e-16 -4.12244
13812 1 13.1882 54.5135 47.7929 3 5.06996e-18 -4.12244
13813 1 15.661 54.5135 47.7929 3 4.0507e-16 -4.12244
13814 1 14.8367 54.5135 45.4616 3 9.99999e-17 -4.12244
13815 1 17.3095 54.5135 45.4616 3 1e-16 -4.12244
13816 1 16.4852 54.5135 43.1302 3 4e-16 -4.12244
13817 1 18.958 54.5135 43.1302 3 8.07794e-28 -4.12244
13818 1 18.1337 54.5135 40.7989 3 1e-16 -4.12244
13819 1 20.6065 54.5135 40.7989 3 1e-16 -4.12244
13820 1 19.7823 54.5135 38.4675 3 1e-16 -4.12244
13821 1 22.2551 54.5135 38.4675 3 4e-16 -4.12244
13822 1 21.4308 54.5135 36.1361 3 4e-16 -4.12244
13823 1 23.9036 54.5135 36.1361 3 1e-16 -4.12244
13824 1 23.0793 54.5135 33.8048 3 1e-16 -4.12244
13825 1 25.5521 54.5135 33.8048 3 1.51461e-28 -4.12244
13826 1 24.7278 54.5135 31.4734 3 5.04871e-29 -4.12244
13827 1 27.2006 54.5135 31.4734 3 1e-16 -4.12244
13828 1 26.3764 54.5135 29.142 3 1e-16 -4.12244
13829 1 28.8491 54.5135 29.142 3 4e-16 -4.12244
13830 1 28.0249 54.5135 26.8107 3 3.99999e-16 -4.12244
13831 1 30.4977 54.5135 26.8107 3 9.99999e-17 -4.12244
13832 1 29.6734 54.5135 24.4793 3 1e-16 -4.12244
13833 1 32.1462 54.5135 24.4793 3 9.99999e-17 -4.12244
13834 1 31.3219 54.5135 22.1479 3 0 -4.12244
13835 1 33.7947 54.5135 22.1479 3 4.00001e-16 -4.12244
13836 1 32.9705 54.5135 19.8166 3 9.99999e-17 -4.12244
13837 1 35.4432 54.5135 19.8166 3 1e-16 -4.12244
13838 1 34.619 54.5135 17.4852 3 4e-16 -4.12244
13839 1 37.0918 54.5135 17.4852 3 1.00974e-28 -4.12244
13840 1 36.2675 54.5135 15.1539 3 1e-16 -4.12244
13841 1 38.7403 54.5135 15.1539 3 1e-16 -4.12244
13842 1 37.916 54.5135 12.8225 3 8.45659e-28 -4.12244
13843 1 40.3888 54.5135 12.8225 3 3.99999e-16 -4.12244
13844 1 39.5645 54.5135 10.4911 3 1e-16 -4.12244
13845 1 42.0373 54.5135 10.4911 3 1e-16 -4.12244
13846 1 41.2131 54.5135 8.15977 3 4.00001e-16 -4.12244
13847 1 43.6859 54.5135 8.15977 3 2.1457e-28 -4.12244
13848 1 42.8616 54.5135 5.82841 3 9.99999e-17 -4.12244
13849 1 45.3344 54.5135 5.82841 3 9.99999e-17 -4.12244
13850 1 44.5101 54.5135 3.49704 3 2.02737e-28 -4.12244
13851 1 46.9829 54.5135 3.49704 3 3.99999e-16 -4.12244
13852 1 46.1586 54.5135 1.16568 3 1.0169e-16 -4.12244
13853 1 48.6314 54.5135 1.16568 3 1.0169e-16 -4.12244
13854 1 16.4852 52.4945 46.6273 3 4.0169e-16 -4.12244
13855 1 18.958 52.4945 46.6273 3 1.69002e-18 -4.12244
13856 1 18.1337 52.4945 44.2959 3 1e-16 -4.12244
13857 1 20.6065 52.4945 44.2959 3 1e-16 -4.12244
13858 1 19.7823 52.4945 41.9645 3 1e-16 -4.12244
13859 1 22.2551 52.4945 41.9645 3 4e-16 -4.12244
13860 1 21.4308 52.4945 39.6332 3 4e-16 -4.12244
13861 1 23.9036 52.4945 39.6332 3 1e-16 -4.12244
13862 1 23.0793 52.4945 37.3018 3 1e-16 -4.12244
13863 1 25.5521 52.4945 37.3018 3 1.51461e-28 -4.12244
13864 1 24.7278 52.4945 34.9704 3 2.01948e-28 -4.12244
13865 1 27.2006 52.4945 34.9704 3 1e-16 -4.12244
13866 1 26.3764 52.4945 32.6391 3 1e-16 -4.12244
13867 1 28.8491 52.4945 32.6391 3 4e-16 -4.12244
13868 1 28.0249 52.4945 30.3077 3 3.99999e-16 -4.12244
13869 1 30.4977 52.4945 30.3077 3 9.99999e-17 -4.12244
13870 1 29.6734 52.4945 27.9764 3 1e-16 -4.12244
13871 1 32.1462 52.4945 27.9764 3 9.99999e-17 -4.12244
13872 1 31.3219 52.4945 25.645 3 1.51461e-28 -4.12244
13873 1 33.7947 52.4945 25.645 3 4.00001e-16 -4.12244
13874 1 32.9705 52.4945 23.3136 3 9.99999e-17 -4.12244
13875 1 35.4432 52.4945 23.3136 3 1e-16 -4.12244
13876 1 34.619 52.4945 20.9823 3 4e-16 -4.12244
13877 1 37.0918 52.4945 20.9823 3 0 -4.12244
13878 1 36.2675 52.4945 18.6509 3 1e-16 -4.12244
13879 1 38.7403 52.4945 18.6509 3 1e-16 -4.12244
13880 1 37.916 52.4945 16.3195 3 9.08768e-28 -4.12244
13881 1 40.3888 52.4945 16.3195 3 3.99999e-16 -4.12244
13882 1 39.5645 52.4945 13.9882 3 1e-16 -4.12244
13883 1 42.0373 52.4945 13.9882 3 1e-16 -4.12244
13884 1 41.2131 52.4945 11.6568 3 4.00001e-16 -4.12244
13885 1 43.6859 52.4945 11.6568 3 2.01948e-28 -4.12244
13886 1 42.8616 52.4945 9.32545 3 9.99999e-17 -4.12244
13887 1 45.3344 52.4945 9.32545 3 9.99999e-17 -4.12244
13888 1 44.5101 52.4945 6.99409 3 2.01948e-28 -4.12244
13889 1 46.9829 52.4945 6.99409 3 3.99999e-16 -4.12244
13890 1 46.1586 52.4945 4.66273 3 9.99999e-17 -4.12244
13891 1 48.6314 52.4945 4.66273 3 9.99999e-17 -4.12244
13892 1 47.8072 52.4945 2.33136 3 3.99999e-16 -4.12244
13893 1 50.2799 52.4945 2.33136 3 2.01948e-28 -4.12244
13894 1 49.4557 52.4945 0 3 1.0507e-16 -4.12244
13895 1 51.9285 52.4945 0 3 1.0507e-16 -4.12244
13896 1 18.1337 50.4755 47.7929 3 1.0507e-16 -4.12244
13897 1 20.6065 50.4755 47.7929 3 1.0507e-16 -4.12244
13898 1 19.7823 50.4755 45.4616 3 1e-16 -4.12244
13899 1 22.2551 50.4755 45.4616 3 4e-16 -4.12244
13900 1 21.4308 50.4755 43.1302 3 4e-16 -4.12244
13901 1 23.9036 50.4755 43.1302 3 1e-16 -4.12244
13902 1 23.0793 50.4755 40.7989 3 1e-16 -4.12244
13903 1 25.5521 50.4755 40.7989 3 7.57306e-28 -4.12244
13904 1 24.7278 50.4755 38.4675 3 0 -4.12244
13905 1 27.2006 50.4755 38.4675 3 1e-16 -4.12244
13906 1 26.3764 50.4755 36.1361 3 1e-16 -4.12244
13907 1 28.8491 50.4755 36.1361 3 4e-16 -4.12244
13908 1 28.0249 50.4755 33.8048 3 3.99999e-16 -4.12244
13909 1 30.4977 50.4755 33.8048 3 9.99999e-17 -4.12244
13910 1 29.6734 50.4755 31.4734 3 1e-16 -4.12244
13911 1 32.1462 50.4755 31.4734 3 9.99999e-17 -4.12244
13912 1 31.3219 50.4755 29.142 3 1.51461e-28 -4.12244
13913 1 33.7947 50.4755 29.142 3 4.00001e-16 -4.12244
13914 1 32.9705 50.4755 26.8107 3 9.99999e-17 -4.12244
13915 1 35.4432 50.4755 26.8107 3 1e-16 -4.12244
13916 1 34.619 50.4755 24.4793 3 4e-16 -4.12244
13917 1 37.0918 50.4755 24.4793 3 1.00974e-28 -4.12244
13918 1 36.2675 50.4755 22.1479 3 1e-16 -4.12244
13919 1 38.7403 50.4755 22.1479 3 1e-16 -4.12244
13920 1 37.916 50.4755 19.8166 3 8.07794e-28 -4.12244
13921 1 40.3888 50.4755 19.8166 3 3.99999e-16 -4.12244
13922 1 39.5645 50.4755 17.4852 3 1e-16 -4.12244
13923 1 42.0373 50.4755 17.4852 3 1e-16 -4.12244
13924 1 41.2131 50.4755 15.1539 3 4.00001e-16 -4.12244
13925 1 43.6859 50.4755 15.1539 3 2.01948e-28 -4.12244
13926 1 42.8616 50.4755 12.8225 3 9.99999e-17 -4.12244
13927 1 45.3344 50.4755 12.8225 3 9.99999e-17 -4.12244
13928 1 44.5101 50.4755 10.4911 3 2.01948e-28 -4.12244
13929 1 46.9829 50.4755 10.4911 3 3.99999e-16 -4.12244
13930 1 46.1586 50.4755 8.15977 3 9.99999e-17 -4.12244
13931 1 48.6314 50.4755 8.15977 3 9.99999e-17 -4.12244
13932 1 47.8072 50.4755 5.82841 3 3.99999e-16 -4.12244
13933 1 50.2799 50.4755 5.82841 3 2.05104e-28 -4.12244
13934 1 49.4557 50.4755 3.49704 3 9.99999e-17 -4.12244
13935 1 51.9285 50.4755 3.49704 3 1e-16 -4.12244
13936 1 51.1042 50.4755 1.16568 3 1.0169e-16 -4.12244
13937 1 53.577 50.4755 1.16568 3 4.01689e-16 -4.12244
13938 1 21.4308 48.4565 46.6273 3 4.01691e-16 -4.12244
13939 1 23.9036 48.4565 46.6273 3 1.0169e-16 -4.12244
13940 1 23.0793 48.4565 44.2959 3 1e-16 -4.12244
13941 1 25.5521 48.4565 44.2959 3 1.51461e-28 -4.12244
13942 1 24.7278 48.4565 41.9645 3 0 -4.12244
13943 1 27.2006 48.4565 41.9645 3 1e-16 -4.12244
13944 1 26.3764 48.4565 39.6332 3 1e-16 -4.12244
13945 1 28.8491 48.4565 39.6332 3 4e-16 -4.12244
13946 1 28.0249 48.4565 37.3018 3 3.99999e-16 -4.12244
13947 1 30.4977 48.4565 37.3018 3 9.99999e-17 -4.12244
13948 1 29.6734 48.4565 34.9704 3 1e-16 -4.12244
13949 1 32.1462 48.4565 34.9704 3 9.99999e-17 -4.12244
13950 1 31.3219 48.4565 32.6391 3 2.01948e-28 -4.12244
13951 1 33.7947 48.4565 32.6391 3 4.00001e-16 -4.12244
13952 1 32.9705 48.4565 30.3077 3 9.99999e-17 -4.12244
13953 1 35.4432 48.4565 30.3077 3 1e-16 -4.12244
13954 1 34.619 48.4565 27.9764 3 4e-16 -4.12244
13955 1 37.0918 48.4565 27.9764 3 1.51461e-28 -4.12244
13956 1 36.2675 48.4565 25.645 3 1e-16 -4.12244
13957 1 38.7403 48.4565 25.645 3 1e-16 -4.12244
13958 1 37.916 48.4565 23.3136 3 8.07794e-28 -4.12244
13959 1 40.3888 48.4565 23.3136 3 3.99999e-16 -4.12244
13960 1 39.5645 48.4565 20.9823 3 1e-16 -4.12244
13961 1 42.0373 48.4565 20.9823 3 1e-16 -4.12244
13962 1 41.2131 48.4565 18.6509 3 4.00001e-16 -4.12244
13963 1 43.6859 48.4565 18.6509 3 2.01948e-28 -4.12244
13964 1 42.8616 48.4565 16.3195 3 9.99999e-17 -4.12244
13965 1 45.3344 48.4565 16.3195 3 9.99999e-17 -4.12244
13966 1 44.5101 48.4565 13.9882 3 2.27192e-28 -4.12244
13967 1 46.9829 48.4565 13.9882 3 3.99999e-16 -4.12244
13968 1 46.1586 48.4565 11.6568 3 9.99999e-17 -4.12244
13969 1 48.6314 48.4565 11.6568 3 9.99999e-17 -4.12244
13970 1 47.8072 48.4565 9.32545 3 3.99999e-16 -4.12244
13971 1 50.2799 48.4565 9.32545 3 2.01948e-28 -4.12244
13972 1 49.4557 48.4565 6.99409 3 9.99999e-17 -4.12244
13973 1 51.9285 48.4565 6.99409 3 1e-16 -4.12244
13974 1 51.1042 48.4565 4.66273 3 9.99999e-17 -4.12244
13975 1 53.577 48.4565 4.66273 3 3.99999e-16 -4.12244
13976 1 52.7527 48.4565 2.33136 3 4.00001e-16 -4.12244
13977 1 55.2255 48.4565 2.33136 3 1e-16 -4.12244
13978 1 54.4012 48.4565 0 3 1.0507e-16 -4.12244
13979 1 56.874 48.4565 0 3 5.07001e-18 -4.12244
13980 1 23.0793 46.4375 47.7929 3 1.0507e-16 -4.12244
13981 1 25.5521 46.4375 47.7929 3 5.06996e-18 -4.12244
13982 1 24.7278 46.4375 45.4616 3 0 -4.12244
13983 1 27.2006 46.4375 45.4616 3 1e-16 -4.12244
13984 1 26.3764 46.4375 43.1302 3 1e-16 -4.12244
13985 1 28.8491 46.4375 43.1302 3 4e-16 -4.12244
13986 1 28.0249 46.4375 40.7989 3 3.99999e-16 -4.12244
13987 1 30.4977 46.4375 40.7989 3 9.99999e-17 -4.12244
13988 1 29.6734 46.4375 38.4675 3 1e-16 -4.12244
13989 1 32.1462 46.4375 38.4675 3 9.99999e-17 -4.12244
13990 1 31.3219 46.4375 36.1361 3 6.05845e-28 -4.12244
13991 1 33.7947 46.4375 36.1361 3 4.00001e-16 -4.12244
13992 1 32.9705 46.4375 33.8048 3 9.99999e-17 -4.12244
13993 1 35.4432 46.4375 33.8048 3 1e-16 -4.12244
13994 1 34.619 46.4375 31.4734 3 4e-16 -4.12244
13995 1 37.0918 46.4375 31.4734 3 5.04871e-29 -4.12244
13996 1 36.2675 46.4375 29.142 3 1e-16 -4.12244
13997 1 38.7403 46.4375 29.142 3 1e-16 -4.12244
13998 1 37.916 46.4375 26.8107 3 8.07794e-28 -4.12244
13999 1 40.3888 46.4375 26.8107 3 3.99999e-16 -4.12244
14000 1 39.5645 46.4375 24.4793 3 1e-16 -4.12244
14001 1 42.0373 46.4375 24.4793 3 1e-16 -4.12244
14002 1 41.2131 46.4375 22.1479 3 4.00001e-16 -4.12244
14003 1 43.6859 46.4375 22.1479 3 2.01948e-28 -4.12244
14004 1 42.8616 46.4375 19.8166 3 9.99999e-17 -4.12244
14005 1 45.3344 46.4375 19.8166 3 9.99999e-17 -4.12244
14006 1 44.5101 46.4375 17.4852 3 3.02923e-28 -4.12244
14007 1 46.9829 46.4375 17.4852 3 3.99999e-16 -4.12244
14008 1 46.1586 46.4375 15.1539 3 9.99999e-17 -4.12244
14009 1 48.6314 46.4375 15.1539 3 9.99999e-17 -4.12244
14010 1 47.8072 46.4375 12.8225 3 3.99999e-16 -4.12244
14011 1 50.2799 46.4375 12.8225 3 2.39814e-28 -4.12244
14012 1 49.4557 46.4375 10.4911 3 9.99999e-17 -4.12244
14013 1 51.9285 46.4375 10.4911 3 1e-16 -4.12244
14014 1 51.1042 46.4375 8.15977 3 9.99999e-17 -4.12244
14015 1 53.577 46.4375 8.15977 3 3.99999e-16 -4.12244
14016 1 52.7527 46.4375 5.82841 3 4.00001e-16 -4.12244
14017 1 55.2255 46.4375 5.82841 3 1e-16 -4.12244
14018 1 54.4012 46.4375 3.49704 3 1e-16 -4.12244
14019 1 56.874 46.4375 3.49704 3 7.88861e-31 -4.12244
14020 1 56.0498 46.4375 1.16568 3 1.69e-18 -4.12244
14021 1 58.5226 46.4375 1.16568 3 1.0169e-16 -4.12244
14022 1 26.3764 44.4184 46.6273 3 1.0169e-16 -4.12244
14023 1 28.8491 44.4184 46.6273 3 4.0169e-16 -4.12244
14024 1 28.0249 44.4184 44.2959 3 3.99999e-16 -4.12244
14025 1 30.4977 44.4184 44.2959 3 9.99999e-17 -4.12244
14026 1 29.6734 44.4184 41.9645 3 1e-16 -4.12244
14027 1 32.1462 44.4184 41.9645 3 9.99999e-17 -4.12244
14028 1 31.3219 44.4184 39.6332 3 0 -4.12244
14029 1 33.7947 44.4184 39.6332 3 4.00001e-16 -4.12244
14030 1 32.9705 44.4184 37.3018 3 9.99999e-17 -4.12244
14031 1 35.4432 44.4184 37.3018 3 1e-16 -4.12244
14032 1 34.619 44.4184 34.9704 3 4e-16 -4.12244
14033 1 37.0918 44.4184 34.9704 3 2.01948e-28 -4.12244
14034 1 36.2675 44.4184 32.6391 3 1e-16 -4.12244
14035 1 38.7403 44.4184 32.6391 3 1e-16 -4.12244
14036 1 37.916 44.4184 30.3077 3 8.07794e-28 -4.12244
14037 1 40.3888 44.4184 30.3077 3 3.99999e-16 -4.12244
14038 1 39.5645 44.4184 27.9764 3 1e-16 -4.12244
14039 1 42.0373 44.4184 27.9764 3 1e-16 -4.12244
14040 1 41.2131 44.4184 25.645 3 4.00001e-16 -4.12244
14041 1 43.6859 44.4184 25.645 3 3.5341e-28 -4.12244
14042 1 42.8616 44.4184 23.3136 3 9.99999e-17 -4.12244
14043 1 45.3344 44.4184 23.3136 3 9.99999e-17 -4.12244
14044 1 44.5101 44.4184 20.9823 3 2.01948e-28 -4.12244
14045 1 46.9829 44.4184 20.9823 3 3.99999e-16 -4.12244
14046 1 46.1586 44.4184 18.6509 3 9.99999e-17 -4.12244
14047 1 48.6314 44.4184 18.6509 3 9.99999e-17 -4.12244
14048 1 47.8072 44.4184 16.3195 3 3.99999e-16 -4.12244
14049 1 50.2799 44.4184 16.3195 3 3.02923e-28 -4.12244
14050 1 49.4557 44.4184 13.9882 3 9.99999e-17 -4.12244
14051 1 51.9285 44.4184 13.9882 3 1e-16 -4.12244
14052 1 51.1042 44.4184 11.6568 3 9.99999e-17 -4.12244
14053 1 53.577 44.4184 11.6568 3 3.99999e-16 -4.12244
14054 1 52.7527 44.4184 9.32545 3 4.00001e-16 -4.12244
14055 1 55.2255 44.4184 9.32545 3 1e-16 -4.12244
14056 1 54.4012 44.4184 6.99409 3 1e-16 -4.12244
14057 1 56.874 44.4184 6.99409 3 0 -4.12244
14058 1 56.0498 44.4184 4.66273 3 0 -4.12244
14059 1 58.5226 44.4184 4.66273 3 9.99999e-17 -4.12244
14060 1 57.6983 44.4184 2.33136 3 1e-16 -4.12244
14061 1 60.1711 44.4184 2.33136 3 3.99999e-16 -4.12244
14062 1 59.3468 44.4184 0 3 4.0507e-16 -4.12244
14063 1 61.8196 44.4184 0 3 6.28299e-17 -4.12244
14064 1 28.0249 42.3994 47.7929 3 4.05069e-16 -4.12244
14065 1 30.4977 42.3994 47.7929 3 1.0507e-16 -4.12244
14066 1 29.6734 42.3994 45.4616 3 1e-16 -4.12244
14067 1 32.1462 42.3994 45.4616 3 9.99999e-17 -4.12244
14068 1 31.3219 42.3994 43.1302 3 6.05845e-28 -4.12244
14069 1 33.7947 42.3994 43.1302 3 4.00001e-16 -4.12244
14070 1 32.9705 42.3994 40.7989 3 9.99999e-17 -4.12244
14071 1 35.4432 42.3994 40.7989 3 1e-16 -4.12244
14072 1 34.619 42.3994 38.4675 3 4e-16 -4.12244
14073 1 37.0918 42.3994 38.4675 3 0 -4.12244
14074 1 36.2675 42.3994 36.1361 3 1e-16 -4.12244
14075 1 38.7403 42.3994 36.1361 3 1e-16 -4.12244
14076 1 37.916 42.3994 33.8048 3 8.07794e-28 -4.12244
14077 1 40.3888 42.3994 33.8048 3 3.99999e-16 -4.12244
14078 1 39.5645 42.3994 31.4734 3 1e-16 -4.12244
14079 1 42.0373 42.3994 31.4734 3 1e-16 -4.12244
14080 1 41.2131 42.3994 29.142 3 4.00001e-16 -4.12244
14081 1 43.6859 42.3994 29.142 3 3.5341e-28 -4.12244
14082 1 42.8616 42.3994 26.8107 3 9.99999e-17 -4.12244
14083 1 45.3344 42.3994 26.8107 3 9.99999e-17 -4.12244
14084 1 44.5101 42.3994 24.4793 3 3.02923e-28 -4.12244
14085 1 46.9829 42.3994 24.4793 3 3.99999e-16 -4.12244
14086 1 46.1586 42.3994 22.1479 3 9.99999e-17 -4.12244
14087 1 48.6314 42.3994 22.1479 3 9.99999e-17 -4.12244
14088 1 47.8072 42.3994 19.8166 3 3.99999e-16 -4.12244
14089 1 50.2799 42.3994 19.8166 3 2.01948e-28 -4.12244
14090 1 49.4557 42.3994 17.4852 3 9.99999e-17 -4.12244
14091 1 51.9285 42.3994 17.4852 3 1e-16 -4.12244
14092 1 51.1042 42.3994 15.1539 3 9.99999e-17 -4.12244
14093 1 53.577 42.3994 15.1539 3 3.99999e-16 -4.12244
14094 1 52.7527 42.3994 12.8225 3 4.00001e-16 -4.12244
14095 1 55.2255 42.3994 12.8225 3 1e-16 -4.12244
14096 1 54.4012 42.3994 10.4911 3 1e-16 -4.12244
14097 1 56.874 42.3994 10.4911 3 0 -4.12244
14098 1 56.0498 42.3994 8.15977 3 1.26218e-29 -4.12244
14099 1 58.5226 42.3994 8.15977 3 9.99999e-17 -4.12244
14100 1 57.6983 42.3994 5.82841 3 1e-16 -4.12244
14101 1 60.1711 42.3994 5.82841 3 3.99999e-16 -4.12244
14102 1 59.3468 42.3994 3.49704 3 3.99999e-16 -4.12244
14103 1 61.8196 42.3994 3.49704 3 5.77599e-17 -4.12244
14104 1 60.9953 42.3994 1.16568 3 1.0169e-16 -4.12244
14105 1 63.4681 42.3994 1.16568 3 2.473e-17 -4.12244
14106 1 31.3219 40.3804 46.6273 3 1.69002e-18 -4.12244
14107 1 33.7947 40.3804 46.6273 3 4.01691e-16 -4.12244
14108 1 32.9705 40.3804 44.2959 3 9.99999e-17 -4.12244
14109 1 35.4432 40.3804 44.2959 3 1e-16 -4.12244
14110 1 34.619 40.3804 41.9645 3 4e-16 -4.12244
14111 1 37.0918 40.3804 41.9645 3 0 -4.12244
14112 1 36.2675 40.3804 39.6332 3 1e-16 -4.12244
14113 1 38.7403 40.3804 39.6332 3 1e-16 -4.12244
14114 1 37.916 40.3804 37.3018 3 8.07794e-28 -4.12244
14115 1 40.3888 40.3804 37.3018 3 3.99999e-16 -4.12244
14116 1 39.5645 40.3804 34.9704 3 1e-16 -4.12244
14117 1 42.0373 40.3804 34.9704 3 1e-16 -4.12244
14118 1 41.2131 40.3804 32.6391 3 4.00001e-16 -4.12244
14119 1 43.6859 40.3804 32.6391 3 4.03897e-28 -4.12244
14120 1 42.8616 40.3804 30.3077 3 9.99999e-17 -4.12244
14121 1 45.3344 40.3804 30.3077 3 9.99999e-17 -4.12244
14122 1 44.5101 40.3804 27.9764 3 3.5341e-28 -4.12244
14123 1 46.9829 40.3804 27.9764 3 3.99999e-16 -4.12244
14124 1 46.1586 40.3804 25.645 3 9.99999e-17 -4.12244
14125 1 48.6314 40.3804 25.645 3 9.99999e-17 -4.12244
14126 1 47.8072 40.3804 23.3136 3 3.99999e-16 -4.12244
14127 1 50.2799 40.3804 23.3136 3 2.01948e-28 -4.12244
14128 1 49.4557 40.3804 20.9823 3 9.99999e-17 -4.12244
14129 1 51.9285 40.3804 20.9823 3 1e-16 -4.12244
14130 1 51.1042 40.3804 18.6509 3 9.99999e-17 -4.12244
14131 1 53.577 40.3804 18.6509 3 3.99999e-16 -4.12244
14132 1 52.7527 40.3804 16.3195 3 4.00001e-16 -4.12244
14133 1 55.2255 40.3804 16.3195 3 1e-16 -4.12244
14134 1 54.4012 40.3804 13.9882 3 1e-16 -4.12244
14135 1 56.874 40.3804 13.9882 3 2.52435e-29 -4.12244
14136 1 56.0498 40.3804 11.6568 3 0 -4.12244
14137 1 58.5226 40.3804 11.6568 3 9.99999e-17 -4.12244
14138 1 57.6983 40.3804 9.32545 3 1e-16 -4.12244
14139 1 60.1711 40.3804 9.32545 3 3.99999e-16 -4.12244
14140 1 59.3468 40.3804 6.99409 3 3.99999e-16 -4.12244
14141 1 61.8196 40.3804 6.99409 3 5.77599e-17 -4.12244
14142 1 60.9953 40.3804 4.66273 3 9.99999e-17 -4.12244
14143 1 63.4681 40.3804 4.66273 3 2.304e-17 -4.12244
14144 1 62.6439 40.3804 2.33136 3 5.76e-18 -4.12244
14145 1 32.9705 38.3614 47.7929 3 1.0507e-16 -4.12244
14146 1 35.4432 38.3614 47.7929 3 1.0507e-16 -4.12244
14147 1 34.619 38.3614 45.4616 3 4e-16 -4.12244
14148 1 37.0918 38.3614 45.4616 3 0 -4.12244
14149 1 36.2675 38.3614 43.1302 3 1e-16 -4.12244
14150 1 38.7403 38.3614 43.1302 3 1e-16 -4.12244
14151 1 37.916 38.3614 40.7989 3 1.41364e-27 -4.12244
14152 1 40.3888 38.3614 40.7989 3 3.99999e-16 -4.12244
14153 1 39.5645 38.3614 38.4675 3 1e-16 -4.12244
14154 1 42.0373 38.3614 38.4675 3 1e-16 -4.12244
14155 1 41.2131 38.3614 36.1361 3 4.00001e-16 -4.12244
14156 1 43.6859 38.3614 36.1361 3 8.07794e-28 -4.12244
14157 1 42.8616 38.3614 33.8048 3 9.99999e-17 -4.12244
14158 1 45.3344 38.3614 33.8048 3 9.99999e-17 -4.12244
14159 1 44.5101 38.3614 31.4734 3 2.52435e-28 -4.12244
14160 1 46.9829 38.3614 31.4734 3 3.99999e-16 -4.12244
14161 1 46.1586 38.3614 29.142 3 9.99999e-17 -4.12244
14162 1 48.6314 38.3614 29.142 3 9.99999e-17 -4.12244
14163 1 47.8072 38.3614 26.8107 3 3.99999e-16 -4.12244
14164 1 50.2799 38.3614 26.8107 3 2.01948e-28 -4.12244
14165 1 49.4557 38.3614 24.4793 3 9.99999e-17 -4.12244
14166 1 51.9285 38.3614 24.4793 3 1e-16 -4.12244
14167 1 51.1042 38.3614 22.1479 3 9.99999e-17 -4.12244
14168 1 53.577 38.3614 22.1479 3 3.99999e-16 -4.12244
14169 1 52.7527 38.3614 19.8166 3 4.00001e-16 -4.12244
14170 1 55.2255 38.3614 19.8166 3 1e-16 -4.12244
14171 1 54.4012 38.3614 17.4852 3 1e-16 -4.12244
14172 1 56.874 38.3614 17.4852 3 1.00974e-28 -4.12244
14173 1 56.0498 38.3614 15.1539 3 0 -4.12244
14174 1 58.5226 38.3614 15.1539 3 9.99999e-17 -4.12244
14175 1 57.6983 38.3614 12.8225 3 1e-16 -4.12244
14176 1 60.1711 38.3614 12.8225 3 3.99999e-16 -4.12244
14177 1 59.3468 38.3614 10.4911 3 3.99999e-16 -4.12244
14178 1 61.8196 38.3614 10.4911 3 5.77599e-17 -4.12244
14179 1 60.9953 38.3614 8.15977 3 9.99999e-17 -4.12244
14180 1 63.4681 38.3614 8.15977 3 2.304e-17 -4.12244
14181 1 62.6439 38.3614 5.82841 3 5.76e-18 -4.12244
14182 1 36.2675 36.3424 46.6273 3 1.0169e-16 -4.12244
14183 1 38.7403 36.3424 46.6273 3 1.0169e-16 -4.12244
14184 1 37.916 36.3424 44.2959 3 8.07794e-28 -4.12244
14185 1 40.3888 36.3424 44.2959 3 3.99999e-16 -4.12244
14186 1 39.5645 36.3424 41.9645 3 1e-16 -4.12244
14187 1 42.0373 36.3424 41.9645 3 1e-16 -4.12244
14188 1 41.2131 36.3424 39.6332 3 4.00001e-16 -4.12244
14189 1 43.6859 36.3424 39.6332 3 2.01948e-28 -4.12244
14190 1 42.8616 36.3424 37.3018 3 9.99999e-17 -4.12244
14191 1 45.3344 36.3424 37.3018 3 9.99999e-17 -4.12244
14192 1 44.5101 36.3424 34.9704 3 4.03897e-28 -4.12244
14193 1 46.9829 36.3424 34.9704 3 3.99999e-16 -4.12244
14194 1 46.1586 36.3424 32.6391 3 9.99999e-17 -4.12244
14195 1 48.6314 36.3424 32.6391 3 9.99999e-17 -4.12244
14196 1 47.8072 36.3424 30.3077 3 3.99999e-16 -4.12244
14197 1 50.2799 36.3424 30.3077 3 2.01948e-28 -4.12244
14198 1 49.4557 36.3424 27.9764 3 9.99999e-17 -4.12244
14199 1 51.9285 36.3424 27.9764 3 1e-16 -4.12244
14200 1 51.1042 36.3424 25.645 3 9.99999e-17 -4.12244
14201 1 53.577 36.3424 25.645 3 3.99999e-16 -4.12244
14202 1 52.7527 36.3424 23.3136 3 4.00001e-16 -4.12244
14203 1 55.2255 36.3424 23.3136 3 1e-16 -4.12244
14204 1 54.4012 36.3424 20.9823 3 1e-16 -4.12244
14205 1 56.874 36.3424 20.9823 3 0 -4.12244
14206 1 56.0498 36.3424 18.6509 3 0 -4.12244
14207 1 58.5226 36.3424 18.6509 3 9.99999e-17 -4.12244
14208 1 57.6983 36.3424 16.3195 3 1e-16 -4.12244
14209 1 60.1711 36.3424 16.3195 3 3.99999e-16 -4.12244
14210 1 59.3468 36.3424 13.9882 3 3.99999e-16 -4.12244
14211 1 61.8196 36.3424 13.9882 3 5.77599e-17 -4.12244
14212 1 60.9953 36.3424 11.6568 3 9.99999e-17 -4.12244
14213 1 63.4681 36.3424 11.6568 3 2.304e-17 -4.12244
14214 1 62.6439 36.3424 9.32545 3 5.76e-18 -4.12244
14215 1 37.916 34.3233 47.7929 3 5.06996e-18 -4.12244
14216 1 40.3888 34.3233 47.7929 3 4.05069e-16 -4.12244
14217 1 39.5645 34.3233 45.4616 3 1e-16 -4.12244
14218 1 42.0373 34.3233 45.4616 3 1e-16 -4.12244
14219 1 41.2131 34.3233 43.1302 3 4.00001e-16 -4.12244
14220 1 43.6859 34.3233 43.1302 3 8.07794e-28 -4.12244
14221 1 42.8616 34.3233 40.7989 3 9.99999e-17 -4.12244
14222 1 45.3344 34.3233 40.7989 3 9.99999e-17 -4.12244
14223 1 44.5101 34.3233 38.4675 3 2.01948e-28 -4.12244
14224 1 46.9829 34.3233 38.4675 3 3.99999e-16 -4.12244
14225 1 46.1586 34.3233 36.1361 3 9.99999e-17 -4.12244
14226 1 48.6314 34.3233 36.1361 3 9.99999e-17 -4.12244
14227 1 47.8072 34.3233 33.8048 3 3.99999e-16 -4.12244
14228 1 50.2799 34.3233 33.8048 3 2.01948e-28 -4.12244
14229 1 49.4557 34.3233 31.4734 3 9.99999e-17 -4.12244
14230 1 51.9285 34.3233 31.4734 3 1e-16 -4.12244
14231 1 51.1042 34.3233 29.142 3 9.99999e-17 -4.12244
14232 1 53.577 34.3233 29.142 3 3.99999e-16 -4.12244
14233 1 52.7527 34.3233 26.8107 3 4.00001e-16 -4.12244
14234 1 55.2255 34.3233 26.8107 3 1e-16 -4.12244
14235 1 54.4012 34.3233 24.4793 3 1e-16 -4.12244
14236 1 56.874 34.3233 24.4793 3 1.00974e-28 -4.12244
14237 1 56.0498 34.3233 22.1479 3 0 -4.12244
14238 1 58.5226 34.3233 22.1479 3 9.99999e-17 -4.12244
14239 1 57.6983 34.3233 19.8166 3 1e-16 -4.12244
14240 1 60.1711 34.3233 19.8166 3 3.99999e-16 -4.12244
14241 1 59.3468 34.3233 17.4852 3 3.99999e-16 -4.12244
14242 1 61.8196 34.3233 17.4852 3 5.77599e-17 -4.12244
14243 1 60.9953 34.3233 15.1539 3 9.99999e-17 -4.12244
14244 1 63.4681 34.3233 15.1539 3 2.304e-17 -4.12244
14245 1 62.6439 34.3233 12.8225 3 5.76e-18 -4.12244
14246 1 41.2131 32.3043 46.6273 3 4.01691e-16 -4.12244
14247 1 43.6859 32.3043 46.6273 3 1.69002e-18 -4.12244
14248 1 42.8616 32.3043 44.2959 3 9.99999e-17 -4.12244
14249 1 45.3344 32.3043 44.2959 3 9.99999e-17 -4.12244
14250 1 44.5101 32.3043 41.9645 3 2.01948e-28 -4.12244
14251 1 46.9829 32.3043 41.9645 3 3.99999e-16 -4.12244
14252 1 46.1586 32.3043 39.6332 3 9.99999e-17 -4.12244
14253 1 48.6314 32.3043 39.6332 3 9.99999e-17 -4.12244
14254 1 47.8072 32.3043 37.3018 3 3.99999e-16 -4.12244
14255 1 50.2799 32.3043 37.3018 3 2.01948e-28 -4.12244
14256 1 49.4557 32.3043 34.9704 3 9.99999e-17 -4.12244
14257 1 51.9285 32.3043 34.9704 3 1e-16 -4.12244
14258 1 51.1042 32.3043 32.6391 3 9.99999e-17 -4.12244
14259 1 53.577 32.3043 32.6391 3 3.99999e-16 -4.12244
14260 1 52.7527 32.3043 30.3077 3 4.00001e-16 -4.12244
14261 1 55.2255 32.3043 30.3077 3 1e-16 -4.12244
14262 1 54.4012 32.3043 27.9764 3 1e-16 -4.12244
14263 1 56.874 32.3043 27.9764 3 1.51461e-28 -4.12244
14264 1 56.0498 32.3043 25.645 3 1.51461e-28 -4.12244
14265 1 58.5226 32.3043 25.645 3 9.99999e-17 -4.12244
14266 1 57.6983 32.3043 23.3136 3 1e-16 -4.12244
14267 1 60.1711 32.3043 23.3136 3 3.99999e-16 -4.12244
14268 1 59.3468 32.3043 20.9823 3 3.99999e-16 -4.12244
14269 1 61.8196 32.3043 20.9823 3 5.77599e-17 -4.12244
14270 1 60.9953 32.3043 18.6509 3 9.99999e-17 -4.12244
14271 1 63.4681 32.3043 18.6509 3 2.304e-17 -4.12244
14272 1 62.6439 32.3043 16.3195 3 5.76e-18 -4.12244
14273 1 42.8616 30.2853 47.7929 3 1.0507e-16 -4.12244
14274 1 45.3344 30.2853 47.7929 3 1.0507e-16 -4.12244
14275 1 44.5101 30.2853 45.4616 3 3.02923e-28 -4.12244
14276 1 46.9829 30.2853 45.4616 3 3.99999e-16 -4.12244
14277 1 46.1586 30.2853 43.1302 3 9.99999e-17 -4.12244
14278 1 48.6314 30.2853 43.1302 3 9.99999e-17 -4.12244
14279 1 47.8072 30.2853 40.7989 3 3.99999e-16 -4.12244
14280 1 50.2799 30.2853 40.7989 3 9.08768e-28 -4.12244
14281 1 49.4557 30.2853 38.4675 3 9.99999e-17 -4.12244
14282 1 51.9285 30.2853 38.4675 3 1e-16 -4.12244
14283 1 51.1042 30.2853 36.1361 3 9.99999e-17 -4.12244
14284 1 53.577 30.2853 36.1361 3 3.99999e-16 -4.12244
14285 1 52.7527 30.2853 33.8048 3 4.00001e-16 -4.12244
14286 1 55.2255 30.2853 33.8048 3 1e-16 -4.12244
14287 1 54.4012 30.2853 31.4734 3 1e-16 -4.12244
14288 1 56.874 30.2853 31.4734 3 1.51461e-28 -4.12244
14289 1 56.0498 30.2853 29.142 3 2.52435e-28 -4.12244
14290 1 58.5226 30.2853 29.142 3 9.99999e-17 -4.12244
14291 1 57.6983 30.2853 26.8107 3 1e-16 -4.12244
14292 1 60.1711 30.2853 26.8107 3 3.99999e-16 -4.12244
14293 1 59.3468 30.2853 24.4793 3 3.99999e-16 -4.12244
14294 1 61.8196 30.2853 24.4793 3 5.77599e-17 -4.12244
14295 1 60.9953 30.2853 22.1479 3 9.99999e-17 -4.12244
14296 1 63.4681 30.2853 22.1479 3 2.304e-17 -4.12244
14297 1 62.6439 30.2853 19.8166 3 5.76e-18 -4.12244
14298 1 46.1586 28.2663 46.6273 3 1.0169e-16 -4.12244
14299 1 48.6314 28.2663 46.6273 3 1.0169e-16 -4.12244
14300 1 47.8072 28.2663 44.2959 3 3.99999e-16 -4.12244
14301 1 50.2799 28.2663 44.2959 3 2.01948e-28 -4.12244
14302 1 49.4557 28.2663 41.9645 3 9.99999e-17 -4.12244
14303 1 51.9285 28.2663 41.9645 3 1e-16 -4.12244
14304 1 51.1042 28.2663 39.6332 3 9.99999e-17 -4.12244
14305 1 53.577 28.2663 39.6332 3 3.99999e-16 -4.12244
14306 1 52.7527 28.2663 37.3018 3 4.00001e-16 -4.12244
14307 1 55.2255 28.2663 37.3018 3 1e-16 -4.12244
14308 1 54.4012 28.2663 34.9704 3 1e-16 -4.12244
14309 1 56.874 28.2663 34.9704 3 2.01948e-28 -4.12244
14310 1 56.0498 28.2663 32.6391 3 2.01948e-28 -4.12244
14311 1 58.5226 28.2663 32.6391 3 9.99999e-17 -4.12244
14312 1 57.6983 28.2663 30.3077 3 1e-16 -4.12244
14313 1 60.1711 28.2663 30.3077 3 3.99999e-16 -4.12244
14314 1 59.3468 28.2663 27.9764 3 3.99999e-16 -4.12244
14315 1 61.8196 28.2663 27.9764 3 5.77599e-17 -4.12244
14316 1 60.9953 28.2663 25.645 3 9.99999e-17 -4.12244
14317 1 63.4681 28.2663 25.645 3 2.304e-17 -4.12244
14318 1 62.6439 28.2663 23.3136 3 5.76e-18 -4.12244
14319 1 47.8072 26.2473 47.7929 3 4.05069e-16 -4.12244
14320 1 50.2799 26.2473 47.7929 3 5.06996e-18 -4.12244
14321 1 49.4557 26.2473 45.4616 3 9.99999e-17 -4.12244
14322 1 51.9285 26.2473 45.4616 3 1e-16 -4.12244
14323 1 51.1042 26.2473 43.1302 3 9.99999e-17 -4.12244
14324 1 53.577 26.2473 43.1302 3 3.99999e-16 -4.12244
14325 1 52.7527 26.2473 40.7989 3 4.00001e-16 -4.12244
14326 1 55.2255 26.2473 40.7989 3 1e-16 -4.12244
14327 1 54.4012 26.2473 38.4675 3 1e-16 -4.12244
14328 1 56.874 26.2473 38.4675 3 1.00974e-28 -4.12244
14329 1 56.0498 26.2473 36.1361 3 7.06819e-28 -4.12244
14330 1 58.5226 26.2473 36.1361 3 9.99999e-17 -4.12244
14331 1 57.6983 26.2473 33.8048 3 1e-16 -4.12244
14332 1 60.1711 26.2473 33.8048 3 3.99999e-16 -4.12244
14333 1 59.3468 26.2473 31.4734 3 3.99999e-16 -4.12244
14334 1 61.8196 26.2473 31.4734 3 5.77599e-17 -4.12244
14335 1 60.9953 26.2473 29.142 3 9.99999e-17 -4.12244
14336 1 63.4681 26.2473 29.142 3 2.304e-17 -4.12244
14337 1 62.6439 26.2473 26.8107 3 5.76e-18 -4.12244
14338 1 51.1042 24.2282 46.6273 3 1.0169e-16 -4.12244
14339 1 53.577 24.2282 46.6273 3 4.0169e-16 -4.12244
14340 1 52.7527 24.2282 44.2959 3 4.00001e-16 -4.12244
14341 1 55.2255 24.2282 44.2959 3 1e-16 -4.12244
14342 1 54.4012 24.2282 41.9645 3 1e-16 -4.12244
14343 1 56.874 24.2282 41.9645 3 0 -4.12244
14344 1 56.0498 24.2282 39.6332 3 0 -4.12244
14345 1 58.5226 24.2282 39.6332 3 9.99999e-17 -4.12244
14346 1 57.6983 24.2282 37.3018 3 1e-16 -4.12244
14347 1 60.1711 24.2282 37.3018 3 3.99999e-16 -4.12244
14348 1 59.3468 24.2282 34.9704 3 3.99999e-16 -4.12244
14349 1 61.8196 24.2282 34.9704 3 5.77599e-17 -4.12244
14350 1 60.9953 24.2282 32.6391 3 9.99999e-17 -4.12244
14351 1 63.4681 24.2282 32.6391 3 2.304e-17 -4.12244
14352 1 62.6439 24.2282 30.3077 3 5.76e-18 -4.12244
14353 1 52.7527 22.2092 47.7929 3 4.05071e-16 -4.12244
14354 1 55.2255 22.2092 47.7929 3 1.0507e-16 -4.12244
14355 1 54.4012 22.2092 45.4616 3 1e-16 -4.12244
14356 1 56.874 22.2092 45.4616 3 0 -4.12244
14357 1 56.0498 22.2092 43.1302 3 6.05845e-28 -4.12244
14358 1 58.5226 22.2092 43.1302 3 9.99999e-17 -4.12244
14359 1 57.6983 22.2092 40.7989 3 1e-16 -4.12244
14360 1 60.1711 22.2092 40.7989 3 3.99999e-16 -4.12244
14361 1 59.3468 22.2092 38.4675 3 3.99999e-16 -4.12244
14362 1 61.8196 22.2092 38.4675 3 5.77599e-17 -4.12244
14363 1 60.9953 22.2092 36.1361 3 9.99999e-17 -4.12244
14364 1 63.4681 22.2092 36.1361 3 2.304e-17 -4.12244
14365 1 62.6439 22.2092 33.8048 3 5.76e-18 -4.12244
14366 1 56.0498 20.1902 46.6273 3 1.69002e-18 -4.12244
14367 1 58.5226 20.1902 46.6273 3 1.0169e-16 -4.12244
14368 1 57.6983 20.1902 44.2959 3 1e-16 -4.12244
14369 1 60.1711 20.1902 44.2959 3 3.99999e-16 -4.12244
14370 1 59.3468 20.1902 41.9645 3 3.99999e-16 -4.12244
14371 1 61.8196 20.1902 41.9645 3 5.77599e-17 -4.12244
14372 1 60.9953 20.1902 39.6332 3 9.99999e-17 -4.12244
14373 1 63.4681 20.1902 39.6332 3 2.304e-17 -4.12244
14374 1 62.6439 20.1902 37.3018 3 5.76e-18 -4.12244
14375 1 57.6983 18.1712 47.7929 3 1.0507e-16 -4.12244
14376 1 60.1711 18.1712 47.7929 3 4.05069e-16 -4.12244
14377 1 59.3468 18.1712 45.4616 3 3.99999e-16 -4.12244
14378 1 61.8196 18.1712 45.4616 3 5.77599e-17 -4.12244
14379 1 60.9953 18.1712 43.1302 3 9.99999e-17 -4.12244
14380 1 63.4681 18.1712 43.1302 3 2.304e-17 -4.12244
14381 1 62.6439 18.1712 40.7989 3 5.76e-18 -4.12244
14382 1 60.9953 16.1522 46.6273 3 1.0169e-16 -4.12244
14383 1 63.4681 16.1522 46.6273 3 2.473e-17 -4.12244
14384 1 62.6439 16.1522 44.2959 3 5.76e-18 -4.12244
14385 1 62.6439 14.1331 47.7929 3 1.083e-17 -4.12244
14386 1 8.24261 62.5896 47.7929 5 12.2293 -3.54465
14387 1 10.7154 62.5896 47.7929 5 12.2293 -3.54465
14388 1 9.89114 62.5896 45.4616 5 12.2293 -3.54465
14389 1 12.3639 62.5896 45.4616 5 12.2293 -3.54465
14390 1 11.5397 62.5896 43.1302 5 12.2293 -3.54465
14391 1 14.0124 62.5896 43.1302 5 12.2293 -3.54465
14392 1 13.1882 62.5896 40.7989 5 12.2293 -3.54465
14393 1 15.661 62.5896 40.7989 5 12.2293 -3.54465
14394 1 14.8367 62.5896 38.4675 5 12.2293 -3.54465
14395 1 17.3095 62.5896 38.4675 5 12.2293 -3.54465
14396 1 16.4852 62.5896 36.1361 5 12.2293 -3.54465
14397 1 18.958 62.5896 36.1361 5 12.2293 -3.54465
14398 1 18.1337 62.5896 33.8048 5 12.2293 -3.54465
14399 1 20.6065 62.5896 33.8048 5 12.2293 -3.54465
14400 1 19.7823 62.5896 31.4734 5 12.2293 -3.54465
14401 1 22.2551 62.5896 31.4734 5 12.2293 -3.54465
14402 1 21.4308 62.5896 29.142 5 12.2293 -3.54465
14403 1 23.9036 62.5896 29.142 5 12.2293 -3.54465
14404 1 23.0793 62.5896 26.8107 5 12.2293 -3.54465
14405 1 25.5521 62.5896 26.8107 5 12.2293 -3.54465
14406 1 24.7278 62.5896 24.4793 5 12.2293 -3.54465
14407 1 27.2006 62.5896 24.4793 5 12.2293 -3.54465
14408 1 26.3764 62.5896 22.1479 5 12.2293 -3.54465
14409 1 28.8491 62.5896 22.1479 5 12.2293 -3.54465
14410 1 28.0249 62.5896 19.8166 5 12.2293 -3.54465
14411 1 30.4977 62.5896 19.8166 5 12.2293 -3.54465
14412 1 29.6734 62.5896 17.4852 5 12.2293 -3.54465
14413 1 32.1462 62.5896 17.4852 5 12.2293 -3.54465
14414 1 31.3219 62.5896 15.1539 5 12.2293 -3.54465
14415 1 33.7947 62.5896 15.1539 5 12.2293 -3.54465
14416 1 32.9705 62.5896 12.8225 5 12.2293 -3.54465
14417 1 35.4432 62.5896 12.8225 5 12.2293 -3.54465
14418 1 34.619 62.5896 10.4911 5 12.2293 -3.54465
14419 1 37.0918 62.5896 10.4911 5 12.2293 -3.54465
14420 1 36.2675 62.5896 8.15977 5 12.2293 -3.54465
14421 1 38.7403 62.5896 8.15977 5 12.2293 -3.54465
14422 1 37.916 62.5896 5.82841 5 12.2293 -3.54465
14423 1 40.3888 62.5896 5.82841 5 12.2293 -3.54465
14424 1 39.5645 62.5896 3.49704 5 12.2293 -3.54465
14425 1 42.0373 62.5896 3.49704 5 12.2293 -3.54465
14426 1 41.2131 62.5896 1.16568 5 12.2293 -3.54465
14427 1 43.6859 62.5896 1.16568 5 12.2293 -3.54465
14428 1 11.5397 60.5706 46.6273 3 1.0169e-16 -4.10627
14429 1 14.0124 60.5706 46.6273 3 1.0169e-16 -4.10627
14430 1 13.1882 60.5706 44.2959 3 4.03897e-28 -4.10627
14431 1 15.661 60.5706 44.2959 3 4e-16 -4.10627
14432 1 14.8367 60.5706 41.9645 3 9.99999e-17 -4.10627
14433 1 17.3095 60.5706 41.9645 3 1e-16 -4.10627
14434 1 16.4852 60.5706 39.6332 3 4e-16 -4.10627
14435 1 18.958 60.5706 39.6332 3 6.05845e-28 -4.10627
14436 1 18.1337 60.5706 37.3018 3 1e-16 -4.10627
14437 1 20.6065 60.5706 37.3018 3 1e-16 -4.10627
14438 1 19.7823 60.5706 34.9704 3 1e-16 -4.10627
14439 1 22.2551 60.5706 34.9704 3 4e-16 -4.10627
14440 1 21.4308 60.5706 32.6391 3 4e-16 -4.10627
14441 1 23.9036 60.5706 32.6391 3 1e-16 -4.10627
14442 1 23.0793 60.5706 30.3077 3 1e-16 -4.10627
14443 1 25.5521 60.5706 30.3077 3 5.55358e-28 -4.10627
14444 1 24.7278 60.5706 27.9764 3 5.55358e-28 -4.10627
14445 1 27.2006 60.5706 27.9764 3 1e-16 -4.10627
14446 1 26.3764 60.5706 25.645 3 1e-16 -4.10627
14447 1 28.8491 60.5706 25.645 3 4e-16 -4.10627
14448 1 28.0249 60.5706 23.3136 3 3.99999e-16 -4.10627
14449 1 30.4977 60.5706 23.3136 3 9.99999e-17 -4.10627
14450 1 29.6734 60.5706 20.9823 3 1e-16 -4.10627
14451 1 32.1462 60.5706 20.9823 3 9.99999e-17 -4.10627
14452 1 31.3219 60.5706 18.6509 3 4.03897e-28 -4.10627
14453 1 33.7947 60.5706 18.6509 3 4.00001e-16 -4.10627
14454 1 32.9705 60.5706 16.3195 3 9.99999e-17 -4.10627
14455 1 35.4432 60.5706 16.3195 3 1e-16 -4.10627
14456 1 34.619 60.5706 13.9882 3 4e-16 -4.10627
14457 1 37.0918 60.5706 13.9882 3 4.2914e-28 -4.10627
14458 1 36.2675 60.5706 11.6568 3 1e-16 -4.10627
14459 1 38.7403 60.5706 11.6568 3 1e-16 -4.10627
14460 1 37.916 60.5706 9.32545 3 1.21169e-27 -4.10627
14461 1 40.3888 60.5706 9.32545 3 3.99999e-16 -4.10627
14462 1 39.5645 60.5706 6.99409 3 1e-16 -4.10627
14463 1 42.0373 60.5706 6.99409 3 1e-16 -4.10627
14464 1 41.2131 60.5706 4.66273 3 4.00001e-16 -4.10627
14465 1 43.6859 60.5706 4.66273 3 6.05845e-28 -4.10627
14466 1 42.8616 60.5706 2.33136 3 9.99999e-17 -4.10627
14467 1 45.3344 60.5706 2.33136 3 9.99999e-17 -4.10627
14468 1 44.5101 60.5706 0 3 5.07001e-18 -4.10627
14469 1 46.9829 60.5706 0 3 4.0507e-16 -4.10627
14470 1 13.1882 58.5516 47.7929 3 5.06996e-18 -4.12244
14471 1 15.661 58.5516 47.7929 3 4.0507e-16 -4.12244
14472 1 14.8367 58.5516 45.4616 3 9.99999e-17 -4.12244
14473 1 17.3095 58.5516 45.4616 3 1e-16 -4.12244
14474 1 16.4852 58.5516 43.1302 3 4e-16 -4.12244
14475 1 18.958 58.5516 43.1302 3 8.07794e-28 -4.12244
14476 1 18.1337 58.5516 40.7989 3 1e-16 -4.12244
14477 1 20.6065 58.5516 40.7989 3 1e-16 -4.12244
14478 1 19.7823 58.5516 38.4675 3 1e-16 -4.12244
14479 1 22.2551 58.5516 38.4675 3 4e-16 -4.12244
14480 1 21.4308 58.5516 36.1361 3 4e-16 -4.12244
14481 1 23.9036 58.5516 36.1361 3 1e-16 -4.12244
14482 1 23.0793 58.5516 33.8048 3 1e-16 -4.12244
14483 1 25.5521 58.5516 33.8048 3 1.51461e-28 -4.12244
14484 1 24.7278 58.5516 31.4734 3 5.04871e-29 -4.12244
14485 1 27.2006 58.5516 31.4734 3 1e-16 -4.12244
14486 1 26.3764 58.5516 29.142 3 1e-16 -4.12244
14487 1 28.8491 58.5516 29.142 3 4e-16 -4.12244
14488 1 28.0249 58.5516 26.8107 3 3.99999e-16 -4.12244
14489 1 30.4977 58.5516 26.8107 3 9.99999e-17 -4.12244
14490 1 29.6734 58.5516 24.4793 3 1e-16 -4.12244
14491 1 32.1462 58.5516 24.4793 3 9.99999e-17 -4.12244
14492 1 31.3219 58.5516 22.1479 3 0 -4.12244
14493 1 33.7947 58.5516 22.1479 3 4.00001e-16 -4.12244
14494 1 32.9705 58.5516 19.8166 3 9.99999e-17 -4.12244
14495 1 35.4432 58.5516 19.8166 3 1e-16 -4.12244
14496 1 34.619 58.5516 17.4852 3 4e-16 -4.12244
14497 1 37.0918 58.5516 17.4852 3 1.00974e-28 -4.12244
14498 1 36.2675 58.5516 15.1539 3 1e-16 -4.12244
14499 1 38.7403 58.5516 15.1539 3 1e-16 -4.12244
14500 1 37.916 58.5516 12.8225 3 8.45659e-28 -4.12244
14501 1 40.3888 58.5516 12.8225 3 3.99999e-16 -4.12244
14502 1 39.5645 58.5516 10.4911 3 1e-16 -4.12244
14503 1 42.0373 58.5516 10.4911 3 1e-16 -4.12244
14504 1 41.2131 58.5516 8.15977 3 4.00001e-16 -4.12244
14505 1 43.6859 58.5516 8.15977 3 2.1457e-28 -4.12244
14506 1 42.8616 58.5516 5.82841 3 9.99999e-17 -4.12244
14507 1 45.3344 58.5516 5.82841 3 9.99999e-17 -4.12244
14508 1 44.5101 58.5516 3.49704 3 2.02737e-28 -4.12244
14509 1 46.9829 58.5516 3.49704 3 3.99999e-16 -4.12244
14510 1 46.1586 58.5516 1.16568 3 1.0169e-16 -4.12244
14511 1 48.6314 58.5516 1.16568 3 1.0169e-16 -4.12244
14512 1 16.4852 56.5326 46.6273 3 4.0169e-16 -4.12244
14513 1 18.958 56.5326 46.6273 3 1.69002e-18 -4.12244
14514 1 18.1337 56.5326 44.2959 3 1e-16 -4.12244
14515 1 20.6065 56.5326 44.2959 3 1e-16 -4.12244
14516 1 19.7823 56.5326 41.9645 3 1e-16 -4.12244
14517 1 22.2551 56.5326 41.9645 3 4e-16 -4.12244
14518 1 21.4308 56.5326 39.6332 3 4e-16 -4.12244
14519 1 23.9036 56.5326 39.6332 3 1e-16 -4.12244
14520 1 23.0793 56.5326 37.3018 3 1e-16 -4.12244
14521 1 25.5521 56.5326 37.3018 3 1.51461e-28 -4.12244
14522 1 24.7278 56.5326 34.9704 3 2.01948e-28 -4.12244
14523 1 27.2006 56.5326 34.9704 3 1e-16 -4.12244
14524 1 26.3764 56.5326 32.6391 3 1e-16 -4.12244
14525 1 28.8491 56.5326 32.6391 3 4e-16 -4.12244
14526 1 28.0249 56.5326 30.3077 3 3.99999e-16 -4.12244
14527 1 30.4977 56.5326 30.3077 3 9.99999e-17 -4.12244
14528 1 29.6734 56.5326 27.9764 3 1e-16 -4.12244
14529 1 32.1462 56.5326 27.9764 3 9.99999e-17 -4.12244
14530 1 31.3219 56.5326 25.645 3 1.51461e-28 -4.12244
14531 1 33.7947 56.5326 25.645 3 4.00001e-16 -4.12244
14532 1 32.9705 56.5326 23.3136 3 9.99999e-17 -4.12244
14533 1 35.4432 56.5326 23.3136 3 1e-16 -4.12244
14534 1 34.619 56.5326 20.9823 3 4e-16 -4.12244
14535 1 37.0918 56.5326 20.9823 3 0 -4.12244
14536 1 36.2675 56.5326 18.6509 3 1e-16 -4.12244
14537 1 38.7403 56.5326 18.6509 3 1e-16 -4.12244
14538 1 37.916 56.5326 16.3195 3 9.08768e-28 -4.12244
14539 1 40.3888 56.5326 16.3195 3 3.99999e-16 -4.12244
14540 1 39.5645 56.5326 13.9882 3 1e-16 -4.12244
14541 1 42.0373 56.5326 13.9882 3 1e-16 -4.12244
14542 1 41.2131 56.5326 11.6568 3 4.00001e-16 -4.12244
14543 1 43.6859 56.5326 11.6568 3 2.01948e-28 -4.12244
14544 1 42.8616 56.5326 9.32545 3 9.99999e-17 -4.12244
14545 1 45.3344 56.5326 9.32545 3 9.99999e-17 -4.12244
14546 1 44.5101 56.5326 6.99409 3 2.01948e-28 -4.12244
14547 1 46.9829 56.5326 6.99409 3 3.99999e-16 -4.12244
14548 1 46.1586 56.5326 4.66273 3 9.99999e-17 -4.12244
14549 1 48.6314 56.5326 4.66273 3 9.99999e-17 -4.12244
14550 1 47.8072 56.5326 2.33136 3 3.99999e-16 -4.12244
14551 1 50.2799 56.5326 2.33136 3 2.01948e-28 -4.12244
14552 1 49.4557 56.5326 0 3 1.0507e-16 -4.12244
14553 1 51.9285 56.5326 0 3 1.0507e-16 -4.12244
14554 1 18.1337 54.5135 47.7929 3 1.0507e-16 -4.12244
14555 1 20.6065 54.5135 47.7929 3 1.0507e-16 -4.12244
14556 1 19.7823 54.5135 45.4616 3 1e-16 -4.12244
14557 1 22.2551 54.5135 45.4616 3 4e-16 -4.12244
14558 1 21.4308 54.5135 43.1302 3 4e-16 -4.12244
14559 1 23.9036 54.5135 43.1302 3 1e-16 -4.12244
14560 1 23.0793 54.5135 40.7989 3 1e-16 -4.12244
14561 1 25.5521 54.5135 40.7989 3 7.57306e-28 -4.12244
14562 1 24.7278 54.5135 38.4675 3 0 -4.12244
14563 1 27.2006 54.5135 38.4675 3 1e-16 -4.12244
14564 1 26.3764 54.5135 36.1361 3 1e-16 -4.12244
14565 1 28.8491 54.5135 36.1361 3 4e-16 -4.12244
14566 1 28.0249 54.5135 33.8048 3 3.99999e-16 -4.12244
14567 1 30.4977 54.5135 33.8048 3 9.99999e-17 -4.12244
14568 1 29.6734 54.5135 31.4734 3 1e-16 -4.12244
14569 1 32.1462 54.5135 31.4734 3 9.99999e-17 -4.12244
14570 1 31.3219 54.5135 29.142 3 1.51461e-28 -4.12244
14571 1 33.7947 54.5135 29.142 3 4.00001e-16 -4.12244
14572 1 32.9705 54.5135 26.8107 3 9.99999e-17 -4.12244
14573 1 35.4432 54.5135 26.8107 3 1e-16 -4.12244
14574 1 34.619 54.5135 24.4793 3 4e-16 -4.12244
14575 1 37.0918 54.5135 24.4793 3 1.00974e-28 -4.12244
14576 1 36.2675 54.5135 22.1479 3 1e-16 -4.12244
14577 1 38.7403 54.5135 22.1479 3 1e-16 -4.12244
14578 1 37.916 54.5135 19.8166 3 8.07794e-28 -4.12244
14579 1 40.3888 54.5135 19.8166 3 3.99999e-16 -4.12244
14580 1 39.5645 54.5135 17.4852 3 1e-16 -4.12244
14581 1 42.0373 54.5135 17.4852 3 1e-16 -4.12244
14582 1 41.2131 54.5135 15.1539 3 4.00001e-16 -4.12244
14583 1 43.6859 54.5135 15.1539 3 2.01948e-28 -4.12244
14584 1 42.8616 54.5135 12.8225 3 9.99999e-17 -4.12244
14585 1 45.3344 54.5135 12.8225 3 9.99999e-17 -4.12244
14586 1 44.5101 54.5135 10.4911 3 2.01948e-28 -4.12244
14587 1 46.9829 54.5135 10.4911 3 3.99999e-16 -4.12244
14588 1 46.1586 54.5135 8.15977 3 9.99999e-17 -4.12244
14589 1 48.6314 54.5135 8.15977 3 9.99999e-17 -4.12244
14590 1 47.8072 54.5135 5.82841 3 3.99999e-16 -4.12244
14591 1 50.2799 54.5135 5.82841 3 2.05104e-28 -4.12244
14592 1 49.4557 54.5135 3.49704 3 9.99999e-17 -4.12244
14593 1 51.9285 54.5135 3.49704 3 1e-16 -4.12244
14594 1 51.1042 54.5135 1.16568 3 1.0169e-16 -4.12244
14595 1 53.577 54.5135 1.16568 3 4.01689e-16 -4.12244
14596 1 21.4308 52.4945 46.6273 3 4.01691e-16 -4.12244
14597 1 23.9036 52.4945 46.6273 3 1.0169e-16 -4.12244
14598 1 23.0793 52.4945 44.2959 3 1e-16 -4.12244
14599 1 25.5521 52.4945 44.2959 3 1.51461e-28 -4.12244
14600 1 24.7278 52.4945 41.9645 3 0 -4.12244
14601 1 27.2006 52.4945 41.9645 3 1e-16 -4.12244
14602 1 26.3764 52.4945 39.6332 3 1e-16 -4.12244
14603 1 28.8491 52.4945 39.6332 3 4e-16 -4.12244
14604 1 28.0249 52.4945 37.3018 3 3.99999e-16 -4.12244
14605 1 30.4977 52.4945 37.3018 3 9.99999e-17 -4.12244
14606 1 29.6734 52.4945 34.9704 3 1e-16 -4.12244
14607 1 32.1462 52.4945 34.9704 3 9.99999e-17 -4.12244
14608 1 31.3219 52.4945 32.6391 3 2.01948e-28 -4.12244
14609 1 33.7947 52.4945 32.6391 3 4.00001e-16 -4.12244
14610 1 32.9705 52.4945 30.3077 3 9.99999e-17 -4.12244
14611 1 35.4432 52.4945 30.3077 3 1e-16 -4.12244
14612 1 34.619 52.4945 27.9764 3 4e-16 -4.12244
14613 1 37.0918 52.4945 27.9764 3 1.51461e-28 -4.12244
14614 1 36.2675 52.4945 25.645 3 1e-16 -4.12244
14615 1 38.7403 52.4945 25.645 3 1e-16 -4.12244
14616 1 37.916 52.4945 23.3136 3 8.07794e-28 -4.12244
14617 1 40.3888 52.4945 23.3136 3 3.99999e-16 -4.12244
14618 1 39.5645 52.4945 20.9823 3 1e-16 -4.12244
14619 1 42.0373 52.4945 20.9823 3 1e-16 -4.12244
14620 1 41.2131 52.4945 18.6509 3 4.00001e-16 -4.12244
14621 1 43.6859 52.4945 18.6509 3 2.01948e-28 -4.12244
14622 1 42.8616 52.4945 16.3195 3 9.99999e-17 -4.12244
14623 1 45.3344 52.4945 16.3195 3 9.99999e-17 -4.12244
14624 1 44.5101 52.4945 13.9882 3 2.27192e-28 -4.12244
14625 1 46.9829 52.4945 13.9882 3 3.99999e-16 -4.12244
14626 1 46.1586 52.4945 11.6568 3 9.99999e-17 -4.12244
14627 1 48.6314 52.4945 11.6568 3 9.99999e-17 -4.12244
14628 1 47.8072 52.4945 9.32545 3 3.99999e-16 -4.12244
14629 1 50.2799 52.4945 9.32545 3 2.01948e-28 -4.12244
14630 1 49.4557 52.4945 6.99409 3 9.99999e-17 -4.12244
14631 1 51.9285 52.4945 6.99409 3 1e-16 -4.12244
14632 1 51.1042 52.4945 4.66273 3 9.99999e-17 -4.12244
14633 1 53.577 52.4945 4.66273 3 3.99999e-16 -4.12244
14634 1 52.7527 52.4945 2.33136 3 4.00001e-16 -4.12244
14635 1 55.2255 52.4945 2.33136 3 1e-16 -4.12244
14636 1 54.4012 52.4945 0 3 1.0507e-16 -4.12244
14637 1 56.874 52.4945 0 3 5.07001e-18 -4.12244
14638 1 23.0793 50.4755 47.7929 3 1.0507e-16 -4.12244
14639 1 25.5521 50.4755 47.7929 3 5.06996e-18 -4.12244
14640 1 24.7278 50.4755 45.4616 3 0 -4.12244
14641 1 27.2006 50.4755 45.4616 3 1e-16 -4.12244
14642 1 26.3764 50.4755 43.1302 3 1e-16 -4.12244
14643 1 28.8491 50.4755 43.1302 3 4e-16 -4.12244
14644 1 28.0249 50.4755 40.7989 3 3.99999e-16 -4.12244
14645 1 30.4977 50.4755 40.7989 3 9.99999e-17 -4.12244
14646 1 29.6734 50.4755 38.4675 3 1e-16 -4.12244
14647 1 32.1462 50.4755 38.4675 3 9.99999e-17 -4.12244
14648 1 31.3219 50.4755 36.1361 3 6.05845e-28 -4.12244
14649 1 33.7947 50.4755 36.1361 3 4.00001e-16 -4.12244
14650 1 32.9705 50.4755 33.8048 3 9.99999e-17 -4.12244
14651 1 35.4432 50.4755 33.8048 3 1e-16 -4.12244
14652 1 34.619 50.4755 31.4734 3 4e-16 -4.12244
14653 1 37.0918 50.4755 31.4734 3 5.04871e-29 -4.12244
14654 1 36.2675 50.4755 29.142 3 1e-16 -4.12244
14655 1 38.7403 50.4755 29.142 3 1e-16 -4.12244
14656 1 37.916 50.4755 26.8107 3 8.07794e-28 -4.12244
14657 1 40.3888 50.4755 26.8107 3 3.99999e-16 -4.12244
14658 1 39.5645 50.4755 24.4793 3 1e-16 -4.12244
14659 1 42.0373 50.4755 24.4793 3 1e-16 -4.12244
14660 1 41.2131 50.4755 22.1479 3 4.00001e-16 -4.12244
14661 1 43.6859 50.4755 22.1479 3 2.01948e-28 -4.12244
14662 1 42.8616 50.4755 19.8166 3 9.99999e-17 -4.12244
14663 1 45.3344 50.4755 19.8166 3 9.99999e-17 -4.12244
14664 1 44.5101 50.4755 17.4852 3 3.02923e-28 -4.12244
14665 1 46.9829 50.4755 17.4852 3 3.99999e-16 -4.12244
14666 1 46.1586 50.4755 15.1539 3 9.99999e-17 -4.12244
14667 1 48.6314 50.4755 15.1539 3 9.99999e-17 -4.12244
14668 1 47.8072 50.4755 12.8225 3 3.99999e-16 -4.12244
14669 1 50.2799 50.4755 12.8225 3 2.39814e-28 -4.12244
14670 1 49.4557 50.4755 10.4911 3 9.99999e-17 -4.12244
14671 1 51.9285 50.4755 10.4911 3 1e-16 -4.12244
14672 1 51.1042 50.4755 8.15977 3 9.99999e-17 -4.12244
14673 1 53.577 50.4755 8.15977 3 3.99999e-16 -4.12244
14674 1 52.7527 50.4755 5.82841 3 4.00001e-16 -4.12244
14675 1 55.2255 50.4755 5.82841 3 1e-16 -4.12244
14676 1 54.4012 50.4755 3.49704 3 1e-16 -4.12244
14677 1 56.874 50.4755 3.49704 3 7.88861e-31 -4.12244
14678 1 56.0498 50.4755 1.16568 3 1.69e-18 -4.12244
14679 1 58.5226 50.4755 1.16568 3 1.0169e-16 -4.12244
14680 1 26.3764 48.4565 46.6273 3 1.0169e-16 -4.12244
14681 1 28.8491 48.4565 46.6273 3 4.0169e-16 -4.12244
14682 1 28.0249 48.4565 44.2959 3 3.99999e-16 -4.12244
14683 1 30.4977 48.4565 44.2959 3 9.99999e-17 -4.12244
14684 1 29.6734 48.4565 41.9645 3 1e-16 -4.12244
14685 1 32.1462 48.4565 41.9645 3 9.99999e-17 -4.12244
14686 1 31.3219 48.4565 39.6332 3 0 -4.12244
14687 1 33.7947 48.4565 39.6332 3 4.00001e-16 -4.12244
14688 1 32.9705 48.4565 37.3018 3 9.99999e-17 -4.12244
14689 1 35.4432 48.4565 37.3018 3 1e-16 -4.12244
14690 1 34.619 48.4565 34.9704 3 4e-16 -4.12244
14691 1 37.0918 48.4565 34.9704 3 2.01948e-28 -4.12244
14692 1 36.2675 48.4565 32.6391 3 1e-16 -4.12244
14693 1 38.7403 48.4565 32.6391 3 1e-16 -4.12244
14694 1 37.916 48.4565 30.3077 3 8.07794e-28 -4.12244
14695 1 40.3888 48.4565 30.3077 3 3.99999e-16 -4.12244
14696 1 39.5645 48.4565 27.9764 3 1e-16 -4.12244
14697 1 42.0373 48.4565 27.9764 3 1e-16 -4.12244
14698 1 41.2131 48.4565 25.645 3 4.00001e-16 -4.12244
14699 1 43.6859 48.4565 25.645 3 3.5341e-28 -4.12244
14700 1 42.8616 48.4565 23.3136 3 9.99999e-17 -4.12244
14701 1 45.3344 48.4565 23.3136 3 9.99999e-17 -4.12244
14702 1 44.5101 48.4565 20.9823 3 2.01948e-28 -4.12244
14703 1 46.9829 48.4565 20.9823 3 3.99999e-16 -4.12244
14704 1 46.1586 48.4565 18.6509 3 9.99999e-17 -4.12244
14705 1 48.6314 48.4565 18.6509 3 9.99999e-17 -4.12244
14706 1 47.8072 48.4565 16.3195 3 3.99999e-16 -4.12244
14707 1 50.2799 48.4565 16.3195 3 3.02923e-28 -4.12244
14708 1 49.4557 48.4565 13.9882 3 9.99999e-17 -4.12244
14709 1 51.9285 48.4565 13.9882 3 1e-16 -4.12244
14710 1 51.1042 48.4565 11.6568 3 9.99999e-17 -4.12244
14711 1 53.577 48.4565 11.6568 3 3.99999e-16 -4.12244
14712 1 52.7527 48.4565 9.32545 3 4.00001e-16 -4.12244
14713 1 55.2255 48.4565 9.32545 3 1e-16 -4.12244
14714 1 54.4012 48.4565 6.99409 3 1e-16 -4.12244
14715 1 56.874 48.4565 6.99409 3 0 -4.12244
14716 1 56.0498 48.4565 4.66273 3 0 -4.12244
14717 1 58.5226 48.4565 4.66273 3 9.99999e-17 -4.12244
14718 1 57.6983 48.4565 2.33136 3 1e-16 -4.12244
14719 1 60.1711 48.4565 2.33136 3 3.99999e-16 -4.12244
14720 1 59.3468 48.4565 0 3 4.0507e-16 -4.12244
14721 1 61.8196 48.4565 0 3 6.28299e-17 -4.12244
14722 1 28.0249 46.4375 47.7929 3 4.05069e-16 -4.12244
14723 1 30.4977 46.4375 47.7929 3 1.0507e-16 -4.12244
14724 1 29.6734 46.4375 45.4616 3 1e-16 -4.12244
14725 1 32.1462 46.4375 45.4616 3 9.99999e-17 -4.12244
14726 1 31.3219 46.4375 43.1302 3 6.05845e-28 -4.12244
14727 1 33.7947 46.4375 43.1302 3 4.00001e-16 -4.12244
14728 1 32.9705 46.4375 40.7989 3 9.99999e-17 -4.12244
14729 1 35.4432 46.4375 40.7989 3 1e-16 -4.12244
14730 1 34.619 46.4375 38.4675 3 4e-16 -4.12244
14731 1 37.0918 46.4375 38.4675 3 0 -4.12244
14732 1 36.2675 46.4375 36.1361 3 1e-16 -4.12244
14733 1 38.7403 46.4375 36.1361 3 1e-16 -4.12244
14734 1 37.916 46.4375 33.8048 3 8.07794e-28 -4.12244
14735 1 40.3888 46.4375 33.8048 3 3.99999e-16 -4.12244
14736 1 39.5645 46.4375 31.4734 3 1e-16 -4.12244
14737 1 42.0373 46.4375 31.4734 3 1e-16 -4.12244
14738 1 41.2131 46.4375 29.142 3 4.00001e-16 -4.12244
14739 1 43.6859 46.4375 29.142 3 3.5341e-28 -4.12244
14740 1 42.8616 46.4375 26.8107 3 9.99999e-17 -4.12244
14741 1 45.3344 46.4375 26.8107 3 9.99999e-17 -4.12244
14742 1 44.5101 46.4375 24.4793 3 3.02923e-28 -4.12244
14743 1 46.9829 46.4375 24.4793 3 3.99999e-16 -4.12244
14744 1 46.1586 46.4375 22.1479 3 9.99999e-17 -4.12244
14745 1 48.6314 46.4375 22.1479 3 9.99999e-17 -4.12244
14746 1 47.8072 46.4375 19.8166 3 3.99999e-16 -4.12244
14747 1 50.2799 46.4375 19.8166 3 2.01948e-28 -4.12244
14748 1 49.4557 46.4375 17.4852 3 9.99999e-17 -4.12244
14749 1 51.9285 46.4375 17.4852 3 1e-16 -4.12244
14750 1 51.1042 46.4375 15.1539 3 9.99999e-17 -4.12244
14751 1 53.577 46.4375 15.1539 3 3.99999e-16 -4.12244
14752 1 52.7527 46.4375 12.8225 3 4.00001e-16 -4.12244
14753 1 55.2255 46.4375 12.8225 3 1e-16 -4.12244
14754 1 54.4012 46.4375 10.4911 3 1e-16 -4.12244
14755 1 56.874 46.4375 10.4911 3 0 -4.12244
14756 1 56.0498 46.4375 8.15977 3 1.26218e-29 -4.12244
14757 1 58.5226 46.4375 8.15977 3 9.99999e-17 -4.12244
14758 1 57.6983 46.4375 5.82841 3 1e-16 -4.12244
14759 1 60.1711 46.4375 5.82841 3 3.99999e-16 -4.12244
14760 1 59.3468 46.4375 3.49704 3 3.99999e-16 -4.12244
14761 1 61.8196 46.4375 3.49704 3 5.77599e-17 -4.12244
14762 1 60.9953 46.4375 1.16568 3 1.0169e-16 -4.12244
14763 1 63.4681 46.4375 1.16568 3 2.473e-17 -4.12244
14764 1 31.3219 44.4184 46.6273 3 1.69002e-18 -4.12244
14765 1 33.7947 44.4184 46.6273 3 4.01691e-16 -4.12244
14766 1 32.9705 44.4184 44.2959 3 9.99999e-17 -4.12244
14767 1 35.4432 44.4184 44.2959 3 1e-16 -4.12244
14768 1 34.619 44.4184 41.9645 3 4e-16 -4.12244
14769 1 37.0918 44.4184 41.9645 3 0 -4.12244
14770 1 36.2675 44.4184 39.6332 3 1e-16 -4.12244
14771 1 38.7403 44.4184 39.6332 3 1e-16 -4.12244
14772 1 37.916 44.4184 37.3018 3 8.07794e-28 -4.12244
14773 1 40.3888 44.4184 37.3018 3 3.99999e-16 -4.12244
14774 1 39.5645 44.4184 34.9704 3 1e-16 -4.12244
14775 1 42.0373 44.4184 34.9704 3 1e-16 -4.12244
14776 1 41.2131 44.4184 32.6391 3 4.00001e-16 -4.12244
14777 1 43.6859 44.4184 32.6391 3 4.03897e-28 -4.12244
14778 1 42.8616 44.4184 30.3077 3 9.99999e-17 -4.12244
14779 1 45.3344 44.4184 30.3077 3 9.99999e-17 -4.12244
14780 1 44.5101 44.4184 27.9764 3 3.5341e-28 -4.12244
14781 1 46.9829 44.4184 27.9764 3 3.99999e-16 -4.12244
14782 1 46.1586 44.4184 25.645 3 9.99999e-17 -4.12244
14783 1 48.6314 44.4184 25.645 3 9.99999e-17 -4.12244
14784 1 47.8072 44.4184 23.3136 3 3.99999e-16 -4.12244
14785 1 50.2799 44.4184 23.3136 3 2.01948e-28 -4.12244
14786 1 49.4557 44.4184 20.9823 3 9.99999e-17 -4.12244
14787 1 51.9285 44.4184 20.9823 3 1e-16 -4.12244
14788 1 51.1042 44.4184 18.6509 3 9.99999e-17 -4.12244
14789 1 53.577 44.4184 18.6509 3 3.99999e-16 -4.12244
14790 1 52.7527 44.4184 16.3195 3 4.00001e-16 -4.12244
14791 1 55.2255 44.4184 16.3195 3 1e-16 -4.12244
14792 1 54.4012 44.4184 13.9882 3 1e-16 -4.12244
14793 1 56.874 44.4184 13.9882 3 2.52435e-29 -4.12244
14794 1 56.0498 44.4184 11.6568 3 0 -4.12244
14795 1 58.5226 44.4184 11.6568 3 9.99999e-17 -4.12244
14796 1 57.6983 44.4184 9.32545 3 1e-16 -4.12244
14797 1 60.1711 44.4184 9.32545 3 3.99999e-16 -4.12244
14798 1 59.3468 44.4184 6.99409 3 3.99999e-16 -4.12244
14799 1 61.8196 44.4184 6.99409 3 5.77599e-17 -4.12244
14800 1 60.9953 44.4184 4.66273 3 9.99999e-17 -4.12244
14801 1 63.4681 44.4184 4.66273 3 2.304e-17 -4.12244
14802 1 62.6439 44.4184 2.33136 3 5.76e-18 -4.12244
14803 1 32.9705 42.3994 47.7929 3 1.0507e-16 -4.12244
14804 1 35.4432 42.3994 47.7929 3 1.0507e-16 -4.12244
14805 1 34.619 42.3994 45.4616 3 4e-16 -4.12244
14806 1 37.0918 42.3994 45.4616 3 0 -4.12244
14807 1 36.2675 42.3994 43.1302 3 1e-16 -4.12244
14808 1 38.7403 42.3994 43.1302 3 1e-16 -4.12244
14809 1 37.916 42.3994 40.7989 3 1.41364e-27 -4.12244
14810 1 40.3888 42.3994 40.7989 3 3.99999e-16 -4.12244
14811 1 39.5645 42.3994 38.4675 3 1e-16 -4.12244
14812 1 42.0373 42.3994 38.4675 3 1e-16 -4.12244
14813 1 41.2131 42.3994 36.1361 3 4.00001e-16 -4.12244
14814 1 43.6859 42.3994 36.1361 3 8.07794e-28 -4.12244
14815 1 42.8616 42.3994 33.8048 3 9.99999e-17 -4.12244
14816 1 45.3344 42.3994 33.8048 3 9.99999e-17 -4.12244
14817 1 44.5101 42.3994 31.4734 3 2.52435e-28 -4.12244
14818 1 46.9829 42.3994 31.4734 3 3.99999e-16 -4.12244
14819 1 46.1586 42.3994 29.142 3 9.99999e-17 -4.12244
14820 1 48.6314 42.3994 29.142 3 9.99999e-17 -4.12244
14821 1 47.8072 42.3994 26.8107 3 3.99999e-16 -4.12244
14822 1 50.2799 42.3994 26.8107 3 2.01948e-28 -4.12244
14823 1 49.4557 42.3994 24.4793 3 9.99999e-17 -4.12244
14824 1 51.9285 42.3994 24.4793 3 1e-16 -4.12244
14825 1 51.1042 42.3994 22.1479 3 9.99999e-17 -4.12244
14826 1 53.577 42.3994 22.1479 3 3.99999e-16 -4.12244
14827 1 52.7527 42.3994 19.8166 3 4.00001e-16 -4.12244
14828 1 55.2255 42.3994 19.8166 3 1e-16 -4.12244
14829 1 54.4012 42.3994 17.4852 3 1e-16 -4.12244
14830 1 56.874 42.3994 17.4852 3 1.00974e-28 -4.12244
14831 1 56.0498 42.3994 15.1539 3 0 -4.12244
14832 1 58.5226 42.3994 15.1539 3 9.99999e-17 -4.12244
14833 1 57.6983 42.3994 12.8225 3 1e-16 -4.12244
14834 1 60.1711 42.3994 12.8225 3 3.99999e-16 -4.12244
14835 1 59.3468 42.3994 10.4911 3 3.99999e-16 -4.12244
14836 1 61.8196 42.3994 10.4911 3 5.77599e-17 -4.12244
14837 1 60.9953 42.3994 8.15977 3 9.99999e-17 -4.12244
14838 1 63.4681 42.3994 8.15977 3 2.304e-17 -4.12244
14839 1 62.6439 42.3994 5.82841 3 5.76e-18 -4.12244
14840 1 36.2675 40.3804 46.6273 3 1.0169e-16 -4.12244
14841 1 38.7403 40.3804 46.6273 3 1.0169e-16 -4.12244
14842 1 37.916 40.3804 44.2959 3 8.07794e-28 -4.12244
14843 1 40.3888 40.3804 44.2959 3 3.99999e-16 -4.12244
14844 1 39.5645 40.3804 41.9645 3 1e-16 -4.12244
14845 1 42.0373 40.3804 41.9645 3 1e-16 -4.12244
14846 1 41.2131 40.3804 39.6332 3 4.00001e-16 -4.12244
14847 1 43.6859 40.3804 39.6332 3 2.01948e-28 -4.12244
14848 1 42.8616 40.3804 37.3018 3 9.99999e-17 -4.12244
14849 1 45.3344 40.3804 37.3018 3 9.99999e-17 -4.12244
14850 1 44.5101 40.3804 34.9704 3 4.03897e-28 -4.12244
14851 1 46.9829 40.3804 34.9704 3 3.99999e-16 -4.12244
14852 1 46.1586 40.3804 32.6391 3 9.99999e-17 -4.12244
14853 1 48.6314 40.3804 32.6391 3 9.99999e-17 -4.12244
14854 1 47.8072 40.3804 30.3077 3 3.99999e-16 -4.12244
14855 1 50.2799 40.3804 30.3077 3 2.01948e-28 -4.12244
14856 1 49.4557 40.3804 27.9764 3 9.99999e-17 -4.12244
14857 1 51.9285 40.3804 27.9764 3 1e-16 -4.12244
14858 1 51.1042 40.3804 25.645 3 9.99999e-17 -4.12244
14859 1 53.577 40.3804 25.645 3 3.99999e-16 -4.12244
14860 1 52.7527 40.3804 23.3136 3 4.00001e-16 -4.12244
14861 1 55.2255 40.3804 23.3136 3 1e-16 -4.12244
14862 1 54.4012 40.3804 20.9823 3 1e-16 -4.12244
14863 1 56.874 40.3804 20.9823 3 0 -4.12244
14864 1 56.0498 40.3804 18.6509 3 0 -4.12244
14865 1 58.5226 40.3804 18.6509 3 9.99999e-17 -4.12244
14866 1 57.6983 40.3804 16.3195 3 1e-16 -4.12244
14867 1 60.1711 40.3804 16.3195 3 3.99999e-16 -4.12244
14868 1 59.3468 40.3804 13.9882 3 3.99999e-16 -4.12244
14869 1 61.8196 40.3804 13.9882 3 5.77599e-17 -4.12244
14870 1 60.9953 40.3804 11.6568 3 9.99999e-17 -4.12244
14871 1 63.4681 40.3804 11.6568 3 2.304e-17 -4.12244
14872 1 62.6439 40.3804 9.32545 3 5.76e-18 -4.12244
14873 1 37.916 38.3614 47.7929 3 5.06996e-18 -4.12244
14874 1 40.3888 38.3614 47.7929 3 4.05069e-16 -4.12244
14875 1 39.5645 38.3614 45.4616 3 1e-16 -4.12244
14876 1 42.0373 38.3614 45.4616 3 1e-16 -4.12244
14877 1 41.2131 38.3614 43.1302 3 4.00001e-16 -4.12244
14878 1 43.6859 38.3614 43.1302 3 8.07794e-28 -4.12244
14879 1 42.8616 38.3614 40.7989 3 9.99999e-17 -4.12244
14880 1 45.3344 38.3614 40.7989 3 9.99999e-17 -4.12244
14881 1 44.5101 38.3614 38.4675 3 2.01948e-28 -4.12244
14882 1 46.9829 38.3614 38.4675 3 3.99999e-16 -4.12244
14883 1 46.1586 38.3614 36.1361 3 9.99999e-17 -4.12244
14884 1 48.6314 38.3614 36.1361 3 9.99999e-17 -4.12244
14885 1 47.8072 38.3614 33.8048 3 3.99999e-16 -4.12244
14886 1 50.2799 38.3614 33.8048 3 2.01948e-28 -4.12244
14887 1 49.4557 38.3614 31.4734 3 9.99999e-17 -4.12244
14888 1 51.9285 38.3614 31.4734 3 1e-16 -4.12244
14889 1 51.1042 38.3614 29.142 3 9.99999e-17 -4.12244
14890 1 53.577 38.3614 29.142 3 3.99999e-16 -4.12244
14891 1 52.7527 38.3614 26.8107 3 4.00001e-16 -4.12244
14892 1 55.2255 38.3614 26.8107 3 1e-16 -4.12244
14893 1 54.4012 38.3614 24.4793 3 1e-16 -4.12244
14894 1 56.874 38.3614 24.4793 3 1.00974e-28 -4.12244
14895 1 56.0498 38.3614 22.1479 3 0 -4.12244
14896 1 58.5226 38.3614 22.1479 3 9.99999e-17 -4.12244
14897 1 57.6983 38.3614 19.8166 3 1e-16 -4.12244
14898 1 60.1711 38.3614 19.8166 3 3.99999e-16 -4.12244
14899 1 59.3468 38.3614 17.4852 3 3.99999e-16 -4.12244
14900 1 61.8196 38.3614 17.4852 3 5.77599e-17 -4.12244
14901 1 60.9953 38.3614 15.1539 3 9.99999e-17 -4.12244
14902 1 63.4681 38.3614 15.1539 3 2.304e-17 -4.12244
14903 1 62.6439 38.3614 12.8225 3 5.76e-18 -4.12244
14904 1 41.2131 36.3424 46.6273 3 4.01691e-16 -4.12244
14905 1 43.6859 36.3424 46.6273 3 1.69002e-18 -4.12244
14906 1 42.8616 36.3424 44.2959 3 9.99999e-17 -4.12244
14907 1 45.3344 36.3424 44.2959 3 9.99999e-17 -4.12244
14908 1 44.5101 36.3424 41.9645 3 2.01948e-28 -4.12244
14909 1 46.9829 36.3424 41.9645 3 3.99999e-16 -4.12244
14910 1 46.1586 36.3424 39.6332 3 9.99999e-17 -4.12244
14911 1 48.6314 36.3424 39.6332 3 9.99999e-17 -4.12244
14912 1 47.8072 36.3424 37.3018 3 3.99999e-16 -4.12244
14913 1 50.2799 36.3424 37.3018 3 2.01948e-28 -4.12244
14914 1 49.4557 36.3424 34.9704 3 9.99999e-17 -4.12244
14915 1 51.9285 36.3424 34.9704 3 1e-16 -4.12244
14916 1 51.1042 36.3424 32.6391 3 9.99999e-17 -4.12244
14917 1 53.577 36.3424 32.6391 3 3.99999e-16 -4.12244
14918 1 52.7527 36.3424 30.3077 3 4.00001e-16 -4.12244
14919 1 55.2255 36.3424 30.3077 3 1e-16 -4.12244
14920 1 54.4012 36.3424 27.9764 3 1e-16 -4.12244
14921 1 56.874 36.3424 27.9764 3 1.51461e-28 -4.12244
14922 1 56.0498 36.3424 25.645 3 1.51461e-28 -4.12244
14923 1 58.5226 36.3424 25.645 3 9.99999e-17 -4.12244
14924 1 57.6983 36.3424 23.3136 3 1e-16 -4.12244
14925 1 60.1711 36.3424 23.3136 3 3.99999e-16 -4.12244
14926 1 59.3468 36.3424 20.9823 3 3.99999e-16 -4.12244
14927 1 61.8196 36.3424 20.9823 3 5.77599e-17 -4.12244
14928 1 60.9953 36.3424 18.6509 3 9.99999e-17 -4.12244
14929 1 63.4681 36.3424 18.6509 3 2.304e-17 -4.12244
14930 1 62.6439 36.3424 16.3195 3 5.76e-18 -4.12244
14931 1 42.8616 34.3233 47.7929 3 1.0507e-16 -4.12244
14932 1 45.3344 34.3233 47.7929 3 1.0507e-16 -4.12244
14933 1 44.5101 34.3233 45.4616 3 2.01948e-28 -4.12244
14934 1 46.9829 34.3233 45.4616 3 3.99999e-16 -4.12244
14935 1 46.1586 34.3233 43.1302 3 9.99999e-17 -4.12244
14936 1 48.6314 34.3233 43.1302 3 9.99999e-17 -4.12244
14937 1 47.8072 34.3233 40.7989 3 3.99999e-16 -4.12244
14938 1 50.2799 34.3233 40.7989 3 8.07794e-28 -4.12244
14939 1 49.4557 34.3233 38.4675 3 9.99999e-17 -4.12244
14940 1 51.9285 34.3233 38.4675 3 1e-16 -4.12244
14941 1 51.1042 34.3233 36.1361 3 9.99999e-17 -4.12244
14942 1 53.577 34.3233 36.1361 3 3.99999e-16 -4.12244
14943 1 52.7527 34.3233 33.8048 3 4.00001e-16 -4.12244
14944 1 55.2255 34.3233 33.8048 3 1e-16 -4.12244
14945 1 54.4012 34.3233 31.4734 3 1e-16 -4.12244
14946 1 56.874 34.3233 31.4734 3 5.04871e-29 -4.12244
14947 1 56.0498 34.3233 29.142 3 1.51461e-28 -4.12244
14948 1 58.5226 34.3233 29.142 3 9.99999e-17 -4.12244
14949 1 57.6983 34.3233 26.8107 3 1e-16 -4.12244
14950 1 60.1711 34.3233 26.8107 3 3.99999e-16 -4.12244
14951 1 59.3468 34.3233 24.4793 3 3.99999e-16 -4.12244
14952 1 61.8196 34.3233 24.4793 3 5.77599e-17 -4.12244
14953 1 60.9953 34.3233 22.1479 3 9.99999e-17 -4.12244
14954 1 63.4681 34.3233 22.1479 3 2.304e-17 -4.12244
14955 1 62.6439 34.3233 19.8166 3 5.76e-18 -4.12244
14956 1 46.1586 32.3043 46.6273 3 1.0169e-16 -4.12244
14957 1 48.6314 32.3043 46.6273 3 1.0169e-16 -4.12244
14958 1 47.8072 32.3043 44.2959 3 3.99999e-16 -4.12244
14959 1 50.2799 32.3043 44.2959 3 2.01948e-28 -4.12244
14960 1 49.4557 32.3043 41.9645 3 9.99999e-17 -4.12244
14961 1 51.9285 32.3043 41.9645 3 1e-16 -4.12244
14962 1 51.1042 32.3043 39.6332 3 9.99999e-17 -4.12244
14963 1 53.577 32.3043 39.6332 3 3.99999e-16 -4.12244
14964 1 52.7527 32.3043 37.3018 3 4.00001e-16 -4.12244
14965 1 55.2255 32.3043 37.3018 3 1e-16 -4.12244
14966 1 54.4012 32.3043 34.9704 3 1e-16 -4.12244
14967 1 56.874 32.3043 34.9704 3 2.01948e-28 -4.12244
14968 1 56.0498 32.3043 32.6391 3 2.01948e-28 -4.12244
14969 1 58.5226 32.3043 32.6391 3 9.99999e-17 -4.12244
14970 1 57.6983 32.3043 30.3077 3 1e-16 -4.12244
14971 1 60.1711 32.3043 30.3077 3 3.99999e-16 -4.12244
14972 1 59.3468 32.3043 27.9764 3 3.99999e-16 -4.12244
14973 1 61.8196 32.3043 27.9764 3 5.77599e-17 -4.12244
14974 1 60.9953 32.3043 25.645 3 9.99999e-17 -4.12244
14975 1 63.4681 32.3043 25.645 3 2.304e-17 -4.12244
14976 1 62.6439 32.3043 23.3136 3 5.76e-18 -4.12244
14977 1 47.8072 30.2853 47.7929 3 4.05069e-16 -4.12244
14978 1 50.2799 30.2853 47.7929 3 5.06996e-18 -4.12244
14979 1 49.4557 30.2853 45.4616 3 9.99999e-17 -4.12244
14980 1 51.9285 30.2853 45.4616 3 1e-16 -4.12244
14981 1 51.1042 30.2853 43.1302 3 9.99999e-17 -4.12244
14982 1 53.577 30.2853 43.1302 3 3.99999e-16 -4.12244
14983 1 52.7527 30.2853 40.7989 3 4.00001e-16 -4.12244
14984 1 55.2255 30.2853 40.7989 3 1e-16 -4.12244
14985 1 54.4012 30.2853 38.4675 3 1e-16 -4.12244
14986 1 56.874 30.2853 38.4675 3 1.00974e-28 -4.12244
14987 1 56.0498 30.2853 36.1361 3 7.06819e-28 -4.12244
14988 1 58.5226 30.2853 36.1361 3 9.99999e-17 -4.12244
14989 1 57.6983 30.2853 33.8048 3 1e-16 -4.12244
14990 1 60.1711 30.2853 33.8048 3 3.99999e-16 -4.12244
14991 1 59.3468 30.2853 31.4734 3 3.99999e-16 -4.12244
14992 1 61.8196 30.2853 31.4734 3 5.77599e-17 -4.12244
14993 1 60.9953 30.2853 29.142 3 9.99999e-17 -4.12244
14994 1 63.4681 30.2853 29.142 3 2.304e-17 -4.12244
14995 1 62.6439 30.2853 26.8107 3 5.76e-18 -4.12244
14996 1 51.1042 28.2663 46.6273 3 1.0169e-16 -4.12244
14997 1 53.577 28.2663 46.6273 3 4.0169e-16 -4.12244
14998 1 52.7527 28.2663 44.2959 3 4.00001e-16 -4.12244
14999 1 55.2255 28.2663 44.2959 3 1e-16 -4.12244
15000 1 54.4012 28.2663 41.9645 3 1e-16 -4.12244
15001 1 56.874 28.2663 41.9645 3 0 -4.12244
15002 1 56.0498 28.2663 39.6332 3 0 -4.12244
15003 1 58.5226 28.2663 39.6332 3 9.99999e-17 -4.12244
15004 1 57.6983 28.2663 37.3018 3 1e-16 -4.12244
15005 1 60.1711 28.2663 37.3018 3 3.99999e-16 -4.12244
15006 1 59.3468 28.2663 34.9704 3 3.99999e-16 -4.12244
15007 1 61.8196 28.2663 34.9704 3 5.77599e-17 -4.12244
15008 1 60.9953 28.2663 32.6391 3 9.99999e-17 -4.12244
15009 1 63.4681 28.2663 32.6391 3 2.304e-17 -4.12244
15010 1 62.6439 28.2663 30.3077 3 5.76e-18 -4.12244
15011 1 52.7527 26.2473 47.7929 3 4.05071e-16 -4.12244
15012 1 55.2255 26.2473 47.7929 3 1.0507e-16 -4.12244
15013 1 54.4012 26.2473 45.4616 3 1e-16 -4.12244
15014 1 56.874 26.2473 45.4616 3 1.00974e-28 -4.12244
15015 1 56.0498 26.2473 43.1302 3 7.06819e-28 -4.12244
15016 1 58.5226 26.2473 43.1302 3 9.99999e-17 -4.12244
15017 1 57.6983 26.2473 40.7989 3 1e-16 -4.12244
15018 1 60.1711 26.2473 40.7989 3 3.99999e-16 -4.12244
15019 1 59.3468 26.2473 38.4675 3 3.99999e-16 -4.12244
15020 1 61.8196 26.2473 38.4675 3 5.77599e-17 -4.12244
15021 1 60.9953 26.2473 36.1361 3 9.99999e-17 -4.12244
15022 1 63.4681 26.2473 36.1361 3 2.304e-17 -4.12244
15023 1 62.6439 26.2473 33.8048 3 5.76e-18 -4.12244
15024 1 56.0498 24.2282 46.6273 3 1.69002e-18 -4.12244
15025 1 58.5226 24.2282 46.6273 3 1.0169e-16 -4.12244
15026 1 57.6983 24.2282 44.2959 3 1e-16 -4.12244
15027 1 60.1711 24.2282 44.2959 3 3.99999e-16 -4.12244
15028 1 59.3468 24.2282 41.9645 3 3.99999e-16 -4.12244
15029 1 61.8196 24.2282 41.9645 3 5.77599e-17 -4.12244
15030 1 60.9953 24.2282 39.6332 3 9.99999e-17 -4.12244
15031 1 63.4681 24.2282 39.6332 3 2.304e-17 -4.12244
15032 1 62.6439 24.2282 37.3018 3 5.76e-18 -4.12244
15033 1 57.6983 22.2092 47.7929 3 1.0507e-16 -4.12244
15034 1 60.1711 22.2092 47.7929 3 4.05069e-16 -4.12244
15035 1 59.3468 22.2092 45.4616 3 3.99999e-16 -4.12244
15036 1 61.8196 22.2092 45.4616 3 5.77599e-17 -4.12244
15037 1 60.9953 22.2092 43.1302 3 9.99999e-17 -4.12244
15038 1 63.4681 22.2092 43.1302 3 2.304e-17 -4.12244
15039 1 62.6439 22.2092 40.7989 3 5.76e-18 -4.12244
15040 1 60.9953 20.1902 46.6273 3 1.0169e-16 -4.12244
15041 1 63.4681 20.1902 46.6273 3 2.473e-17 -4.12244
15042 1 62.6439 20.1902 44.2959 3 5.76e-18 -4.12244
15043 1 62.6439 18.1712 47.7929 3 1.083e-17 -4.12244
15044 1 13.1882 62.5896 47.7929 5 12.2293 -3.54465
15045 1 15.661 62.5896 47.7929 5 12.2293 -3.54465
15046 1 14.8367 62.5896 45.4616 5 12.2293 -3.54465
15047 1 17.3095 62.5896 45.4616 5 12.2293 -3.54465
15048 1 16.4852 62.5896 43.1302 5 12.2293 -3.54465
15049 1 18.958 62.5896 43.1302 5 12.2293 -3.54465
15050 1 18.1337 62.5896 40.7989 5 12.2293 -3.54465
15051 1 20.6065 62.5896 40.7989 5 12.2293 -3.54465
15052 1 19.7823 62.5896 38.4675 5 12.2293 -3.54465
15053 1 22.2551 62.5896 38.4675 5 12.2293 -3.54465
15054 1 21.4308 62.5896 36.1361 5 12.2293 -3.54465
15055 1 23.9036 62.5896 36.1361 5 12.2293 -3.54465
15056 1 23.0793 62.5896 33.8048 5 12.2293 -3.54465
15057 1 25.5521 62.5896 33.8048 5 12.2293 -3.54465
15058 1 24.7278 62.5896 31.4734 5 12.2293 -3.54465
15059 1 27.2006 62.5896 31.4734 5 12.2293 -3.54465
15060 1 26.3764 62.5896 29.142 5 12.2293 -3.54465
15061 1 28.8491 62.5896 29.142 5 12.2293 -3.54465
15062 1 28.0249 62.5896 26.8107 5 12.2293 -3.54465
15063 1 30.4977 62.5896 26.8107 5 12.2293 -3.54465
15064 1 29.6734 62.5896 24.4793 5 12.2293 -3.54465
15065 1 32.1462 62.5896 24.4793 5 12.2293 -3.54465
15066 1 31.3219 62.5896 22.1479 5 12.2293 -3.54465
15067 1 33.7947 62.5896 22.1479 5 12.2293 -3.54465
15068 1 32.9705 62.5896 19.8166 5 12.2293 -3.54465
15069 1 35.4432 62.5896 19.8166 5 12.2293 -3.54465
15070 1 34.619 62.5896 17.4852 5 12.2293 -3.54465
15071 1 37.0918 62.5896 17.4852 5 12.2293 -3.54465
15072 1 36.2675 62.5896 15.1539 5 12.2293 -3.54465
15073 1 38.7403 62.5896 15.1539 5 12.2293 -3.54465
15074 1 37.916 62.5896 12.8225 5 12.2293 -3.54465
15075 1 40.3888 62.5896 12.8225 5 12.2293 -3.54465
15076 1 39.5645 62.5896 10.4911 5 12.2293 -3.54465
15077 1 42.0373 62.5896 10.4911 5 12.2293 -3.54465
15078 1 41.2131 62.5896 8.15977 5 12.2293 -3.54465
15079 1 43.6859 62.5896 8.15977 5 12.2293 -3.54465
15080 1 42.8616 62.5896 5.82841 5 12.2293 -3.54465
15081 1 45.3344 62.5896 5.82841 5 12.2293 -3.54465
15082 1 44.5101 62.5896 3.49704 5 12.2293 -3.54465
15083 1 46.9829 62.5896 3.49704 5 12.2293 -3.54465
15084 1 46.1586 62.5896 1.16568 5 12.2293 -3.54465
15085 1 48.6314 62.5896 1.16568 5 12.2293 -3.54465
15086 1 16.4852 60.5706 46.6273 3 4.0169e-16 -4.10627
15087 1 18.958 60.5706 46.6273 3 1.69002e-18 -4.10627
15088 1 18.1337 60.5706 44.2959 3 1e-16 -4.10627
15089 1 20.6065 60.5706 44.2959 3 1e-16 -4.10627
15090 1 19.7823 60.5706 41.9645 3 1e-16 -4.10627
15091 1 22.2551 60.5706 41.9645 3 4e-16 -4.10627
15092 1 21.4308 60.5706 39.6332 3 4e-16 -4.10627
15093 1 23.9036 60.5706 39.6332 3 1e-16 -4.10627
15094 1 23.0793 60.5706 37.3018 3 1e-16 -4.10627
15095 1 25.5521 60.5706 37.3018 3 5.55358e-28 -4.10627
15096 1 24.7278 60.5706 34.9704 3 6.05845e-28 -4.10627
15097 1 27.2006 60.5706 34.9704 3 1e-16 -4.10627
15098 1 26.3764 60.5706 32.6391 3 1e-16 -4.10627
15099 1 28.8491 60.5706 32.6391 3 4e-16 -4.10627
15100 1 28.0249 60.5706 30.3077 3 3.99999e-16 -4.10627
15101 1 30.4977 60.5706 30.3077 3 9.99999e-17 -4.10627
15102 1 29.6734 60.5706 27.9764 3 1e-16 -4.10627
15103 1 32.1462 60.5706 27.9764 3 9.99999e-17 -4.10627
15104 1 31.3219 60.5706 25.645 3 5.55358e-28 -4.10627
15105 1 33.7947 60.5706 25.645 3 4.00001e-16 -4.10627
15106 1 32.9705 60.5706 23.3136 3 9.99999e-17 -4.10627
15107 1 35.4432 60.5706 23.3136 3 1e-16 -4.10627
15108 1 34.619 60.5706 20.9823 3 4e-16 -4.10627
15109 1 37.0918 60.5706 20.9823 3 4.03897e-28 -4.10627
15110 1 36.2675 60.5706 18.6509 3 1e-16 -4.10627
15111 1 38.7403 60.5706 18.6509 3 1e-16 -4.10627
15112 1 37.916 60.5706 16.3195 3 1.31266e-27 -4.10627
15113 1 40.3888 60.5706 16.3195 3 3.99999e-16 -4.10627
15114 1 39.5645 60.5706 13.9882 3 1e-16 -4.10627
15115 1 42.0373 60.5706 13.9882 3 1e-16 -4.10627
15116 1 41.2131 60.5706 11.6568 3 4.00001e-16 -4.10627
15117 1 43.6859 60.5706 11.6568 3 6.05845e-28 -4.10627
15118 1 42.8616 60.5706 9.32545 3 9.99999e-17 -4.10627
15119 1 45.3344 60.5706 9.32545 3 9.99999e-17 -4.10627
15120 1 44.5101 60.5706 6.99409 3 6.05845e-28 -4.10627
15121 1 46.9829 60.5706 6.99409 3 3.99999e-16 -4.10627
15122 1 46.1586 60.5706 4.66273 3 9.99999e-17 -4.10627
15123 1 48.6314 60.5706 4.66273 3 9.99999e-17 -4.10627
15124 1 47.8072 60.5706 2.33136 3 3.99999e-16 -4.10627
15125 1 50.2799 60.5706 2.33136 3 6.05845e-28 -4.10627
15126 1 49.4557 60.5706 0 3 1.0507e-16 -4.10627
15127 1 51.9285 60.5706 0 3 1.0507e-16 -4.10627
15128 1 18.1337 58.5516 47.7929 3 1.0507e-16 -4.12244
15129 1 20.6065 58.5516 47.7929 3 1.0507e-16 -4.12244
15130 1 19.7823 58.5516 45.4616 3 1e-16 -4.12244
15131 1 22.2551 58.5516 45.4616 3 4e-16 -4.12244
15132 1 21.4308 58.5516 43.1302 3 4e-16 -4.12244
15133 1 23.9036 58.5516 43.1302 3 1e-16 -4.12244
15134 1 23.0793 58.5516 40.7989 3 1e-16 -4.12244
15135 1 25.5521 58.5516 40.7989 3 7.57306e-28 -4.12244
15136 1 24.7278 58.5516 38.4675 3 0 -4.12244
15137 1 27.2006 58.5516 38.4675 3 1e-16 -4.12244
15138 1 26.3764 58.5516 36.1361 3 1e-16 -4.12244
15139 1 28.8491 58.5516 36.1361 3 4e-16 -4.12244
15140 1 28.0249 58.5516 33.8048 3 3.99999e-16 -4.12244
15141 1 30.4977 58.5516 33.8048 3 9.99999e-17 -4.12244
15142 1 29.6734 58.5516 31.4734 3 1e-16 -4.12244
15143 1 32.1462 58.5516 31.4734 3 9.99999e-17 -4.12244
15144 1 31.3219 58.5516 29.142 3 1.51461e-28 -4.12244
15145 1 33.7947 58.5516 29.142 3 4.00001e-16 -4.12244
15146 1 32.9705 58.5516 26.8107 3 9.99999e-17 -4.12244
15147 1 35.4432 58.5516 26.8107 3 1e-16 -4.12244
15148 1 34.619 58.5516 24.4793 3 4e-16 -4.12244
15149 1 37.0918 58.5516 24.4793 3 1.00974e-28 -4.12244
15150 1 36.2675 58.5516 22.1479 3 1e-16 -4.12244
15151 1 38.7403 58.5516 22.1479 3 1e-16 -4.12244
15152 1 37.916 58.5516 19.8166 3 8.07794e-28 -4.12244
15153 1 40.3888 58.5516 19.8166 3 3.99999e-16 -4.12244
15154 1 39.5645 58.5516 17.4852 3 1e-16 -4.12244
15155 1 42.0373 58.5516 17.4852 3 1e-16 -4.12244
15156 1 41.2131 58.5516 15.1539 3 4.00001e-16 -4.12244
15157 1 43.6859 58.5516 15.1539 3 2.01948e-28 -4.12244
15158 1 42.8616 58.5516 12.8225 3 9.99999e-17 -4.12244
15159 1 45.3344 58.5516 12.8225 3 9.99999e-17 -4.12244
15160 1 44.5101 58.5516 10.4911 3 2.01948e-28 -4.12244
15161 1 46.9829 58.5516 10.4911 3 3.99999e-16 -4.12244
15162 1 46.1586 58.5516 8.15977 3 9.99999e-17 -4.12244
15163 1 48.6314 58.5516 8.15977 3 9.99999e-17 -4.12244
15164 1 47.8072 58.5516 5.82841 3 3.99999e-16 -4.12244
15165 1 50.2799 58.5516 5.82841 3 2.05104e-28 -4.12244
15166 1 49.4557 58.5516 3.49704 3 9.99999e-17 -4.12244
15167 1 51.9285 58.5516 3.49704 3 1e-16 -4.12244
15168 1 51.1042 58.5516 1.16568 3 1.0169e-16 -4.12244
15169 1 53.577 58.5516 1.16568 3 4.01689e-16 -4.12244
15170 1 21.4308 56.5326 46.6273 3 4.01691e-16 -4.12244
15171 1 23.9036 56.5326 46.6273 3 1.0169e-16 -4.12244
15172 1 23.0793 56.5326 44.2959 3 1e-16 -4.12244
15173 1 25.5521 56.5326 44.2959 3 1.51461e-28 -4.12244
15174 1 24.7278 56.5326 41.9645 3 0 -4.12244
15175 1 27.2006 56.5326 41.9645 3 1e-16 -4.12244
15176 1 26.3764 56.5326 39.6332 3 1e-16 -4.12244
15177 1 28.8491 56.5326 39.6332 3 4e-16 -4.12244
15178 1 28.0249 56.5326 37.3018 3 3.99999e-16 -4.12244
15179 1 30.4977 56.5326 37.3018 3 9.99999e-17 -4.12244
15180 1 29.6734 56.5326 34.9704 3 1e-16 -4.12244
15181 1 32.1462 56.5326 34.9704 3 9.99999e-17 -4.12244
15182 1 31.3219 56.5326 32.6391 3 2.01948e-28 -4.12244
15183 1 33.7947 56.5326 32.6391 3 4.00001e-16 -4.12244
15184 1 32.9705 56.5326 30.3077 3 9.99999e-17 -4.12244
15185 1 35.4432 56.5326 30.3077 3 1e-16 -4.12244
15186 1 34.619 56.5326 27.9764 3 4e-16 -4.12244
15187 1 37.0918 56.5326 27.9764 3 1.51461e-28 -4.12244
15188 1 36.2675 56.5326 25.645 3 1e-16 -4.12244
15189 1 38.7403 56.5326 25.645 3 1e-16 -4.12244
15190 1 37.916 56.5326 23.3136 3 8.07794e-28 -4.12244
15191 1 40.3888 56.5326 23.3136 3 3.99999e-16 -4.12244
15192 1 39.5645 56.5326 20.9823 3 1e-16 -4.12244
15193 1 42.0373 56.5326 20.9823 3 1e-16 -4.12244
15194 1 41.2131 56.5326 18.6509 3 4.00001e-16 -4.12244
15195 1 43.6859 56.5326 18.6509 3 2.01948e-28 -4.12244
15196 1 42.8616 56.5326 16.3195 3 9.99999e-17 -4.12244
15197 1 45.3344 56.5326 16.3195 3 9.99999e-17 -4.12244
15198 1 44.5101 56.5326 13.9882 3 2.27192e-28 -4.12244
15199 1 46.9829 56.5326 13.9882 3 3.99999e-16 -4.12244
15200 1 46.1586 56.5326 11.6568 3 9.99999e-17 -4.12244
15201 1 48.6314 56.5326 11.6568 3 9.99999e-17 -4.12244
15202 1 47.8072 56.5326 9.32545 3 3.99999e-16 -4.12244
15203 1 50.2799 56.5326 9.32545 3 2.01948e-28 -4.12244
15204 1 49.4557 56.5326 6.99409 3 9.99999e-17 -4.12244
15205 1 51.9285 56.5326 6.99409 3 1e-16 -4.12244
15206 1 51.1042 56.5326 4.66273 3 9.99999e-17 -4.12244
15207 1 53.577 56.5326 4.66273 3 3.99999e-16 -4.12244
15208 1 52.7527 56.5326 2.33136 3 4.00001e-16 -4.12244
15209 1 55.2255 56.5326 2.33136 3 1e-16 -4.12244
15210 1 54.4012 56.5326 0 3 1.0507e-16 -4.12244
15211 1 56.874 56.5326 0 3 5.07001e-18 -4.12244
15212 1 23.0793 54.5135 47.7929 3 1.0507e-16 -4.12244
15213 1 25.5521 54.5135 47.7929 3 5.06996e-18 -4.12244
15214 1 24.7278 54.5135 45.4616 3 0 -4.12244
15215 1 27.2006 54.5135 45.4616 3 1e-16 -4.12244
15216 1 26.3764 54.5135 43.1302 3 1e-16 -4.12244
15217 1 28.8491 54.5135 43.1302 3 4e-16 -4.12244
15218 1 28.0249 54.5135 40.7989 3 3.99999e-16 -4.12244
15219 1 30.4977 54.5135 40.7989 3 9.99999e-17 -4.12244
15220 1 29.6734 54.5135 38.4675 3 1e-16 -4.12244
15221 1 32.1462 54.5135 38.4675 3 9.99999e-17 -4.12244
15222 1 31.3219 54.5135 36.1361 3 6.05845e-28 -4.12244
15223 1 33.7947 54.5135 36.1361 3 4.00001e-16 -4.12244
15224 1 32.9705 54.5135 33.8048 3 9.99999e-17 -4.12244
15225 1 35.4432 54.5135 33.8048 3 1e-16 -4.12244
15226 1 34.619 54.5135 31.4734 3 4e-16 -4.12244
15227 1 37.0918 54.5135 31.4734 3 5.04871e-29 -4.12244
15228 1 36.2675 54.5135 29.142 3 1e-16 -4.12244
15229 1 38.7403 54.5135 29.142 3 1e-16 -4.12244
15230 1 37.916 54.5135 26.8107 3 8.07794e-28 -4.12244
15231 1 40.3888 54.5135 26.8107 3 3.99999e-16 -4.12244
15232 1 39.5645 54.5135 24.4793 3 1e-16 -4.12244
15233 1 42.0373 54.5135 24.4793 3 1e-16 -4.12244
15234 1 41.2131 54.5135 22.1479 3 4.00001e-16 -4.12244
15235 1 43.6859 54.5135 22.1479 3 2.01948e-28 -4.12244
15236 1 42.8616 54.5135 19.8166 3 9.99999e-17 -4.12244
15237 1 45.3344 54.5135 19.8166 3 9.99999e-17 -4.12244
15238 1 44.5101 54.5135 17.4852 3 3.02923e-28 -4.12244
15239 1 46.9829 54.5135 17.4852 3 3.99999e-16 -4.12244
15240 1 46.1586 54.5135 15.1539 3 9.99999e-17 -4.12244
15241 1 48.6314 54.5135 15.1539 3 9.99999e-17 -4.12244
15242 1 47.8072 54.5135 12.8225 3 3.99999e-16 -4.12244
15243 1 50.2799 54.5135 12.8225 3 2.39814e-28 -4.12244
15244 1 49.4557 54.5135 10.4911 3 9.99999e-17 -4.12244
15245 1 51.9285 54.5135 10.4911 3 1e-16 -4.12244
15246 1 51.1042 54.5135 8.15977 3 9.99999e-17 -4.12244
15247 1 53.577 54.5135 8.15977 3 3.99999e-16 -4.12244
15248 1 52.7527 54.5135 5.82841 3 4.00001e-16 -4.12244
15249 1 55.2255 54.5135 5.82841 3 1e-16 -4.12244
15250 1 54.4012 54.5135 3.49704 3 1e-16 -4.12244
15251 1 56.874 54.5135 3.49704 3 7.88861e-31 -4.12244
15252 1 56.0498 54.5135 1.16568 3 1.69e-18 -4.12244
15253 1 58.5226 54.5135 1.16568 3 1.0169e-16 -4.12244
15254 1 26.3764 52.4945 46.6273 3 1.0169e-16 -4.12244
15255 1 28.8491 52.4945 46.6273 3 4.0169e-16 -4.12244
15256 1 28.0249 52.4945 44.2959 3 3.99999e-16 -4.12244
15257 1 30.4977 52.4945 44.2959 3 9.99999e-17 -4.12244
15258 1 29.6734 52.4945 41.9645 3 1e-16 -4.12244
15259 1 32.1462 52.4945 41.9645 3 9.99999e-17 -4.12244
15260 1 31.3219 52.4945 39.6332 3 0 -4.12244
15261 1 33.7947 52.4945 39.6332 3 4.00001e-16 -4.12244
15262 1 32.9705 52.4945 37.3018 3 9.99999e-17 -4.12244
15263 1 35.4432 52.4945 37.3018 3 1e-16 -4.12244
15264 1 34.619 52.4945 34.9704 3 4e-16 -4.12244
15265 1 37.0918 52.4945 34.9704 3 2.01948e-28 -4.12244
15266 1 36.2675 52.4945 32.6391 3 1e-16 -4.12244
15267 1 38.7403 52.4945 32.6391 3 1e-16 -4.12244
15268 1 37.916 52.4945 30.3077 3 8.07794e-28 -4.12244
15269 1 40.3888 52.4945 30.3077 3 3.99999e-16 -4.12244
15270 1 39.5645 52.4945 27.9764 3 1e-16 -4.12244
15271 1 42.0373 52.4945 27.9764 3 1e-16 -4.12244
15272 1 41.2131 52.4945 25.645 3 4.00001e-16 -4.12244
15273 1 43.6859 52.4945 25.645 3 3.5341e-28 -4.12244
15274 1 42.8616 52.4945 23.3136 3 9.99999e-17 -4.12244
15275 1 45.3344 52.4945 23.3136 3 9.99999e-17 -4.12244
15276 1 44.5101 52.4945 20.9823 3 2.01948e-28 -4.12244
15277 1 46.9829 52.4945 20.9823 3 3.99999e-16 -4.12244
15278 1 46.1586 52.4945 18.6509 3 9.99999e-17 -4.12244
15279 1 48.6314 52.4945 18.6509 3 9.99999e-17 -4.12244
15280 1 47.8072 52.4945 16.3195 3 3.99999e-16 -4.12244
15281 1 50.2799 52.4945 16.3195 3 3.02923e-28 -4.12244
15282 1 49.4557 52.4945 13.9882 3 9.99999e-17 -4.12244
15283 1 51.9285 52.4945 13.9882 3 1e-16 -4.12244
15284 1 51.1042 52.4945 11.6568 3 9.99999e-17 -4.12244
15285 1 53.577 52.4945 11.6568 3 3.99999e-16 -4.12244
15286 1 52.7527 52.4945 9.32545 3 4.00001e-16 -4.12244
15287 1 55.2255 52.4945 9.32545 3 1e-16 -4.12244
15288 1 54.4012 52.4945 6.99409 3 1e-16 -4.12244
15289 1 56.874 52.4945 6.99409 3 0 -4.12244
15290 1 56.0498 52.4945 4.66273 3 0 -4.12244
15291 1 58.5226 52.4945 4.66273 3 9.99999e-17 -4.12244
15292 1 57.6983 52.4945 2.33136 3 1e-16 -4.12244
15293 1 60.1711 52.4945 2.33136 3 3.99999e-16 -4.12244
15294 1 59.3468 52.4945 0 3 4.0507e-16 -4.12244
15295 1 61.8196 52.4945 0 3 6.28299e-17 -4.12244
15296 1 28.0249 50.4755 47.7929 3 4.05069e-16 -4.12244
15297 1 30.4977 50.4755 47.7929 3 1.0507e-16 -4.12244
15298 1 29.6734 50.4755 45.4616 3 1e-16 -4.12244
15299 1 32.1462 50.4755 45.4616 3 9.99999e-17 -4.12244
15300 1 31.3219 50.4755 43.1302 3 6.05845e-28 -4.12244
15301 1 33.7947 50.4755 43.1302 3 4.00001e-16 -4.12244
15302 1 32.9705 50.4755 40.7989 3 9.99999e-17 -4.12244
15303 1 35.4432 50.4755 40.7989 3 1e-16 -4.12244
15304 1 34.619 50.4755 38.4675 3 4e-16 -4.12244
15305 1 37.0918 50.4755 38.4675 3 0 -4.12244
15306 1 36.2675 50.4755 36.1361 3 1e-16 -4.12244
15307 1 38.7403 50.4755 36.1361 3 1e-16 -4.12244
15308 1 37.916 50.4755 33.8048 3 8.07794e-28 -4.12244
15309 1 40.3888 50.4755 33.8048 3 3.99999e-16 -4.12244
15310 1 39.5645 50.4755 31.4734 3 1e-16 -4.12244
15311 1 42.0373 50.4755 31.4734 3 1e-16 -4.12244
15312 1 41.2131 50.4755 29.142 3 4.00001e-16 -4.12244
15313 1 43.6859 50.4755 29.142 3 3.5341e-28 -4.12244
15314 1 42.8616 50.4755 26.8107 3 9.99999e-17 -4.12244
15315 1 45.3344 50.4755 26.8107 3 9.99999e-17 -4.12244
15316 1 44.5101 50.4755 24.4793 3 3.02923e-28 -4.12244
15317 1 46.9829 50.4755 24.4793 3 3.99999e-16 -4.12244
15318 1 46.1586 50.4755 22.1479 3 9.99999e-17 -4.12244
15319 1 48.6314 50.4755 22.1479 3 9.99999e-17 -4.12244
15320 1 47.8072 50.4755 19.8166 3 3.99999e-16 -4.12244
15321 1 50.2799 50.4755 19.8166 3 2.01948e-28 -4.12244
15322 1 49.4557 50.4755 17.4852 3 9.99999e-17 -4.12244
15323 1 51.9285 50.4755 17.4852 3 1e-16 -4.12244
15324 1 51.1042 50.4755 15.1539 3 9.99999e-17 -4.12244
15325 1 53.577 50.4755 15.1539 3 3.99999e-16 -4.12244
15326 1 52.7527 50.4755 12.8225 3 4.00001e-16 -4.12244
15327 1 55.2255 50.4755 12.8225 3 1e-16 -4.12244
15328 1 54.4012 50.4755 10.4911 3 1e-16 -4.12244
15329 1 56.874 50.4755 10.4911 3 0 -4.12244
15330 1 56.0498 50.4755 8.15977 3 1.26218e-29 -4.12244
15331 1 58.5226 50.4755 8.15977 3 9.99999e-17 -4.12244
15332 1 57.6983 50.4755 5.82841 3 1e-16 -4.12244
15333 1 60.1711 50.4755 5.82841 3 3.99999e-16 -4.12244
15334 1 59.3468 50.4755 3.49704 3 3.99999e-16 -4.12244
15335 1 61.8196 50.4755 3.49704 3 5.77599e-17 -4.12244
15336 1 60.9953 50.4755 1.16568 3 1.0169e-16 -4.12244
15337 1 63.4681 50.4755 1.16568 3 2.473e-17 -4.12244
15338 1 31.3219 48.4565 46.6273 3 1.69002e-18 -4.12244
15339 1 33.7947 48.4565 46.6273 3 4.01691e-16 -4.12244
15340 1 32.9705 48.4565 44.2959 3 9.99999e-17 -4.12244
15341 1 35.4432 48.4565 44.2959 3 1e-16 -4.12244
15342 1 34.619 48.4565 41.9645 3 4e-16 -4.12244
15343 1 37.0918 48.4565 41.9645 3 0 -4.12244
15344 1 36.2675 48.4565 39.6332 3 1e-16 -4.12244
15345 1 38.7403 48.4565 39.6332 3 1e-16 -4.12244
15346 1 37.916 48.4565 37.3018 3 8.07794e-28 -4.12244
15347 1 40.3888 48.4565 37.3018 3 3.99999e-16 -4.12244
15348 1 39.5645 48.4565 34.9704 3 1e-16 -4.12244
15349 1 42.0373 48.4565 34.9704 3 1e-16 -4.12244
15350 1 41.2131 48.4565 32.6391 3 4.00001e-16 -4.12244
15351 1 43.6859 48.4565 32.6391 3 4.03897e-28 -4.12244
15352 1 42.8616 48.4565 30.3077 3 9.99999e-17 -4.12244
15353 1 45.3344 48.4565 30.3077 3 9.99999e-17 -4.12244
15354 1 44.5101 48.4565 27.9764 3 3.5341e-28 -4.12244
15355 1 46.9829 48.4565 27.9764 3 3.99999e-16 -4.12244
15356 1 46.1586 48.4565 25.645 3 9.99999e-17 -4.12244
15357 1 48.6314 48.4565 25.645 3 9.99999e-17 -4.12244
15358 1 47.8072 48.4565 23.3136 3 3.99999e-16 -4.12244
15359 1 50.2799 48.4565 23.3136 3 2.01948e-28 -4.12244
15360 1 49.4557 48.4565 20.9823 3 9.99999e-17 -4.12244
15361 1 51.9285 48.4565 20.9823 3 1e-16 -4.12244
15362 1 51.1042 48.4565 18.6509 3 9.99999e-17 -4.12244
15363 1 53.577 48.4565 18.6509 3 3.99999e-16 -4.12244
15364 1 52.7527 48.4565 16.3195 3 4.00001e-16 -4.12244
15365 1 55.2255 48.4565 16.3195 3 1e-16 -4.12244
15366 1 54.4012 48.4565 13.9882 3 1e-16 -4.12244
15367 1 56.874 48.4565 13.9882 3 2.52435e-29 -4.12244
15368 1 56.0498 48.4565 11.6568 3 0 -4.12244
15369 1 58.5226 48.4565 11.6568 3 9.99999e-17 -4.12244
15370 1 57.6983 48.4565 9.32545 3 1e-16 -4.12244
15371 1 60.1711 48.4565 9.32545 3 3.99999e-16 -4.12244
15372 1 59.3468 48.4565 6.99409 3 3.99999e-16 -4.12244
15373 1 61.8196 48.4565 6.99409 3 5.77599e-17 -4.12244
15374 1 60.9953 48.4565 4.66273 3 9.99999e-17 -4.12244
15375 1 63.4681 48.4565 4.66273 3 2.304e-17 -4.12244
15376 1 62.6439 48.4565 2.33136 3 5.76e-18 -4.12244
15377 1 32.9705 46.4375 47.7929 3 1.0507e-16 -4.12244
15378 1 35.4432 46.4375 47.7929 3 1.0507e-16 -4.12244
15379 1 34.619 46.4375 45.4616 3 4e-16 -4.12244
15380 1 37.0918 46.4375 45.4616 3 0 -4.12244
15381 1 36.2675 46.4375 43.1302 3 1e-16 -4.12244
15382 1 38.7403 46.4375 43.1302 3 1e-16 -4.12244
15383 1 37.916 46.4375 40.7989 3 1.41364e-27 -4.12244
15384 1 40.3888 46.4375 40.7989 3 3.99999e-16 -4.12244
15385 1 39.5645 46.4375 38.4675 3 1e-16 -4.12244
15386 1 42.0373 46.4375 38.4675 3 1e-16 -4.12244
15387 1 41.2131 46.4375 36.1361 3 4.00001e-16 -4.12244
15388 1 43.6859 46.4375 36.1361 3 8.07794e-28 -4.12244
15389 1 42.8616 46.4375 33.8048 3 9.99999e-17 -4.12244
15390 1 45.3344 46.4375 33.8048 3 9.99999e-17 -4.12244
15391 1 44.5101 46.4375 31.4734 3 2.52435e-28 -4.12244
15392 1 46.9829 46.4375 31.4734 3 3.99999e-16 -4.12244
15393 1 46.1586 46.4375 29.142 3 9.99999e-17 -4.12244
15394 1 48.6314 46.4375 29.142 3 9.99999e-17 -4.12244
15395 1 47.8072 46.4375 26.8107 3 3.99999e-16 -4.12244
15396 1 50.2799 46.4375 26.8107 3 2.01948e-28 -4.12244
15397 1 49.4557 46.4375 24.4793 3 9.99999e-17 -4.12244
15398 1 51.9285 46.4375 24.4793 3 1e-16 -4.12244
15399 1 51.1042 46.4375 22.1479 3 9.99999e-17 -4.12244
15400 1 53.577 46.4375 22.1479 3 3.99999e-16 -4.12244
15401 1 52.7527 46.4375 19.8166 3 4.00001e-16 -4.12244
15402 1 55.2255 46.4375 19.8166 3 1e-16 -4.12244
15403 1 54.4012 46.4375 17.4852 3 1e-16 -4.12244
15404 1 56.874 46.4375 17.4852 3 1.00974e-28 -4.12244
15405 1 56.0498 46.4375 15.1539 3 0 -4.12244
15406 1 58.5226 46.4375 15.1539 3 9.99999e-17 -4.12244
15407 1 57.6983 46.4375 12.8225 3 1e-16 -4.12244
15408 1 60.1711 46.4375 12.8225 3 3.99999e-16 -4.12244
15409 1 59.3468 46.4375 10.4911 3 3.99999e-16 -4.12244
15410 1 61.8196 46.4375 10.4911 3 5.77599e-17 -4.12244
15411 1 60.9953 46.4375 8.15977 3 9.99999e-17 -4.12244
15412 1 63.4681 46.4375 8.15977 3 2.304e-17 -4.12244
15413 1 62.6439 46.4375 5.82841 3 5.76e-18 -4.12244
15414 1 36.2675 44.4184 46.6273 3 1.0169e-16 -4.12244
15415 1 38.7403 44.4184 46.6273 3 1.0169e-16 -4.12244
15416 1 37.916 44.4184 44.2959 3 8.07794e-28 -4.12244
15417 1 40.3888 44.4184 44.2959 3 3.99999e-16 -4.12244
15418 1 39.5645 44.4184 41.9645 3 1e-16 -4.12244
15419 1 42.0373 44.4184 41.9645 3 1e-16 -4.12244
15420 1 41.2131 44.4184 39.6332 3 4.00001e-16 -4.12244
15421 1 43.6859 44.4184 39.6332 3 2.01948e-28 -4.12244
15422 1 42.8616 44.4184 37.3018 3 9.99999e-17 -4.12244
15423 1 45.3344 44.4184 37.3018 3 9.99999e-17 -4.12244
15424 1 44.5101 44.4184 34.9704 3 4.03897e-28 -4.12244
15425 1 46.9829 44.4184 34.9704 3 3.99999e-16 -4.12244
15426 1 46.1586 44.4184 32.6391 3 9.99999e-17 -4.12244
15427 1 48.6314 44.4184 32.6391 3 9.99999e-17 -4.12244
15428 1 47.8072 44.4184 30.3077 3 3.99999e-16 -4.12244
15429 1 50.2799 44.4184 30.3077 3 2.01948e-28 -4.12244
15430 1 49.4557 44.4184 27.9764 3 9.99999e-17 -4.12244
15431 1 51.9285 44.4184 27.9764 3 1e-16 -4.12244
15432 1 51.1042 44.4184 25.645 3 9.99999e-17 -4.12244
15433 1 53.577 44.4184 25.645 3 3.99999e-16 -4.12244
15434 1 52.7527 44.4184 23.3136 3 4.00001e-16 -4.12244
15435 1 55.2255 44.4184 23.3136 3 1e-16 -4.12244
15436 1 54.4012 44.4184 20.9823 3 1e-16 -4.12244
15437 1 56.874 44.4184 20.9823 3 0 -4.12244
15438 1 56.0498 44.4184 18.6509 3 0 -4.12244
15439 1 58.5226 44.4184 18.6509 3 9.99999e-17 -4.12244
15440 1 57.6983 44.4184 16.3195 3 1e-16 -4.12244
15441 1 60.1711 44.4184 16.3195 3 3.99999e-16 -4.12244
15442 1 59.3468 44.4184 13.9882 3 3.99999e-16 -4.12244
15443 1 61.8196 44.4184 13.9882 3 5.77599e-17 -4.12244
15444 1 60.9953 44.4184 11.6568 3 9.99999e-17 -4.12244
15445 1 63.4681 44.4184 11.6568 3 2.304e-17 -4.12244
15446 1 62.6439 44.4184 9.32545 3 5.76e-18 -4.12244
15447 1 37.916 42.3994 47.7929 3 5.06996e-18 -4.12244
15448 1 40.3888 42.3994 47.7929 3 4.05069e-16 -4.12244
15449 1 39.5645 42.3994 45.4616 3 1e-16 -4.12244
15450 1 42.0373 42.3994 45.4616 3 1e-16 -4.12244
15451 1 41.2131 42.3994 43.1302 3 4.00001e-16 -4.12244
15452 1 43.6859 42.3994 43.1302 3 8.07794e-28 -4.12244
15453 1 42.8616 42.3994 40.7989 3 9.99999e-17 -4.12244
15454 1 45.3344 42.3994 40.7989 3 9.99999e-17 -4.12244
15455 1 44.5101 42.3994 38.4675 3 2.01948e-28 -4.12244
15456 1 46.9829 42.3994 38.4675 3 3.99999e-16 -4.12244
15457 1 46.1586 42.3994 36.1361 3 9.99999e-17 -4.12244
15458 1 48.6314 42.3994 36.1361 3 9.99999e-17 -4.12244
15459 1 47.8072 42.3994 33.8048 3 3.99999e-16 -4.12244
15460 1 50.2799 42.3994 33.8048 3 2.01948e-28 -4.12244
15461 1 49.4557 42.3994 31.4734 3 9.99999e-17 -4.12244
15462 1 51.9285 42.3994 31.4734 3 1e-16 -4.12244
15463 1 51.1042 42.3994 29.142 3 9.99999e-17 -4.12244
15464 1 53.577 42.3994 29.142 3 3.99999e-16 -4.12244
15465 1 52.7527 42.3994 26.8107 3 4.00001e-16 -4.12244
15466 1 55.2255 42.3994 26.8107 3 1e-16 -4.12244
15467 1 54.4012 42.3994 24.4793 3 1e-16 -4.12244
15468 1 56.874 42.3994 24.4793 3 1.00974e-28 -4.12244
15469 1 56.0498 42.3994 22.1479 3 0 -4.12244
15470 1 58.5226 42.3994 22.1479 3 9.99999e-17 -4.12244
15471 1 57.6983 42.3994 19.8166 3 1e-16 -4.12244
15472 1 60.1711 42.3994 19.8166 3 3.99999e-16 -4.12244
15473 1 59.3468 42.3994 17.4852 3 3.99999e-16 -4.12244
15474 1 61.8196 42.3994 17.4852 3 5.77599e-17 -4.12244
15475 1 60.9953 42.3994 15.1539 3 9.99999e-17 -4.12244
15476 1 63.4681 42.3994 15.1539 3 2.304e-17 -4.12244
15477 1 62.6439 42.3994 12.8225 3 5.76e-18 -4.12244
15478 1 41.2131 40.3804 46.6273 3 4.01691e-16 -4.12244
15479 1 43.6859 40.3804 46.6273 3 1.69002e-18 -4.12244
15480 1 42.8616 40.3804 44.2959 3 9.99999e-17 -4.12244
15481 1 45.3344 40.3804 44.2959 3 9.99999e-17 -4.12244
15482 1 44.5101 40.3804 41.9645 3 2.01948e-28 -4.12244
15483 1 46.9829 40.3804 41.9645 3 3.99999e-16 -4.12244
15484 1 46.1586 40.3804 39.6332 3 9.99999e-17 -4.12244
15485 1 48.6314 40.3804 39.6332 3 9.99999e-17 -4.12244
15486 1 47.8072 40.3804 37.3018 3 3.99999e-16 -4.12244
15487 1 50.2799 40.3804 37.3018 3 2.01948e-28 -4.12244
15488 1 49.4557 40.3804 34.9704 3 9.99999e-17 -4.12244
15489 1 51.9285 40.3804 34.9704 3 1e-16 -4.12244
15490 1 51.1042 40.3804 32.6391 3 9.99999e-17 -4.12244
15491 1 53.577 40.3804 32.6391 3 3.99999e-16 -4.12244
15492 1 52.7527 40.3804 30.3077 3 4.00001e-16 -4.12244
15493 1 55.2255 40.3804 30.3077 3 1e-16 -4.12244
15494 1 54.4012 40.3804 27.9764 3 1e-16 -4.12244
15495 1 56.874 40.3804 27.9764 3 1.51461e-28 -4.12244
15496 1 56.0498 40.3804 25.645 3 1.51461e-28 -4.12244
15497 1 58.5226 40.3804 25.645 3 9.99999e-17 -4.12244
15498 1 57.6983 40.3804 23.3136 3 1e-16 -4.12244
15499 1 60.1711 40.3804 23.3136 3 3.99999e-16 -4.12244
15500 1 59.3468 40.3804 20.9823 3 3.99999e-16 -4.12244
15501 1 61.8196 40.3804 20.9823 3 5.77599e-17 -4.12244
15502 1 60.9953 40.3804 18.6509 3 9.99999e-17 -4.12244
15503 1 63.4681 40.3804 18.6509 3 2.304e-17 -4.12244
15504 1 62.6439 40.3804 16.3195 3 5.76e-18 -4.12244
15505 1 42.8616 38.3614 47.7929 3 1.0507e-16 -4.12244
15506 1 45.3344 38.3614 47.7929 3 1.0507e-16 -4.12244
15507 1 44.5101 38.3614 45.4616 3 2.01948e-28 -4.12244
15508 1 46.9829 38.3614 45.4616 3 3.99999e-16 -4.12244
15509 1 46.1586 38.3614 43.1302 3 9.99999e-17 -4.12244
15510 1 48.6314 38.3614 43.1302 3 9.99999e-17 -4.12244
15511 1 47.8072 38.3614 40.7989 3 3.99999e-16 -4.12244
15512 1 50.2799 38.3614 40.7989 3 8.07794e-28 -4.12244
15513 1 49.4557 38.3614 38.4675 3 9.99999e-17 -4.12244
15514 1 51.9285 38.3614 38.4675 3 1e-16 -4.12244
15515 1 51.1042 38.3614 36.1361 3 9.99999e-17 -4.12244
15516 1 53.577 38.3614 36.1361 3 3.99999e-16 -4.12244
15517 1 52.7527 38.3614 33.8048 3 4.00001e-16 -4.12244
15518 1 55.2255 38.3614 33.8048 3 1e-16 -4.12244
15519 1 54.4012 38.3614 31.4734 3 1e-16 -4.12244
15520 1 56.874 38.3614 31.4734 3 5.04871e-29 -4.12244
15521 1 56.0498 38.3614 29.142 3 1.51461e-28 -4.12244
15522 1 58.5226 38.3614 29.142 3 9.99999e-17 -4.12244
15523 1 57.6983 38.3614 26.8107 3 1e-16 -4.12244
15524 1 60.1711 38.3614 26.8107 3 3.99999e-16 -4.12244
15525 1 59.3468 38.3614 24.4793 3 3.99999e-16 -4.12244
15526 1 61.8196 38.3614 24.4793 3 5.77599e-17 -4.12244
15527 1 60.9953 38.3614 22.1479 3 9.99999e-17 -4.12244
15528 1 63.4681 38.3614 22.1479 3 2.304e-17 -4.12244
15529 1 62.6439 38.3614 19.8166 3 5.76e-18 -4.12244
15530 1 46.1586 36.3424 46.6273 3 1.0169e-16 -4.12244
15531 1 48.6314 36.3424 46.6273 3 1.0169e-16 -4.12244
15532 1 47.8072 36.3424 44.2959 3 3.99999e-16 -4.12244
15533 1 50.2799 36.3424 44.2959 3 2.01948e-28 -4.12244
15534 1 49.4557 36.3424 41.9645 3 9.99999e-17 -4.12244
15535 1 51.9285 36.3424 41.9645 3 1e-16 -4.12244
15536 1 51.1042 36.3424 39.6332 3 9.99999e-17 -4.12244
15537 1 53.577 36.3424 39.6332 3 3.99999e-16 -4.12244
15538 1 52.7527 36.3424 37.3018 3 4.00001e-16 -4.12244
15539 1 55.2255 36.3424 37.3018 3 1e-16 -4.12244
15540 1 54.4012 36.3424 34.9704 3 1e-16 -4.12244
15541 1 56.874 36.3424 34.9704 3 2.01948e-28 -4.12244
15542 1 56.0498 36.3424 32.6391 3 2.01948e-28 -4.12244
15543 1 58.5226 36.3424 32.6391 3 9.99999e-17 -4.12244
15544 1 57.6983 36.3424 30.3077 3 1e-16 -4.12244
15545 1 60.1711 36.3424 30.3077 3 3.99999e-16 -4.12244
15546 1 59.3468 36.3424 27.9764 3 3.99999e-16 -4.12244
15547 1 61.8196 36.3424 27.9764 3 5.77599e-17 -4.12244
15548 1 60.9953 36.3424 25.645 3 9.99999e-17 -4.12244
15549 1 63.4681 36.3424 25.645 3 2.304e-17 -4.12244
15550 1 62.6439 36.3424 23.3136 3 5.76e-18 -4.12244
15551 1 47.8072 34.3233 47.7929 3 4.05069e-16 -4.12244
15552 1 50.2799 34.3233 47.7929 3 5.06996e-18 -4.12244
15553 1 49.4557 34.3233 45.4616 3 9.99999e-17 -4.12244
15554 1 51.9285 34.3233 45.4616 3 1e-16 -4.12244
15555 1 51.1042 34.3233 43.1302 3 9.99999e-17 -4.12244
15556 1 53.577 34.3233 43.1302 3 3.99999e-16 -4.12244
15557 1 52.7527 34.3233 40.7989 3 4.00001e-16 -4.12244
15558 1 55.2255 34.3233 40.7989 3 1e-16 -4.12244
15559 1 54.4012 34.3233 38.4675 3 1e-16 -4.12244
15560 1 56.874 34.3233 38.4675 3 0 -4.12244
15561 1 56.0498 34.3233 36.1361 3 6.05845e-28 -4.12244
15562 1 58.5226 34.3233 36.1361 3 9.99999e-17 -4.12244
15563 1 57.6983 34.3233 33.8048 3 1e-16 -4.12244
15564 1 60.1711 34.3233 33.8048 3 3.99999e-16 -4.12244
15565 1 59.3468 34.3233 31.4734 3 3.99999e-16 -4.12244
15566 1 61.8196 34.3233 31.4734 3 5.77599e-17 -4.12244
15567 1 60.9953 34.3233 29.142 3 9.99999e-17 -4.12244
15568 1 63.4681 34.3233 29.142 3 2.304e-17 -4.12244
15569 1 62.6439 34.3233 26.8107 3 5.76e-18 -4.12244
15570 1 51.1042 32.3043 46.6273 3 1.0169e-16 -4.12244
15571 1 53.577 32.3043 46.6273 3 4.0169e-16 -4.12244
15572 1 52.7527 32.3043 44.2959 3 4.00001e-16 -4.12244
15573 1 55.2255 32.3043 44.2959 3 1e-16 -4.12244
15574 1 54.4012 32.3043 41.9645 3 1e-16 -4.12244
15575 1 56.874 32.3043 41.9645 3 0 -4.12244
15576 1 56.0498 32.3043 39.6332 3 0 -4.12244
15577 1 58.5226 32.3043 39.6332 3 9.99999e-17 -4.12244
15578 1 57.6983 32.3043 37.3018 3 1e-16 -4.12244
15579 1 60.1711 32.3043 37.3018 3 3.99999e-16 -4.12244
15580 1 59.3468 32.3043 34.9704 3 3.99999e-16 -4.12244
15581 1 61.8196 32.3043 34.9704 3 5.77599e-17 -4.12244
15582 1 60.9953 32.3043 32.6391 3 9.99999e-17 -4.12244
15583 1 63.4681 32.3043 32.6391 3 2.304e-17 -4.12244
15584 1 62.6439 32.3043 30.3077 3 5.76e-18 -4.12244
15585 1 52.7527 30.2853 47.7929 3 4.05071e-16 -4.12244
15586 1 55.2255 30.2853 47.7929 3 1.0507e-16 -4.12244
15587 1 54.4012 30.2853 45.4616 3 1e-16 -4.12244
15588 1 56.874 30.2853 45.4616 3 1.00974e-28 -4.12244
15589 1 56.0498 30.2853 43.1302 3 7.06819e-28 -4.12244
15590 1 58.5226 30.2853 43.1302 3 9.99999e-17 -4.12244
15591 1 57.6983 30.2853 40.7989 3 1e-16 -4.12244
15592 1 60.1711 30.2853 40.7989 3 3.99999e-16 -4.12244
15593 1 59.3468 30.2853 38.4675 3 3.99999e-16 -4.12244
15594 1 61.8196 30.2853 38.4675 3 5.77599e-17 -4.12244
15595 1 60.9953 30.2853 36.1361 3 9.99999e-17 -4.12244
15596 1 63.4681 30.2853 36.1361 3 2.304e-17 -4.12244
15597 1 62.6439 30.2853 33.8048 3 5.76e-18 -4.12244
15598 1 56.0498 28.2663 46.6273 3 1.69002e-18 -4.12244
15599 1 58.5226 28.2663 46.6273 3 1.0169e-16 -4.12244
15600 1 57.6983 28.2663 44.2959 3 1e-16 -4.12244
15601 1 60.1711 28.2663 44.2959 3 3.99999e-16 -4.12244
15602 1 59.3468 28.2663 41.9645 3 3.99999e-16 -4.12244
15603 1 61.8196 28.2663 41.9645 3 5.77599e-17 -4.12244
15604 1 60.9953 28.2663 39.6332 3 9.99999e-17 -4.12244
15605 1 63.4681 28.2663 39.6332 3 2.304e-17 -4.12244
15606 1 62.6439 28.2663 37.3018 3 5.76e-18 -4.12244
15607 1 57.6983 26.2473 47.7929 3 1.0507e-16 -4.12244
15608 1 60.1711 26.2473 47.7929 3 4.05069e-16 -4.12244
15609 1 59.3468 26.2473 45.4616 3 3.99999e-16 -4.12244
15610 1 61.8196 26.2473 45.4616 3 5.77599e-17 -4.12244
15611 1 60.9953 26.2473 43.1302 3 9.99999e-17 -4.12244
15612 1 63.4681 26.2473 43.1302 3 2.304e-17 -4.12244
15613 1 62.6439 26.2473 40.7989 3 5.76e-18 -4.12244
15614 1 60.9953 24.2282 46.6273 3 1.0169e-16 -4.12244
15615 1 63.4681 24.2282 46.6273 3 2.473e-17 -4.12244
15616 1 62.6439 24.2282 44.2959 3 5.76e-18 -4.12244
15617 1 62.6439 22.2092 47.7929 3 1.083e-17 -4.12244
15618 1 18.1337 62.5896 47.7929 5 12.2293 -3.54465
15619 1 20.6065 62.5896 47.7929 5 12.2293 -3.54465
15620 1 19.7823 62.5896 45.4616 5 12.2293 -3.54465
15621 1 22.2551 62.5896 45.4616 5 12.2293 -3.54465
15622 1 21.4308 62.5896 43.1302 5 12.2293 -3.54465
15623 1 23.9036 62.5896 43.1302 5 12.2293 -3.54465
15624 1 23.0793 62.5896 40.7989 5 12.2293 -3.54465
15625 1 25.5521 62.5896 40.7989 5 12.2293 -3.54465
15626 1 24.7278 62.5896 38.4675 5 12.2293 -3.54465
15627 1 27.2006 62.5896 38.4675 5 12.2293 -3.54465
15628 1 26.3764 62.5896 36.1361 5 12.2293 -3.54465
15629 1 28.8491 62.5896 36.1361 5 12.2293 -3.54465
15630 1 28.0249 62.5896 33.8048 5 12.2293 -3.54465
15631 1 30.4977 62.5896 33.8048 5 12.2293 -3.54465
15632 1 29.6734 62.5896 31.4734 5 12.2293 -3.54465
15633 1 32.1462 62.5896 31.4734 5 12.2293 -3.54465
15634 1 31.3219 62.5896 29.142 5 12.2293 -3.54465
15635 1 33.7947 62.5896 29.142 5 12.2293 -3.54465
15636 1 32.9705 62.5896 26.8107 5 12.2293 -3.54465
15637 1 35.4432 62.5896 26.8107 5 12.2293 -3.54465
15638 1 34.619 62.5896 24.4793 5 12.2293 -3.54465
15639 1 37.0918 62.5896 24.4793 5 12.2293 -3.54465
15640 1 36.2675 62.5896 22.1479 5 12.2293 -3.54465
15641 1 38.7403 62.5896 22.1479 5 12.2293 -3.54465
15642 1 37.916 62.5896 19.8166 5 12.2293 -3.54465
15643 1 40.3888 62.5896 19.8166 5 12.2293 -3.54465
15644 1 39.5645 62.5896 17.4852 5 12.2293 -3.54465
15645 1 42.0373 62.5896 17.4852 5 12.2293 -3.54465
15646 1 41.2131 62.5896 15.1539 5 12.2293 -3.54465
15647 1 43.6859 62.5896 15.1539 5 12.2293 -3.54465
15648 1 42.8616 62.5896 12.8225 5 12.2293 -3.54465
15649 1 45.3344 62.5896 12.8225 5 12.2293 -3.54465
15650 1 44.5101 62.5896 10.4911 5 12.2293 -3.54465
15651 1 46.9829 62.5896 10.4911 5 12.2293 -3.54465
15652 1 46.1586 62.5896 8.15977 5 12.2293 -3.54465
15653 1 48.6314 62.5896 8.15977 5 12.2293 -3.54465
15654 1 47.8072 62.5896 5.82841 5 12.2293 -3.54465
15655 1 50.2799 62.5896 5.82841 5 12.2293 -3.54465
15656 1 49.4557 62.5896 3.49704 5 12.2293 -3.54465
15657 1 51.9285 62.5896 3.49704 5 12.2293 -3.54465
15658 1 51.1042 62.5896 1.16568 5 12.2293 -3.54465
15659 1 53.577 62.5896 1.16568 5 12.2293 -3.54465
15660 1 21.4308 60.5706 46.6273 3 4.01691e-16 -4.10627
15661 1 23.9036 60.5706 46.6273 3 1.0169e-16 -4.10627
15662 1 23.0793 60.5706 44.2959 3 1e-16 -4.10627
15663 1 25.5521 60.5706 44.2959 3 5.55358e-28 -4.10627
15664 1 24.7278 60.5706 41.9645 3 4.03897e-28 -4.10627
15665 1 27.2006 60.5706 41.9645 3 1e-16 -4.10627
15666 1 26.3764 60.5706 39.6332 3 1e-16 -4.10627
15667 1 28.8491 60.5706 39.6332 3 4e-16 -4.10627
15668 1 28.0249 60.5706 37.3018 3 3.99999e-16 -4.10627
15669 1 30.4977 60.5706 37.3018 3 9.99999e-17 -4.10627
15670 1 29.6734 60.5706 34.9704 3 1e-16 -4.10627
15671 1 32.1462 60.5706 34.9704 3 9.99999e-17 -4.10627
15672 1 31.3219 60.5706 32.6391 3 6.05845e-28 -4.10627
15673 1 33.7947 60.5706 32.6391 3 4.00001e-16 -4.10627
15674 1 32.9705 60.5706 30.3077 3 9.99999e-17 -4.10627
15675 1 35.4432 60.5706 30.3077 3 1e-16 -4.10627
15676 1 34.619 60.5706 27.9764 3 4e-16 -4.10627
15677 1 37.0918 60.5706 27.9764 3 5.55358e-28 -4.10627
15678 1 36.2675 60.5706 25.645 3 1e-16 -4.10627
15679 1 38.7403 60.5706 25.645 3 1e-16 -4.10627
15680 1 37.916 60.5706 23.3136 3 1.21169e-27 -4.10627
15681 1 40.3888 60.5706 23.3136 3 3.99999e-16 -4.10627
15682 1 39.5645 60.5706 20.9823 3 1e-16 -4.10627
15683 1 42.0373 60.5706 20.9823 3 1e-16 -4.10627
15684 1 41.2131 60.5706 18.6509 3 4.00001e-16 -4.10627
15685 1 43.6859 60.5706 18.6509 3 6.05845e-28 -4.10627
15686 1 42.8616 60.5706 16.3195 3 9.99999e-17 -4.10627
15687 1 45.3344 60.5706 16.3195 3 9.99999e-17 -4.10627
15688 1 44.5101 60.5706 13.9882 3 6.31089e-28 -4.10627
15689 1 46.9829 60.5706 13.9882 3 3.99999e-16 -4.10627
15690 1 46.1586 60.5706 11.6568 3 9.99999e-17 -4.10627
15691 1 48.6314 60.5706 11.6568 3 9.99999e-17 -4.10627
15692 1 47.8072 60.5706 9.32545 3 3.99999e-16 -4.10627
15693 1 50.2799 60.5706 9.32545 3 6.05845e-28 -4.10627
15694 1 49.4557 60.5706 6.99409 3 9.99999e-17 -4.10627
15695 1 51.9285 60.5706 6.99409 3 1e-16 -4.10627
15696 1 51.1042 60.5706 4.66273 3 9.99999e-17 -4.10627
15697 1 53.577 60.5706 4.66273 3 3.99999e-16 -4.10627
15698 1 52.7527 60.5706 2.33136 3 4.00001e-16 -4.10627
15699 1 55.2255 60.5706 2.33136 3 1e-16 -4.10627
15700 1 54.4012 60.5706 0 3 1.0507e-16 -4.10627
15701 1 56.874 60.5706 0 3 5.07001e-18 -4.10627
15702 1 23.0793 58.5516 47.7929 3 1.0507e-16 -4.12244
15703 1 25.5521 58.5516 47.7929 3 5.06996e-18 -4.12244
15704 1 24.7278 58.5516 45.4616 3 0 -4.12244
15705 1 27.2006 58.5516 45.4616 3 1e-16 -4.12244
15706 1 26.3764 58.5516 43.1302 3 1e-16 -4.12244
15707 1 28.8491 58.5516 43.1302 3 4e-16 -4.12244
15708 1 28.0249 58.5516 40.7989 3 3.99999e-16 -4.12244
15709 1 30.4977 58.5516 40.7989 3 9.99999e-17 -4.12244
15710 1 29.6734 58.5516 38.4675 3 1e-16 -4.12244
15711 1 32.1462 58.5516 38.4675 3 9.99999e-17 -4.12244
15712 1 31.3219 58.5516 36.1361 3 6.05845e-28 -4.12244
15713 1 33.7947 58.5516 36.1361 3 4.00001e-16 -4.12244
15714 1 32.9705 58.5516 33.8048 3 9.99999e-17 -4.12244
15715 1 35.4432 58.5516 33.8048 3 1e-16 -4.12244
15716 1 34.619 58.5516 31.4734 3 4e-16 -4.12244
15717 1 37.0918 58.5516 31.4734 3 5.04871e-29 -4.12244
15718 1 36.2675 58.5516 29.142 3 1e-16 -4.12244
15719 1 38.7403 58.5516 29.142 3 1e-16 -4.12244
15720 1 37.916 58.5516 26.8107 3 8.07794e-28 -4.12244
15721 1 40.3888 58.5516 26.8107 3 3.99999e-16 -4.12244
15722 1 39.5645 58.5516 24.4793 3 1e-16 -4.12244
15723 1 42.0373 58.5516 24.4793 3 1e-16 -4.12244
15724 1 41.2131 58.5516 22.1479 3 4.00001e-16 -4.12244
15725 1 43.6859 58.5516 22.1479 3 2.01948e-28 -4.12244
15726 1 42.8616 58.5516 19.8166 3 9.99999e-17 -4.12244
15727 1 45.3344 58.5516 19.8166 3 9.99999e-17 -4.12244
15728 1 44.5101 58.5516 17.4852 3 3.02923e-28 -4.12244
15729 1 46.9829 58.5516 17.4852 3 3.99999e-16 -4.12244
15730 1 46.1586 58.5516 15.1539 3 9.99999e-17 -4.12244
15731 1 48.6314 58.5516 15.1539 3 9.99999e-17 -4.12244
15732 1 47.8072 58.5516 12.8225 3 3.99999e-16 -4.12244
15733 1 50.2799 58.5516 12.8225 3 2.39814e-28 -4.12244
15734 1 49.4557 58.5516 10.4911 3 9.99999e-17 -4.12244
15735 1 51.9285 58.5516 10.4911 3 1e-16 -4.12244
15736 1 51.1042 58.5516 8.15977 3 9.99999e-17 -4.12244
15737 1 53.577 58.5516 8.15977 3 3.99999e-16 -4.12244
15738 1 52.7527 58.5516 5.82841 3 4.00001e-16 -4.12244
15739 1 55.2255 58.5516 5.82841 3 1e-16 -4.12244
15740 1 54.4012 58.5516 3.49704 3 1e-16 -4.12244
15741 1 56.874 58.5516 3.49704 3 7.88861e-31 -4.12244
15742 1 56.0498 58.5516 1.16568 3 1.69e-18 -4.12244
15743 1 58.5226 58.5516 1.16568 3 1.0169e-16 -4.12244
15744 1 26.3764 56.5326 46.6273 3 1.0169e-16 -4.12244
15745 1 28.8491 56.5326 46.6273 3 4.0169e-16 -4.12244
15746 1 28.0249 56.5326 44.2959 3 3.99999e-16 -4.12244
15747 1 30.4977 56.5326 44.2959 3 9.99999e-17 -4.12244
15748 1 29.6734 56.5326 41.9645 3 1e-16 -4.12244
15749 1 32.1462 56.5326 41.9645 3 9.99999e-17 -4.12244
15750 1 31.3219 56.5326 39.6332 3 0 -4.12244
15751 1 33.7947 56.5326 39.6332 3 4.00001e-16 -4.12244
15752 1 32.9705 56.5326 37.3018 3 9.99999e-17 -4.12244
15753 1 35.4432 56.5326 37.3018 3 1e-16 -4.12244
15754 1 34.619 56.5326 34.9704 3 4e-16 -4.12244
15755 1 37.0918 56.5326 34.9704 3 2.01948e-28 -4.12244
15756 1 36.2675 56.5326 32.6391 3 1e-16 -4.12244
15757 1 38.7403 56.5326 32.6391 3 1e-16 -4.12244
15758 1 37.916 56.5326 30.3077 3 8.07794e-28 -4.12244
15759 1 40.3888 56.5326 30.3077 3 3.99999e-16 -4.12244
15760 1 39.5645 56.5326 27.9764 3 1e-16 -4.12244
15761 1 42.0373 56.5326 27.9764 3 1e-16 -4.12244
15762 1 41.2131 56.5326 25.645 3 4.00001e-16 -4.12244
15763 1 43.6859 56.5326 25.645 3 3.5341e-28 -4.12244
15764 1 42.8616 56.5326 23.3136 3 9.99999e-17 -4.12244
15765 1 45.3344 56.5326 23.3136 3 9.99999e-17 -4.12244
15766 1 44.5101 56.5326 20.9823 3 2.01948e-28 -4.12244
15767 1 46.9829 56.5326 20.9823 3 3.99999e-16 -4.12244
15768 1 46.1586 56.5326 18.6509 3 9.99999e-17 -4.12244
15769 1 48.6314 56.5326 18.6509 3 9.99999e-17 -4.12244
15770 1 47.8072 56.5326 16.3195 3 3.99999e-16 -4.12244
15771 1 50.2799 56.5326 16.3195 3 3.02923e-28 -4.12244
15772 1 49.4557 56.5326 13.9882 3 9.99999e-17 -4.12244
15773 1 51.9285 56.5326 13.9882 3 1e-16 -4.12244
15774 1 51.1042 56.5326 11.6568 3 9.99999e-17 -4.12244
15775 1 53.577 56.5326 11.6568 3 3.99999e-16 -4.12244
15776 1 52.7527 56.5326 9.32545 3 4.00001e-16 -4.12244
15777 1 55.2255 56.5326 9.32545 3 1e-16 -4.12244
15778 1 54.4012 56.5326 6.99409 3 1e-16 -4.12244
15779 1 56.874 56.5326 6.99409 3 0 -4.12244
15780 1 56.0498 56.5326 4.66273 3 0 -4.12244
15781 1 58.5226 56.5326 4.66273 3 9.99999e-17 -4.12244
15782 1 57.6983 56.5326 2.33136 3 1e-16 -4.12244
15783 1 60.1711 56.5326 2.33136 3 3.99999e-16 -4.12244
15784 1 59.3468 56.5326 0 3 4.0507e-16 -4.12244
15785 1 61.8196 56.5326 0 3 6.28299e-17 -4.12244
15786 1 28.0249 54.5135 47.7929 3 4.05069e-16 -4.12244
15787 1 30.4977 54.5135 47.7929 3 1.0507e-16 -4.12244
15788 1 29.6734 54.5135 45.4616 3 1e-16 -4.12244
15789 1 32.1462 54.5135 45.4616 3 9.99999e-17 -4.12244
15790 1 31.3219 54.5135 43.1302 3 6.05845e-28 -4.12244
15791 1 33.7947 54.5135 43.1302 3 4.00001e-16 -4.12244
15792 1 32.9705 54.5135 40.7989 3 9.99999e-17 -4.12244
15793 1 35.4432 54.5135 40.7989 3 1e-16 -4.12244
15794 1 34.619 54.5135 38.4675 3 4e-16 -4.12244
15795 1 37.0918 54.5135 38.4675 3 0 -4.12244
15796 1 36.2675 54.5135 36.1361 3 1e-16 -4.12244
15797 1 38.7403 54.5135 36.1361 3 1e-16 -4.12244
15798 1 37.916 54.5135 33.8048 3 8.07794e-28 -4.12244
15799 1 40.3888 54.5135 33.8048 3 3.99999e-16 -4.12244
15800 1 39.5645 54.5135 31.4734 3 1e-16 -4.12244
15801 1 42.0373 54.5135 31.4734 3 1e-16 -4.12244
15802 1 41.2131 54.5135 29.142 3 4.00001e-16 -4.12244
15803 1 43.6859 54.5135 29.142 3 3.5341e-28 -4.12244
15804 1 42.8616 54.5135 26.8107 3 9.99999e-17 -4.12244
15805 1 45.3344 54.5135 26.8107 3 9.99999e-17 -4.12244
15806 1 44.5101 54.5135 24.4793 3 3.02923e-28 -4.12244
15807 1 46.9829 54.5135 24.4793 3 3.99999e-16 -4.12244
15808 1 46.1586 54.5135 22.1479 3 9.99999e-17 -4.12244
15809 1 48.6314 54.5135 22.1479 3 9.99999e-17 -4.12244
15810 1 47.8072 54.5135 19.8166 3 3.99999e-16 -4.12244
15811 1 50.2799 54.5135 19.8166 3 2.01948e-28 -4.12244
15812 1 49.4557 54.5135 17.4852 3 9.99999e-17 -4.12244
15813 1 51.9285 54.5135 17.4852 3 1e-16 -4.12244
15814 1 51.1042 54.5135 15.1539 3 9.99999e-17 -4.12244
15815 1 53.577 54.5135 15.1539 3 3.99999e-16 -4.12244
15816 1 52.7527 54.5135 12.8225 3 4.00001e-16 -4.12244
15817 1 55.2255 54.5135 12.8225 3 1e-16 -4.12244
15818 1 54.4012 54.5135 10.4911 3 1e-16 -4.12244
15819 1 56.874 54.5135 10.4911 3 0 -4.12244
15820 1 56.0498 54.5135 8.15977 3 1.26218e-29 -4.12244
15821 1 58.5226 54.5135 8.15977 3 9.99999e-17 -4.12244
15822 1 57.6983 54.5135 5.82841 3 1e-16 -4.12244
15823 1 60.1711 54.5135 5.82841 3 3.99999e-16 -4.12244
15824 1 59.3468 54.5135 3.49704 3 3.99999e-16 -4.12244
15825 1 61.8196 54.5135 3.49704 3 5.77599e-17 -4.12244
15826 1 60.9953 54.5135 1.16568 3 1.0169e-16 -4.12244
15827 1 63.4681 54.5135 1.16568 3 2.473e-17 -4.12244
15828 1 31.3219 52.4945 46.6273 3 1.69002e-18 -4.12244
15829 1 33.7947 52.4945 46.6273 3 4.01691e-16 -4.12244
15830 1 32.9705 52.4945 44.2959 3 9.99999e-17 -4.12244
15831 1 35.4432 52.4945 44.2959 3 1e-16 -4.12244
15832 1 34.619 52.4945 41.9645 3 4e-16 -4.12244
15833 1 37.0918 52.4945 41.9645 3 0 -4.12244
15834 1 36.2675 52.4945 39.6332 3 1e-16 -4.12244
15835 1 38.7403 52.4945 39.6332 3 1e-16 -4.12244
15836 1 37.916 52.4945 37.3018 3 8.07794e-28 -4.12244
15837 1 40.3888 52.4945 37.3018 3 3.99999e-16 -4.12244
15838 1 39.5645 52.4945 34.9704 3 1e-16 -4.12244
15839 1 42.0373 52.4945 34.9704 3 1e-16 -4.12244
15840 1 41.2131 52.4945 32.6391 3 4.00001e-16 -4.12244
15841 1 43.6859 52.4945 32.6391 3 4.03897e-28 -4.12244
15842 1 42.8616 52.4945 30.3077 3 9.99999e-17 -4.12244
15843 1 45.3344 52.4945 30.3077 3 9.99999e-17 -4.12244
15844 1 44.5101 52.4945 27.9764 3 3.5341e-28 -4.12244
15845 1 46.9829 52.4945 27.9764 3 3.99999e-16 -4.12244
15846 1 46.1586 52.4945 25.645 3 9.99999e-17 -4.12244
15847 1 48.6314 52.4945 25.645 3 9.99999e-17 -4.12244
15848 1 47.8072 52.4945 23.3136 3 3.99999e-16 -4.12244
15849 1 50.2799 52.4945 23.3136 3 2.01948e-28 -4.12244
15850 1 49.4557 52.4945 20.9823 3 9.99999e-17 -4.12244
15851 1 51.9285 52.4945 20.9823 3 1e-16 -4.12244
15852 1 51.1042 52.4945 18.6509 3 9.99999e-17 -4.12244
15853 1 53.577 52.4945 18.6509 3 3.99999e-16 -4.12244
15854 1 52.7527 52.4945 16.3195 3 4.00001e-16 -4.12244
15855 1 55.2255 52.4945 16.3195 3 1e-16 -4.12244
15856 1 54.4012 52.4945 13.9882 3 1e-16 -4.12244
15857 1 56.874 52.4945 13.9882 3 2.52435e-29 -4.12244
15858 1 56.0498 52.4945 11.6568 3 0 -4.12244
15859 1 58.5226 52.4945 11.6568 3 9.99999e-17 -4.12244
15860 1 57.6983 52.4945 9.32545 3 1e-16 -4.12244
15861 1 60.1711 52.4945 9.32545 3 3.99999e-16 -4.12244
15862 1 59.3468 52.4945 6.99409 3 3.99999e-16 -4.12244
15863 1 61.8196 52.4945 6.99409 3 5.77599e-17 -4.12244
15864 1 60.9953 52.4945 4.66273 3 9.99999e-17 -4.12244
15865 1 63.4681 52.4945 4.66273 3 2.304e-17 -4.12244
15866 1 62.6439 52.4945 2.33136 3 5.76e-18 -4.12244
15867 1 32.9705 50.4755 47.7929 3 1.0507e-16 -4.12244
15868 1 35.4432 50.4755 47.7929 3 1.0507e-16 -4.12244
15869 1 34.619 50.4755 45.4616 3 4e-16 -4.12244
15870 1 37.0918 50.4755 45.4616 3 0 -4.12244
15871 1 36.2675 50.4755 43.1302 3 1e-16 -4.12244
15872 1 38.7403 50.4755 43.1302 3 1e-16 -4.12244
15873 1 37.916 50.4755 40.7989 3 1.41364e-27 -4.12244
15874 1 40.3888 50.4755 40.7989 3 3.99999e-16 -4.12244
15875 1 39.5645 50.4755 38.4675 3 1e-16 -4.12244
15876 1 42.0373 50.4755 38.4675 3 1e-16 -4.12244
15877 1 41.2131 50.4755 36.1361 3 4.00001e-16 -4.12244
15878 1 43.6859 50.4755 36.1361 3 8.07794e-28 -4.12244
15879 1 42.8616 50.4755 33.8048 3 9.99999e-17 -4.12244
15880 1 45.3344 50.4755 33.8048 3 9.99999e-17 -4.12244
15881 1 44.5101 50.4755 31.4734 3 2.52435e-28 -4.12244
15882 1 46.9829 50.4755 31.4734 3 3.99999e-16 -4.12244
15883 1 46.1586 50.4755 29.142 3 9.99999e-17 -4.12244
15884 1 48.6314 50.4755 29.142 3 9.99999e-17 -4.12244
15885 1 47.8072 50.4755 26.8107 3 3.99999e-16 -4.12244
15886 1 50.2799 50.4755 26.8107 3 2.01948e-28 -4.12244
15887 1 49.4557 50.4755 24.4793 3 9.99999e-17 -4.12244
15888 1 51.9285 50.4755 24.4793 3 1e-16 -4.12244
15889 1 51.1042 50.4755 22.1479 3 9.99999e-17 -4.12244
15890 1 53.577 50.4755 22.1479 3 3.99999e-16 -4.12244
15891 1 52.7527 50.4755 19.8166 3 4.00001e-16 -4.12244
15892 1 55.2255 50.4755 19.8166 3 1e-16 -4.12244
15893 1 54.4012 50.4755 17.4852 3 1e-16 -4.12244
15894 1 56.874 50.4755 17.4852 3 1.00974e-28 -4.12244
15895 1 56.0498 50.4755 15.1539 3 0 -4.12244
15896 1 58.5226 50.4755 15.1539 3 9.99999e-17 -4.12244
15897 1 57.6983 50.4755 12.8225 3 1e-16 -4.12244
15898 1 60.1711 50.4755 12.8225 3 3.99999e-16 -4.12244
15899 1 59.3468 50.4755 10.4911 3 3.99999e-16 -4.12244
15900 1 61.8196 50.4755 10.4911 3 5.77599e-17 -4.12244
15901 1 60.9953 50.4755 8.15977 3 9.99999e-17 -4.12244
15902 1 63.4681 50.4755 8.15977 3 2.304e-17 -4.12244
15903 1 62.6439 50.4755 5.82841 3 5.76e-18 -4.12244
15904 1 36.2675 48.4565 46.6273 3 1.0169e-16 -4.12244
15905 1 38.7403 48.4565 46.6273 3 1.0169e-16 -4.12244
15906 1 37.916 48.4565 44.2959 3 8.07794e-28 -4.12244
15907 1 40.3888 48.4565 44.2959 3 3.99999e-16 -4.12244
15908 1 39.5645 48.4565 41.9645 3 1e-16 -4.12244
15909 1 42.0373 48.4565 41.9645 3 1e-16 -4.12244
15910 1 41.2131 48.4565 39.6332 3 4.00001e-16 -4.12244
15911 1 43.6859 48.4565 39.6332 3 2.01948e-28 -4.12244
15912 1 42.8616 48.4565 37.3018 3 9.99999e-17 -4.12244
15913 1 45.3344 48.4565 37.3018 3 9.99999e-17 -4.12244
15914 1 44.5101 48.4565 34.9704 3 4.03897e-28 -4.12244
15915 1 46.9829 48.4565 34.9704 3 3.99999e-16 -4.12244
15916 1 46.1586 48.4565 32.6391 3 9.99999e-17 -4.12244
15917 1 48.6314 48.4565 32.6391 3 9.99999e-17 -4.12244
15918 1 47.8072 48.4565 30.3077 3 3.99999e-16 -4.12244
15919 1 50.2799 48.4565 30.3077 3 2.01948e-28 -4.12244
15920 1 49.4557 48.4565 27.9764 3 9.99999e-17 -4.12244
15921 1 51.9285 48.4565 27.9764 3 1e-16 -4.12244
15922 1 51.1042 48.4565 25.645 3 9.99999e-17 -4.12244
15923 1 53.577 48.4565 25.645 3 3.99999e-16 -4.12244
15924 1 52.7527 48.4565 23.3136 3 4.00001e-16 -4.12244
15925 1 55.2255 48.4565 23.3136 3 1e-16 -4.12244
15926 1 54.4012 48.4565 20.9823 3 1e-16 -4.12244
15927 1 56.874 48.4565 20.9823 3 0 -4.12244
15928 1 56.0498 48.4565 18.6509 3 0 -4.12244
15929 1 58.5226 48.4565 18.6509 3 9.99999e-17 -4.12244
15930 1 57.6983 48.4565 16.3195 3 1e-16 -4.12244
15931 1 60.1711 48.4565 16.3195 3 3.99999e-16 -4.12244
15932 1 59.3468 48.4565 13.9882 3 3.99999e-16 -4.12244
15933 1 61.8196 48.4565 13.9882 3 5.77599e-17 -4.12244
15934 1 60.9953 48.4565 11.6568 3 9.99999e-17 -4.12244
15935 1 63.4681 48.4565 11.6568 3 2.304e-17 -4.12244
15936 1 62.6439 48.4565 9.32545 3 5.76e-18 -4.12244
15937 1 37.916 46.4375 47.7929 3 5.06996e-18 -4.12244
15938 1 40.3888 46.4375 47.7929 3 4.05069e-16 -4.12244
15939 1 39.5645 46.4375 45.4616 3 1e-16 -4.12244
15940 1 42.0373 46.4375 45.4616 3 1e-16 -4.12244
15941 1 41.2131 46.4375 43.1302 3 4.00001e-16 -4.12244
15942 1 43.6859 46.4375 43.1302 3 8.07794e-28 -4.12244
15943 1 42.8616 46.4375 40.7989 3 9.99999e-17 -4.12244
15944 1 45.3344 46.4375 40.7989 3 9.99999e-17 -4.12244
15945 1 44.5101 46.4375 38.4675 3 2.01948e-28 -4.12244
15946 1 46.9829 46.4375 38.4675 3 3.99999e-16 -4.12244
15947 1 46.1586 46.4375 36.1361 3 9.99999e-17 -4.12244
15948 1 48.6314 46.4375 36.1361 3 9.99999e-17 -4.12244
15949 1 47.8072 46.4375 33.8048 3 3.99999e-16 -4.12244
15950 1 50.2799 46.4375 33.8048 3 2.01948e-28 -4.12244
15951 1 49.4557 46.4375 31.4734 3 9.99999e-17 -4.12244
15952 1 51.9285 46.4375 31.4734 3 1e-16 -4.12244
15953 1 51.1042 46.4375 29.142 3 9.99999e-17 -4.12244
15954 1 53.577 46.4375 29.142 3 3.99999e-16 -4.12244
15955 1 52.7527 46.4375 26.8107 3 4.00001e-16 -4.12244
15956 1 55.2255 46.4375 26.8107 3 1e-16 -4.12244
15957 1 54.4012 46.4375 24.4793 3 1e-16 -4.12244
15958 1 56.874 46.4375 24.4793 3 1.00974e-28 -4.12244
15959 1 56.0498 46.4375 22.1479 3 0 -4.12244
15960 1 58.5226 46.4375 22.1479 3 9.99999e-17 -4.12244
15961 1 57.6983 46.4375 19.8166 3 1e-16 -4.12244
15962 1 60.1711 46.4375 19.8166 3 3.99999e-16 -4.12244
15963 1 59.3468 46.4375 17.4852 3 3.99999e-16 -4.12244
15964 1 61.8196 46.4375 17.4852 3 5.77599e-17 -4.12244
15965 1 60.9953 46.4375 15.1539 3 9.99999e-17 -4.12244
15966 1 63.4681 46.4375 15.1539 3 2.304e-17 -4.12244
15967 1 62.6439 46.4375 12.8225 3 5.76e-18 -4.12244
15968 1 41.2131 44.4184 46.6273 3 4.01691e-16 -4.12244
15969 1 43.6859 44.4184 46.6273 3 1.69002e-18 -4.12244
15970 1 42.8616 44.4184 44.2959 3 9.99999e-17 -4.12244
15971 1 45.3344 44.4184 44.2959 3 9.99999e-17 -4.12244
15972 1 44.5101 44.4184 41.9645 3 2.01948e-28 -4.12244
15973 1 46.9829 44.4184 41.9645 3 3.99999e-16 -4.12244
15974 1 46.1586 44.4184 39.6332 3 9.99999e-17 -4.12244
15975 1 48.6314 44.4184 39.6332 3 9.99999e-17 -4.12244
15976 1 47.8072 44.4184 37.3018 3 3.99999e-16 -4.12244
15977 1 50.2799 44.4184 37.3018 3 2.01948e-28 -4.12244
15978 1 49.4557 44.4184 34.9704 3 9.99999e-17 -4.12244
15979 1 51.9285 44.4184 34.9704 3 1e-16 -4.12244
15980 1 51.1042 44.4184 32.6391 3 9.99999e-17 -4.12244
15981 1 53.577 44.4184 32.6391 3 3.99999e-16 -4.12244
15982 1 52.7527 44.4184 30.3077 3 4.00001e-16 -4.12244
15983 1 55.2255 44.4184 30.3077 3 1e-16 -4.12244
15984 1 54.4012 44.4184 27.9764 3 1e-16 -4.12244
15985 1 56.874 44.4184 27.9764 3 1.51461e-28 -4.12244
15986 1 56.0498 44.4184 25.645 3 1.51461e-28 -4.12244
15987 1 58.5226 44.4184 25.645 3 9.99999e-17 -4.12244
15988 1 57.6983 44.4184 23.3136 3 1e-16 -4.12244
15989 1 60.1711 44.4184 23.3136 3 3.99999e-16 -4.12244
15990 1 59.3468 44.4184 20.9823 3 3.99999e-16 -4.12244
15991 1 61.8196 44.4184 20.9823 3 5.77599e-17 -4.12244
15992 1 60.9953 44.4184 18.6509 3 9.99999e-17 -4.12244
15993 1 63.4681 44.4184 18.6509 3 2.304e-17 -4.12244
15994 1 62.6439 44.4184 16.3195 3 5.76e-18 -4.12244
15995 1 42.8616 42.3994 47.7929 3 1.0507e-16 -4.12244
15996 1 45.3344 42.3994 47.7929 3 1.0507e-16 -4.12244
15997 1 44.5101 42.3994 45.4616 3 2.01948e-28 -4.12244
15998 1 46.9829 42.3994 45.4616 3 3.99999e-16 -4.12244
15999 1 46.1586 42.3994 43.1302 3 9.99999e-17 -4.12244
16000 1 48.6314 42.3994 43.1302 3 9.99999e-17 -4.12244
16001 1 47.8072 42.3994 40.7989 3 3.99999e-16 -4.12244
16002 1 50.2799 42.3994 40.7989 3 8.07794e-28 -4.12244
16003 1 49.4557 42.3994 38.4675 3 9.99999e-17 -4.12244
16004 1 51.9285 42.3994 38.4675 3 1e-16 -4.12244
16005 1 51.1042 42.3994 36.1361 3 9.99999e-17 -4.12244
16006 1 53.577 42.3994 36.1361 3 3.99999e-16 -4.12244
16007 1 52.7527 42.3994 33.8048 3 4.00001e-16 -4.12244
16008 1 55.2255 42.3994 33.8048 3 1e-16 -4.12244
16009 1 54.4012 42.3994 31.4734 3 1e-16 -4.12244
16010 1 56.874 42.3994 31.4734 3 5.04871e-29 -4.12244
16011 1 56.0498 42.3994 29.142 3 1.51461e-28 -4.12244
16012 1 58.5226 42.3994 29.142 3 9.99999e-17 -4.12244
16013 1 57.6983 42.3994 26.8107 3 1e-16 -4.12244
16014 1 60.1711 42.3994 26.8107 3 3.99999e-16 -4.12244
16015 1 59.3468 42.3994 24.4793 3 3.99999e-16 -4.12244
16016 1 61.8196 42.3994 24.4793 3 5.77599e-17 -4.12244
16017 1 60.9953 42.3994 22.1479 3 9.99999e-17 -4.12244
16018 1 63.4681 42.3994 22.1479 3 2.304e-17 -4.12244
16019 1 62.6439 42.3994 19.8166 3 5.76e-18 -4.12244
16020 1 46.1586 40.3804 46.6273 3 1.0169e-16 -4.12244
16021 1 48.6314 40.3804 46.6273 3 1.0169e-16 -4.12244
16022 1 47.8072 40.3804 44.2959 3 3.99999e-16 -4.12244
16023 1 50.2799 40.3804 44.2959 3 2.01948e-28 -4.12244
16024 1 49.4557 40.3804 41.9645 3 9.99999e-17 -4.12244
16025 1 51.9285 40.3804 41.9645 3 1e-16 -4.12244
16026 1 51.1042 40.3804 39.6332 3 9.99999e-17 -4.12244
16027 1 53.577 40.3804 39.6332 3 3.99999e-16 -4.12244
16028 1 52.7527 40.3804 37.3018 3 4.00001e-16 -4.12244
16029 1 55.2255 40.3804 37.3018 3 1e-16 -4.12244
16030 1 54.4012 40.3804 34.9704 3 1e-16 -4.12244
16031 1 56.874 40.3804 34.9704 3 2.01948e-28 -4.12244
16032 1 56.0498 40.3804 32.6391 3 2.01948e-28 -4.12244
16033 1 58.5226 40.3804 32.6391 3 9.99999e-17 -4.12244
16034 1 57.6983 40.3804 30.3077 3 1e-16 -4.12244
16035 1 60.1711 40.3804 30.3077 3 3.99999e-16 -4.12244
16036 1 59.3468 40.3804 27.9764 3 3.99999e-16 -4.12244
16037 1 61.8196 40.3804 27.9764 3 5.77599e-17 -4.12244
16038 1 60.9953 40.3804 25.645 3 9.99999e-17 -4.12244
16039 1 63.4681 40.3804 25.645 3 2.304e-17 -4.12244
16040 1 62.6439 40.3804 23.3136 3 5.76e-18 -4.12244
16041 1 47.8072 38.3614 47.7929 3 4.05069e-16 -4.12244
16042 1 50.2799 38.3614 47.7929 3 5.06996e-18 -4.12244
16043 1 49.4557 38.3614 45.4616 3 9.99999e-17 -4.12244
16044 1 51.9285 38.3614 45.4616 3 1e-16 -4.12244
16045 1 51.1042 38.3614 43.1302 3 9.99999e-17 -4.12244
16046 1 53.577 38.3614 43.1302 3 3.99999e-16 -4.12244
16047 1 52.7527 38.3614 40.7989 3 4.00001e-16 -4.12244
16048 1 55.2255 38.3614 40.7989 3 1e-16 -4.12244
16049 1 54.4012 38.3614 38.4675 3 1e-16 -4.12244
16050 1 56.874 38.3614 38.4675 3 0 -4.12244
16051 1 56.0498 38.3614 36.1361 3 6.05845e-28 -4.12244
16052 1 58.5226 38.3614 36.1361 3 9.99999e-17 -4.12244
16053 1 57.6983 38.3614 33.8048 3 1e-16 -4.12244
16054 1 60.1711 38.3614 33.8048 3 3.99999e-16 -4.12244
16055 1 59.3468 38.3614 31.4734 3 3.99999e-16 -4.12244
16056 1 61.8196 38.3614 31.4734 3 5.77599e-17 -4.12244
16057 1 60.9953 38.3614 29.142 3 9.99999e-17 -4.12244
16058 1 63.4681 38.3614 29.142 3 2.304e-17 -4.12244
16059 1 62.6439 38.3614 26.8107 3 5.76e-18 -4.12244
16060 1 51.1042 36.3424 46.6273 3 1.0169e-16 -4.12244
16061 1 53.577 36.3424 46.6273 3 4.0169e-16 -4.12244
16062 1 52.7527 36.3424 44.2959 3 4.00001e-16 -4.12244
16063 1 55.2255 36.3424 44.2959 3 1e-16 -4.12244
16064 1 54.4012 36.3424 41.9645 3 1e-16 -4.12244
16065 1 56.874 36.3424 41.9645 3 0 -4.12244
16066 1 56.0498 36.3424 39.6332 3 0 -4.12244
16067 1 58.5226 36.3424 39.6332 3 9.99999e-17 -4.12244
16068 1 57.6983 36.3424 37.3018 3 1e-16 -4.12244
16069 1 60.1711 36.3424 37.3018 3 3.99999e-16 -4.12244
16070 1 59.3468 36.3424 34.9704 3 3.99999e-16 -4.12244
16071 1 61.8196 36.3424 34.9704 3 5.77599e-17 -4.12244
16072 1 60.9953 36.3424 32.6391 3 9.99999e-17 -4.12244
16073 1 63.4681 36.3424 32.6391 3 2.304e-17 -4.12244
16074 1 62.6439 36.3424 30.3077 3 5.76e-18 -4.12244
16075 1 52.7527 34.3233 47.7929 3 4.05071e-16 -4.12244
16076 1 55.2255 34.3233 47.7929 3 1.0507e-16 -4.12244
16077 1 54.4012 34.3233 45.4616 3 1e-16 -4.12244
16078 1 56.874 34.3233 45.4616 3 0 -4.12244
16079 1 56.0498 34.3233 43.1302 3 6.05845e-28 -4.12244
16080 1 58.5226 34.3233 43.1302 3 9.99999e-17 -4.12244
16081 1 57.6983 34.3233 40.7989 3 1e-16 -4.12244
16082 1 60.1711 34.3233 40.7989 3 3.99999e-16 -4.12244
16083 1 59.3468 34.3233 38.4675 3 3.99999e-16 -4.12244
16084 1 61.8196 34.3233 38.4675 3 5.77599e-17 -4.12244
16085 1 60.9953 34.3233 36.1361 3 9.99999e-17 -4.12244
16086 1 63.4681 34.3233 36.1361 3 2.304e-17 -4.12244
16087 1 62.6439 34.3233 33.8048 3 5.76e-18 -4.12244
16088 1 56.0498 32.3043 46.6273 3 1.69002e-18 -4.12244
16089 1 58.5226 32.3043 46.6273 3 1.0169e-16 -4.12244
16090 1 57.6983 32.3043 44.2959 3 1e-16 -4.12244
16091 1 60.1711 32.3043 44.2959 3 3.99999e-16 -4.12244
16092 1 59.3468 32.3043 41.9645 3 3.99999e-16 -4.12244
16093 1 61.8196 32.3043 41.9645 3 5.77599e-17 -4.12244
16094 1 60.9953 32.3043 39.6332 3 9.99999e-17 -4.12244
16095 1 63.4681 32.3043 39.6332 3 2.304e-17 -4.12244
16096 1 62.6439 32.3043 37.3018 3 5.76e-18 -4.12244
16097 1 57.6983 30.2853 47.7929 3 1.0507e-16 -4.12244
16098 1 60.1711 30.2853 47.7929 3 4.05069e-16 -4.12244
16099 1 59.3468 30.2853 45.4616 3 3.99999e-16 -4.12244
16100 1 61.8196 30.2853 45.4616 3 5.77599e-17 -4.12244
16101 1 60.9953 30.2853 43.1302 3 9.99999e-17 -4.12244
16102 1 63.4681 30.2853 43.1302 3 2.304e-17 -4.12244
16103 1 62.6439 30.2853 40.7989 3 5.76e-18 -4.12244
16104 1 60.9953 28.2663 46.6273 3 1.0169e-16 -4.12244
16105 1 63.4681 28.2663 46.6273 3 2.473e-17 -4.12244
16106 1 62.6439 28.2663 44.2959 3 5.76e-18 -4.12244
16107 1 62.6439 26.2473 47.7929 3 1.083e-17 -4.12244
16108 1 23.0793 62.5896 47.7929 5 12.2293 -3.54465
16109 1 25.5521 62.5896 47.7929 5 12.2293 -3.54465
16110 1 24.7278 62.5896 45.4616 5 12.2293 -3.54465
16111 1 27.2006 62.5896 45.4616 5 12.2293 -3.54465
16112 1 26.3764 62.5896 43.1302 5 12.2293 -3.54465
16113 1 28.8491 62.5896 43.1302 5 12.2293 -3.54465
16114 1 28.0249 62.5896 40.7989 5 12.2293 -3.54465
16115 1 30.4977 62.5896 40.7989 5 12.2293 -3.54465
16116 1 29.6734 62.5896 38.4675 5 12.2293 -3.54465
16117 1 32.1462 62.5896 38.4675 5 12.2293 -3.54465
16118 1 31.3219 62.5896 36.1361 5 12.2293 -3.54465
16119 1 33.7947 62.5896 36.1361 5 12.2293 -3.54465
16120 1 32.9705 62.5896 33.8048 5 12.2293 -3.54465
16121 1 35.4432 62.5896 33.8048 5 12.2293 -3.54465
16122 1 34.619 62.5896 31.4734 5 12.2293 -3.54465
16123 1 37.0918 62.5896 31.4734 5 12.2293 -3.54465
16124 1 36.2675 62.5896 29.142 5 12.2293 -3.54465
16125 1 38.7403 62.5896 29.142 5 12.2293 -3.54465
16126 1 37.916 62.5896 26.8107 5 12.2293 -3.54465
16127 1 40.3888 62.5896 26.8107 5 12.2293 -3.54465
16128 1 39.5645 62.5896 24.4793 5 12.2293 -3.54465
16129 1 42.0373 62.5896 24.4793 5 12.2293 -3.54465
16130 1 41.2131 62.5896 22.1479 5 12.2293 -3.54465
16131 1 43.6859 62.5896 22.1479 5 12.2293 -3.54465
16132 1 42.8616 62.5896 19.8166 5 12.2293 -3.54465
16133 1 45.3344 62.5896 19.8166 5 12.2293 -3.54465
16134 1 44.5101 62.5896 17.4852 5 12.2293 -3.54465
16135 1 46.9829 62.5896 17.4852 5 12.2293 -3.54465
16136 1 46.1586 62.5896 15.1539 5 12.2293 -3.54465
16137 1 48.6314 62.5896 15.1539 5 12.2293 -3.54465
16138 1 47.8072 62.5896 12.8225 5 12.2293 -3.54465
16139 1 50.2799 62.5896 12.8225 5 12.2293 -3.54465
16140 1 49.4557 62.5896 10.4911 5 12.2293 -3.54465
16141 1 51.9285 62.5896 10.4911 5 12.2293 -3.54465
16142 1 51.1042 62.5896 8.15977 5 12.2293 -3.54465
16143 1 53.577 62.5896 8.15977 5 12.2293 -3.54465
16144 1 52.7527 62.5896 5.82841 5 12.2293 -3.54465
16145 1 55.2255 62.5896 5.82841 5 12.2293 -3.54465
16146 1 54.4012 62.5896 3.49704 5 12.2293 -3.54465
16147 1 56.874 62.5896 3.49704 5 12.2293 -3.54465
16148 1 56.0498 62.5896 1.16568 5 12.2293 -3.54465
16149 1 58.5226 62.5896 1.16568 5 12.2293 -3.54465
16150 1 26.3764 60.5706 46.6273 3 1.0169e-16 -4.10627
16151 1 28.8491 60.5706 46.6273 3 4.0169e-16 -4.10627
16152 1 28.0249 60.5706 44.2959 3 3.99999e-16 -4.10627
16153 1 30.4977 60.5706 44.2959 3 9.99999e-17 -4.10627
16154 1 29.6734 60.5706 41.9645 3 1e-16 -4.10627
16155 1 32.1462 60.5706 41.9645 3 9.99999e-17 -4.10627
16156 1 31.3219 60.5706 39.6332 3 4.03897e-28 -4.10627
16157 1 33.7947 60.5706 39.6332 3 4.00001e-16 -4.10627
16158 1 32.9705 60.5706 37.3018 3 9.99999e-17 -4.10627
16159 1 35.4432 60.5706 37.3018 3 1e-16 -4.10627
16160 1 34.619 60.5706 34.9704 3 4e-16 -4.10627
16161 1 37.0918 60.5706 34.9704 3 6.05845e-28 -4.10627
16162 1 36.2675 60.5706 32.6391 3 1e-16 -4.10627
16163 1 38.7403 60.5706 32.6391 3 1e-16 -4.10627
16164 1 37.916 60.5706 30.3077 3 1.21169e-27 -4.10627
16165 1 40.3888 60.5706 30.3077 3 3.99999e-16 -4.10627
16166 1 39.5645 60.5706 27.9764 3 1e-16 -4.10627
16167 1 42.0373 60.5706 27.9764 3 1e-16 -4.10627
16168 1 41.2131 60.5706 25.645 3 4.00001e-16 -4.10627
16169 1 43.6859 60.5706 25.645 3 7.57306e-28 -4.10627
16170 1 42.8616 60.5706 23.3136 3 9.99999e-17 -4.10627
16171 1 45.3344 60.5706 23.3136 3 9.99999e-17 -4.10627
16172 1 44.5101 60.5706 20.9823 3 6.05845e-28 -4.10627
16173 1 46.9829 60.5706 20.9823 3 3.99999e-16 -4.10627
16174 1 46.1586 60.5706 18.6509 3 9.99999e-17 -4.10627
16175 1 48.6314 60.5706 18.6509 3 9.99999e-17 -4.10627
16176 1 47.8072 60.5706 16.3195 3 3.99999e-16 -4.10627
16177 1 50.2799 60.5706 16.3195 3 7.06819e-28 -4.10627
16178 1 49.4557 60.5706 13.9882 3 9.99999e-17 -4.10627
16179 1 51.9285 60.5706 13.9882 3 1e-16 -4.10627
16180 1 51.1042 60.5706 11.6568 3 9.99999e-17 -4.10627
16181 1 53.577 60.5706 11.6568 3 3.99999e-16 -4.10627
16182 1 52.7527 60.5706 9.32545 3 4.00001e-16 -4.10627
16183 1 55.2255 60.5706 9.32545 3 1e-16 -4.10627
16184 1 54.4012 60.5706 6.99409 3 1e-16 -4.10627
16185 1 56.874 60.5706 6.99409 3 4.03897e-28 -4.10627
16186 1 56.0498 60.5706 4.66273 3 4.03897e-28 -4.10627
16187 1 58.5226 60.5706 4.66273 3 9.99999e-17 -4.10627
16188 1 57.6983 60.5706 2.33136 3 1e-16 -4.10627
16189 1 60.1711 60.5706 2.33136 3 3.99999e-16 -4.10627
16190 1 59.3468 60.5706 0 3 4.0507e-16 -4.10627
16191 1 61.8196 60.5706 0 3 6.28299e-17 -4.10627
16192 1 28.0249 58.5516 47.7929 3 4.05069e-16 -4.12244
16193 1 30.4977 58.5516 47.7929 3 1.0507e-16 -4.12244
16194 1 29.6734 58.5516 45.4616 3 1e-16 -4.12244
16195 1 32.1462 58.5516 45.4616 3 9.99999e-17 -4.12244
16196 1 31.3219 58.5516 43.1302 3 6.05845e-28 -4.12244
16197 1 33.7947 58.5516 43.1302 3 4.00001e-16 -4.12244
16198 1 32.9705 58.5516 40.7989 3 9.99999e-17 -4.12244
16199 1 35.4432 58.5516 40.7989 3 1e-16 -4.12244
16200 1 34.619 58.5516 38.4675 3 4e-16 -4.12244
16201 1 37.0918 58.5516 38.4675 3 0 -4.12244
16202 1 36.2675 58.5516 36.1361 3 1e-16 -4.12244
16203 1 38.7403 58.5516 36.1361 3 1e-16 -4.12244
16204 1 37.916 58.5516 33.8048 3 8.07794e-28 -4.12244
16205 1 40.3888 58.5516 33.8048 3 3.99999e-16 -4.12244
16206 1 39.5645 58.5516 31.4734 3 1e-16 -4.12244
16207 1 42.0373 58.5516 31.4734 3 1e-16 -4.12244
16208 1 41.2131 58.5516 29.142 3 4.00001e-16 -4.12244
16209 1 43.6859 58.5516 29.142 3 3.5341e-28 -4.12244
16210 1 42.8616 58.5516 26.8107 3 9.99999e-17 -4.12244
16211 1 45.3344 58.5516 26.8107 3 9.99999e-17 -4.12244
16212 1 44.5101 58.5516 24.4793 3 3.02923e-28 -4.12244
16213 1 46.9829 58.5516 24.4793 3 3.99999e-16 -4.12244
16214 1 46.1586 58.5516 22.1479 3 9.99999e-17 -4.12244
16215 1 48.6314 58.5516 22.1479 3 9.99999e-17 -4.12244
16216 1 47.8072 58.5516 19.8166 3 3.99999e-16 -4.12244
16217 1 50.2799 58.5516 19.8166 3 2.01948e-28 -4.12244
16218 1 49.4557 58.5516 17.4852 3 9.99999e-17 -4.12244
16219 1 51.9285 58.5516 17.4852 3 1e-16 -4.12244
16220 1 51.1042 58.5516 15.1539 3 9.99999e-17 -4.12244
16221 1 53.577 58.5516 15.1539 3 3.99999e-16 -4.12244
16222 1 52.7527 58.5516 12.8225 3 4.00001e-16 -4.12244
16223 1 55.2255 58.5516 12.8225 3 1e-16 -4.12244
16224 1 54.4012 58.5516 10.4911 3 1e-16 -4.12244
16225 1 56.874 58.5516 10.4911 3 0 -4.12244
16226 1 56.0498 58.5516 8.15977 3 1.26218e-29 -4.12244
16227 1 58.5226 58.5516 8.15977 3 9.99999e-17 -4.12244
16228 1 57.6983 58.5516 5.82841 3 1e-16 -4.12244
16229 1 60.1711 58.5516 5.82841 3 3.99999e-16 -4.12244
16230 1 59.3468 58.5516 3.49704 3 3.99999e-16 -4.12244
16231 1 61.8196 58.5516 3.49704 3 5.77599e-17 -4.12244
16232 1 60.9953 58.5516 1.16568 3 1.0169e-16 -4.12244
16233 1 63.4681 58.5516 1.16568 3 2.473e-17 -4.12244
16234 1 31.3219 56.5326 46.6273 3 1.69002e-18 -4.12244
16235 1 33.7947 56.5326 46.6273 3 4.01691e-16 -4.12244
16236 1 32.9705 56.5326 44.2959 3 9.99999e-17 -4.12244
16237 1 35.4432 56.5326 44.2959 3 1e-16 -4.12244
16238 1 34.619 56.5326 41.9645 3 4e-16 -4.12244
16239 1 37.0918 56.5326 41.9645 3 0 -4.12244
16240 1 36.2675 56.5326 39.6332 3 1e-16 -4.12244
16241 1 38.7403 56.5326 39.6332 3 1e-16 -4.12244
16242 1 37.916 56.5326 37.3018 3 8.07794e-28 -4.12244
16243 1 40.3888 56.5326 37.3018 3 3.99999e-16 -4.12244
16244 1 39.5645 56.5326 34.9704 3 1e-16 -4.12244
16245 1 42.0373 56.5326 34.9704 3 1e-16 -4.12244
16246 1 41.2131 56.5326 32.6391 3 4.00001e-16 -4.12244
16247 1 43.6859 56.5326 32.6391 3 4.03897e-28 -4.12244
16248 1 42.8616 56.5326 30.3077 3 9.99999e-17 -4.12244
16249 1 45.3344 56.5326 30.3077 3 9.99999e-17 -4.12244
16250 1 44.5101 56.5326 27.9764 3 3.5341e-28 -4.12244
16251 1 46.9829 56.5326 27.9764 3 3.99999e-16 -4.12244
16252 1 46.1586 56.5326 25.645 3 9.99999e-17 -4.12244
16253 1 48.6314 56.5326 25.645 3 9.99999e-17 -4.12244
16254 1 47.8072 56.5326 23.3136 3 3.99999e-16 -4.12244
16255 1 50.2799 56.5326 23.3136 3 2.01948e-28 -4.12244
16256 1 49.4557 56.5326 20.9823 3 9.99999e-17 -4.12244
16257 1 51.9285 56.5326 20.9823 3 1e-16 -4.12244
16258 1 51.1042 56.5326 18.6509 3 9.99999e-17 -4.12244
16259 1 53.577 56.5326 18.6509 3 3.99999e-16 -4.12244
16260 1 52.7527 56.5326 16.3195 3 4.00001e-16 -4.12244
16261 1 55.2255 56.5326 16.3195 3 1e-16 -4.12244
16262 1 54.4012 56.5326 13.9882 3 1e-16 -4.12244
16263 1 56.874 56.5326 13.9882 3 2.52435e-29 -4.12244
16264 1 56.0498 56.5326 11.6568 3 0 -4.12244
16265 1 58.5226 56.5326 11.6568 3 9.99999e-17 -4.12244
16266 1 57.6983 56.5326 9.32545 3 1e-16 -4.12244
16267 1 60.1711 56.5326 9.32545 3 3.99999e-16 -4.12244
16268 1 59.3468 56.5326 6.99409 3 3.99999e-16 -4.12244
16269 1 61.8196 56.5326 6.99409 3 5.77599e-17 -4.12244
16270 1 60.9953 56.5326 4.66273 3 9.99999e-17 -4.12244
16271 1 63.4681 56.5326 4.66273 3 2.304e-17 -4.12244
16272 1 62.6439 56.5326 2.33136 3 5.76e-18 -4.12244
16273 1 32.9705 54.5135 47.7929 3 1.0507e-16 -4.12244
16274 1 35.4432 54.5135 47.7929 3 1.0507e-16 -4.12244
16275 1 34.619 54.5135 45.4616 3 4e-16 -4.12244
16276 1 37.0918 54.5135 45.4616 3 0 -4.12244
16277 1 36.2675 54.5135 43.1302 3 1e-16 -4.12244
16278 1 38.7403 54.5135 43.1302 3 1e-16 -4.12244
16279 1 37.916 54.5135 40.7989 3 1.41364e-27 -4.12244
16280 1 40.3888 54.5135 40.7989 3 3.99999e-16 -4.12244
16281 1 39.5645 54.5135 38.4675 3 1e-16 -4.12244
16282 1 42.0373 54.5135 38.4675 3 1e-16 -4.12244
16283 1 41.2131 54.5135 36.1361 3 4.00001e-16 -4.12244
16284 1 43.6859 54.5135 36.1361 3 8.07794e-28 -4.12244
16285 1 42.8616 54.5135 33.8048 3 9.99999e-17 -4.12244
16286 1 45.3344 54.5135 33.8048 3 9.99999e-17 -4.12244
16287 1 44.5101 54.5135 31.4734 3 2.52435e-28 -4.12244
16288 1 46.9829 54.5135 31.4734 3 3.99999e-16 -4.12244
16289 1 46.1586 54.5135 29.142 3 9.99999e-17 -4.12244
16290 1 48.6314 54.5135 29.142 3 9.99999e-17 -4.12244
16291 1 47.8072 54.5135 26.8107 3 3.99999e-16 -4.12244
16292 1 50.2799 54.5135 26.8107 3 2.01948e-28 -4.12244
16293 1 49.4557 54.5135 24.4793 3 9.99999e-17 -4.12244
16294 1 51.9285 54.5135 24.4793 3 1e-16 -4.12244
16295 1 51.1042 54.5135 22.1479 3 9.99999e-17 -4.12244
16296 1 53.577 54.5135 22.1479 3 3.99999e-16 -4.12244
16297 1 52.7527 54.5135 19.8166 3 4.00001e-16 -4.12244
16298 1 55.2255 54.5135 19.8166 3 1e-16 -4.12244
16299 1 54.4012 54.5135 17.4852 3 1e-16 -4.12244
16300 1 56.874 54.5135 17.4852 3 1.00974e-28 -4.12244
16301 1 56.0498 54.5135 15.1539 3 0 -4.12244
16302 1 58.5226 54.5135 15.1539 3 9.99999e-17 -4.12244
16303 1 57.6983 54.5135 12.8225 3 1e-16 -4.12244
16304 1 60.1711 54.5135 12.8225 3 3.99999e-16 -4.12244
16305 1 59.3468 54.5135 10.4911 3 3.99999e-16 -4.12244
16306 1 61.8196 54.5135 10.4911 3 5.77599e-17 -4.12244
16307 1 60.9953 54.5135 8.15977 3 9.99999e-17 -4.12244
16308 1 63.4681 54.5135 8.15977 3 2.304e-17 -4.12244
16309 1 62.6439 54.5135 5.82841 3 5.76e-18 -4.12244
16310 1 36.2675 52.4945 46.6273 3 1.0169e-16 -4.12244
16311 1 38.7403 52.4945 46.6273 3 1.0169e-16 -4.12244
16312 1 37.916 52.4945 44.2959 3 8.07794e-28 -4.12244
16313 1 40.3888 52.4945 44.2959 3 3.99999e-16 -4.12244
16314 1 39.5645 52.4945 41.9645 3 1e-16 -4.12244
16315 1 42.0373 52.4945 41.9645 3 1e-16 -4.12244
16316 1 41.2131 52.4945 39.6332 3 4.00001e-16 -4.12244
16317 1 43.6859 52.4945 39.6332 3 2.01948e-28 -4.12244
16318 1 42.8616 52.4945 37.3018 3 9.99999e-17 -4.12244
16319 1 45.3344 52.4945 37.3018 3 9.99999e-17 -4.12244
16320 1 44.5101 52.4945 34.9704 3 4.03897e-28 -4.12244
16321 1 46.9829 52.4945 34.9704 3 3.99999e-16 -4.12244
16322 1 46.1586 52.4945 32.6391 3 9.99999e-17 -4.12244
16323 1 48.6314 52.4945 32.6391 3 9.99999e-17 -4.12244
16324 1 47.8072 52.4945 30.3077 3 3.99999e-16 -4.12244
16325 1 50.2799 52.4945 30.3077 3 2.01948e-28 -4.12244
16326 1 49.4557 52.4945 27.9764 3 9.99999e-17 -4.12244
16327 1 51.9285 52.4945 27.9764 3 1e-16 -4.12244
16328 1 51.1042 52.4945 25.645 3 9.99999e-17 -4.12244
16329 1 53.577 52.4945 25.645 3 3.99999e-16 -4.12244
16330 1 52.7527 52.4945 23.3136 3 4.00001e-16 -4.12244
16331 1 55.2255 52.4945 23.3136 3 1e-16 -4.12244
16332 1 54.4012 52.4945 20.9823 3 1e-16 -4.12244
16333 1 56.874 52.4945 20.9823 3 0 -4.12244
16334 1 56.0498 52.4945 18.6509 3 0 -4.12244
16335 1 58.5226 52.4945 18.6509 3 9.99999e-17 -4.12244
16336 1 57.6983 52.4945 16.3195 3 1e-16 -4.12244
16337 1 60.1711 52.4945 16.3195 3 3.99999e-16 -4.12244
16338 1 59.3468 52.4945 13.9882 3 3.99999e-16 -4.12244
16339 1 61.8196 52.4945 13.9882 3 5.77599e-17 -4.12244
16340 1 60.9953 52.4945 11.6568 3 9.99999e-17 -4.12244
16341 1 63.4681 52.4945 11.6568 3 2.304e-17 -4.12244
16342 1 62.6439 52.4945 9.32545 3 5.76e-18 -4.12244
16343 1 37.916 50.4755 47.7929 3 5.06996e-18 -4.12244
16344 1 40.3888 50.4755 47.7929 3 4.05069e-16 -4.12244
16345 1 39.5645 50.4755 45.4616 3 1e-16 -4.12244
16346 1 42.0373 50.4755 45.4616 3 1e-16 -4.12244
16347 1 41.2131 50.4755 43.1302 3 4.00001e-16 -4.12244
16348 1 43.6859 50.4755 43.1302 3 8.07794e-28 -4.12244
16349 1 42.8616 50.4755 40.7989 3 9.99999e-17 -4.12244
16350 1 45.3344 50.4755 40.7989 3 9.99999e-17 -4.12244
16351 1 44.5101 50.4755 38.4675 3 2.01948e-28 -4.12244
16352 1 46.9829 50.4755 38.4675 3 3.99999e-16 -4.12244
16353 1 46.1586 50.4755 36.1361 3 9.99999e-17 -4.12244
16354 1 48.6314 50.4755 36.1361 3 9.99999e-17 -4.12244
16355 1 47.8072 50.4755 33.8048 3 3.99999e-16 -4.12244
16356 1 50.2799 50.4755 33.8048 3 2.01948e-28 -4.12244
16357 1 49.4557 50.4755 31.4734 3 9.99999e-17 -4.12244
16358 1 51.9285 50.4755 31.4734 3 1e-16 -4.12244
16359 1 51.1042 50.4755 29.142 3 9.99999e-17 -4.12244
16360 1 53.577 50.4755 29.142 3 3.99999e-16 -4.12244
16361 1 52.7527 50.4755 26.8107 3 4.00001e-16 -4.12244
16362 1 55.2255 50.4755 26.8107 3 1e-16 -4.12244
16363 1 54.4012 50.4755 24.4793 3 1e-16 -4.12244
16364 1 56.874 50.4755 24.4793 3 1.00974e-28 -4.12244
16365 1 56.0498 50.4755 22.1479 3 0 -4.12244
16366 1 58.5226 50.4755 22.1479 3 9.99999e-17 -4.12244
16367 1 57.6983 50.4755 19.8166 3 1e-16 -4.12244
16368 1 60.1711 50.4755 19.8166 3 3.99999e-16 -4.12244
16369 1 59.3468 50.4755 17.4852 3 3.99999e-16 -4.12244
16370 1 61.8196 50.4755 17.4852 3 5.77599e-17 -4.12244
16371 1 60.9953 50.4755 15.1539 3 9.99999e-17 -4.12244
16372 1 63.4681 50.4755 15.1539 3 2.304e-17 -4.12244
16373 1 62.6439 50.4755 12.8225 3 5.76e-18 -4.12244
16374 1 41.2131 48.4565 46.6273 3 4.01691e-16 -4.12244
16375 1 43.6859 48.4565 46.6273 3 1.69002e-18 -4.12244
16376 1 42.8616 48.4565 44.2959 3 9.99999e-17 -4.12244
16377 1 45.3344 48.4565 44.2959 3 9.99999e-17 -4.12244
16378 1 44.5101 48.4565 41.9645 3 2.01948e-28 -4.12244
16379 1 46.9829 48.4565 41.9645 3 3.99999e-16 -4.12244
16380 1 46.1586 48.4565 39.6332 3 9.99999e-17 -4.12244
16381 1 48.6314 48.4565 39.6332 3 9.99999e-17 -4.12244
16382 1 47.8072 48.4565 37.3018 3 3.99999e-16 -4.12244
16383 1 50.2799 48.4565 37.3018 3 2.01948e-28 -4.12244
16384 1 49.4557 48.4565 34.9704 3 9.99999e-17 -4.12244
16385 1 51.9285 48.4565 34.9704 3 1e-16 -4.12244
16386 1 51.1042 48.4565 32.6391 3 9.99999e-17 -4.12244
16387 1 53.577 48.4565 32.6391 3 3.99999e-16 -4.12244
16388 1 52.7527 48.4565 30.3077 3 4.00001e-16 -4.12244
16389 1 55.2255 48.4565 30.3077 3 1e-16 -4.12244
16390 1 54.4012 48.4565 27.9764 3 1e-16 -4.12244
16391 1 56.874 48.4565 27.9764 3 1.51461e-28 -4.12244
16392 1 56.0498 48.4565 25.645 3 1.51461e-28 -4.12244
16393 1 58.5226 48.4565 25.645 3 9.99999e-17 -4.12244
16394 1 57.6983 48.4565 23.3136 3 1e-16 -4.12244
16395 1 60.1711 48.4565 23.3136 3 3.99999e-16 -4.12244
16396 1 59.3468 48.4565 20.9823 3 3.99999e-16 -4.12244
16397 1 61.8196 48.4565 20.9823 3 5.77599e-17 -4.12244
16398 1 60.9953 48.4565 18.6509 3 9.99999e-17 -4.12244
16399 1 63.4681 48.4565 18.6509 3 2.304e-17 -4.12244
16400 1 62.6439 48.4565 16.3195 3 5.76e-18 -4.12244
16401 1 42.8616 46.4375 47.7929 3 1.0507e-16 -4.12244
16402 1 45.3344 46.4375 47.7929 3 1.0507e-16 -4.12244
16403 1 44.5101 46.4375 45.4616 3 2.01948e-28 -4.12244
16404 1 46.9829 46.4375 45.4616 3 3.99999e-16 -4.12244
16405 1 46.1586 46.4375 43.1302 3 9.99999e-17 -4.12244
16406 1 48.6314 46.4375 43.1302 3 9.99999e-17 -4.12244
16407 1 47.8072 46.4375 40.7989 3 3.99999e-16 -4.12244
16408 1 50.2799 46.4375 40.7989 3 8.07794e-28 -4.12244
16409 1 49.4557 46.4375 38.4675 3 9.99999e-17 -4.12244
16410 1 51.9285 46.4375 38.4675 3 1e-16 -4.12244
16411 1 51.1042 46.4375 36.1361 3 9.99999e-17 -4.12244
16412 1 53.577 46.4375 36.1361 3 3.99999e-16 -4.12244
16413 1 52.7527 46.4375 33.8048 3 4.00001e-16 -4.12244
16414 1 55.2255 46.4375 33.8048 3 1e-16 -4.12244
16415 1 54.4012 46.4375 31.4734 3 1e-16 -4.12244
16416 1 56.874 46.4375 31.4734 3 5.04871e-29 -4.12244
16417 1 56.0498 46.4375 29.142 3 1.51461e-28 -4.12244
16418 1 58.5226 46.4375 29.142 3 9.99999e-17 -4.12244
16419 1 57.6983 46.4375 26.8107 3 1e-16 -4.12244
16420 1 60.1711 46.4375 26.8107 3 3.99999e-16 -4.12244
16421 1 59.3468 46.4375 24.4793 3 3.99999e-16 -4.12244
16422 1 61.8196 46.4375 24.4793 3 5.77599e-17 -4.12244
16423 1 60.9953 46.4375 22.1479 3 9.99999e-17 -4.12244
16424 1 63.4681 46.4375 22.1479 3 2.304e-17 -4.12244
16425 1 62.6439 46.4375 19.8166 3 5.76e-18 -4.12244
16426 1 46.1586 44.4184 46.6273 3 1.0169e-16 -4.12244
16427 1 48.6314 44.4184 46.6273 3 1.0169e-16 -4.12244
16428 1 47.8072 44.4184 44.2959 3 3.99999e-16 -4.12244
16429 1 50.2799 44.4184 44.2959 3 2.01948e-28 -4.12244
16430 1 49.4557 44.4184 41.9645 3 9.99999e-17 -4.12244
16431 1 51.9285 44.4184 41.9645 3 1e-16 -4.12244
16432 1 51.1042 44.4184 39.6332 3 9.99999e-17 -4.12244
16433 1 53.577 44.4184 39.6332 3 3.99999e-16 -4.12244
16434 1 52.7527 44.4184 37.3018 3 4.00001e-16 -4.12244
16435 1 55.2255 44.4184 37.3018 3 1e-16 -4.12244
16436 1 54.4012 44.4184 34.9704 3 1e-16 -4.12244
16437 1 56.874 44.4184 34.9704 3 2.01948e-28 -4.12244
16438 1 56.0498 44.4184 32.6391 3 2.01948e-28 -4.12244
16439 1 58.5226 44.4184 32.6391 3 9.99999e-17 -4.12244
16440 1 57.6983 44.4184 30.3077 3 1e-16 -4.12244
16441 1 60.1711 44.4184 30.3077 3 3.99999e-16 -4.12244
16442 1 59.3468 44.4184 27.9764 3 3.99999e-16 -4.12244
16443 1 61.8196 44.4184 27.9764 3 5.77599e-17 -4.12244
16444 1 60.9953 44.4184 25.645 3 9.99999e-17 -4.12244
16445 1 63.4681 44.4184 25.645 3 2.304e-17 -4.12244
16446 1 62.6439 44.4184 23.3136 3 5.76e-18 -4.12244
16447 1 47.8072 42.3994 47.7929 3 4.05069e-16 -4.12244
16448 1 50.2799 42.3994 47.7929 3 5.06996e-18 -4.12244
16449 1 49.4557 42.3994 45.4616 3 9.99999e-17 -4.12244
16450 1 51.9285 42.3994 45.4616 3 1e-16 -4.12244
16451 1 51.1042 42.3994 43.1302 3 9.99999e-17 -4.12244
16452 1 53.577 42.3994 43.1302 3 3.99999e-16 -4.12244
16453 1 52.7527 42.3994 40.7989 3 4.00001e-16 -4.12244
16454 1 55.2255 42.3994 40.7989 3 1e-16 -4.12244
16455 1 54.4012 42.3994 38.4675 3 1e-16 -4.12244
16456 1 56.874 42.3994 38.4675 3 0 -4.12244
16457 1 56.0498 42.3994 36.1361 3 6.05845e-28 -4.12244
16458 1 58.5226 42.3994 36.1361 3 9.99999e-17 -4.12244
16459 1 57.6983 42.3994 33.8048 3 1e-16 -4.12244
16460 1 60.1711 42.3994 33.8048 3 3.99999e-16 -4.12244
16461 1 59.3468 42.3994 31.4734 3 3.99999e-16 -4.12244
16462 1 61.8196 42.3994 31.4734 3 5.77599e-17 -4.12244
16463 1 60.9953 42.3994 29.142 3 9.99999e-17 -4.12244
16464 1 63.4681 42.3994 29.142 3 2.304e-17 -4.12244
16465 1 62.6439 42.3994 26.8107 3 5.76e-18 -4.12244
16466 1 51.1042 40.3804 46.6273 3 1.0169e-16 -4.12244
16467 1 53.577 40.3804 46.6273 3 4.0169e-16 -4.12244
16468 1 52.7527 40.3804 44.2959 3 4.00001e-16 -4.12244
16469 1 55.2255 40.3804 44.2959 3 1e-16 -4.12244
16470 1 54.4012 40.3804 41.9645 3 1e-16 -4.12244
16471 1 56.874 40.3804 41.9645 3 0 -4.12244
16472 1 56.0498 40.3804 39.6332 3 0 -4.12244
16473 1 58.5226 40.3804 39.6332 3 9.99999e-17 -4.12244
16474 1 57.6983 40.3804 37.3018 3 1e-16 -4.12244
16475 1 60.1711 40.3804 37.3018 3 3.99999e-16 -4.12244
16476 1 59.3468 40.3804 34.9704 3 3.99999e-16 -4.12244
16477 1 61.8196 40.3804 34.9704 3 5.77599e-17 -4.12244
16478 1 60.9953 40.3804 32.6391 3 9.99999e-17 -4.12244
16479 1 63.4681 40.3804 32.6391 3 2.304e-17 -4.12244
16480 1 62.6439 40.3804 30.3077 3 5.76e-18 -4.12244
16481 1 52.7527 38.3614 47.7929 3 4.05071e-16 -4.12244
16482 1 55.2255 38.3614 47.7929 3 1.0507e-16 -4.12244
16483 1 54.4012 38.3614 45.4616 3 1e-16 -4.12244
16484 1 56.874 38.3614 45.4616 3 0 -4.12244
16485 1 56.0498 38.3614 43.1302 3 6.05845e-28 -4.12244
16486 1 58.5226 38.3614 43.1302 3 9.99999e-17 -4.12244
16487 1 57.6983 38.3614 40.7989 3 1e-16 -4.12244
16488 1 60.1711 38.3614 40.7989 3 3.99999e-16 -4.12244
16489 1 59.3468 38.3614 38.4675 3 3.99999e-16 -4.12244
16490 1 61.8196 38.3614 38.4675 3 5.77599e-17 -4.12244
16491 1 60.9953 38.3614 36.1361 3 9.99999e-17 -4.12244
16492 1 63.4681 38.3614 36.1361 3 2.304e-17 -4.12244
16493 1 62.6439 38.3614 33.8048 3 5.76e-18 -4.12244
16494 1 56.0498 36.3424 46.6273 3 1.69002e-18 -4.12244
16495 1 58.5226 36.3424 46.6273 3 1.0169e-16 -4.12244
16496 1 57.6983 36.3424 44.2959 3 1e-16 -4.12244
16497 1 60.1711 36.3424 44.2959 3 3.99999e-16 -4.12244
16498 1 59.3468 36.3424 41.9645 3 3.99999e-16 -4.12244
16499 1 61.8196 36.3424 41.9645 3 5.77599e-17 -4.12244
16500 1 60.9953 36.3424 39.6332 3 9.99999e-17 -4.12244
16501 1 63.4681 36.3424 39.6332 3 2.304e-17 -4.12244
16502 1 62.6439 36.3424 37.3018 3 5.76e-18 -4.12244
16503 1 57.6983 34.3233 47.7929 3 1.0507e-16 -4.12244
16504 1 60.1711 34.3233 47.7929 3 4.05069e-16 -4.12244
16505 1 59.3468 34.3233 45.4616 3 3.99999e-16 -4.12244
16506 1 61.8196 34.3233 45.4616 3 5.77599e-17 -4.12244
16507 1 60.9953 34.3233 43.1302 3 9.99999e-17 -4.12244
16508 1 63.4681 34.3233 43.1302 3 2.304e-17 -4.12244
16509 1 62.6439 34.3233 40.7989 3 5.76e-18 -4.12244
16510 1 60.9953 32.3043 46.6273 3 1.0169e-16 -4.12244
16511 1 63.4681 32.3043 46.6273 3 2.473e-17 -4.12244
16512 1 62.6439 32.3043 44.2959 3 5.76e-18 -4.12244
16513 1 62.6439 30.2853 47.7929 3 1.083e-17 -4.12244
16514 1 28.0249 62.5896 47.7929 5 12.2293 -3.54465
16515 1 30.4977 62.5896 47.7929 5 12.2293 -3.54465
16516 1 29.6734 62.5896 45.4616 5 12.2293 -3.54465
16517 1 32.1462 62.5896 45.4616 5 12.2293 -3.54465
16518 1 31.3219 62.5896 43.1302 5 12.2293 -3.54465
16519 1 33.7947 62.5896 43.1302 5 12.2293 -3.54465
16520 1 32.9705 62.5896 40.7989 5 12.2293 -3.54465
16521 1 35.4432 62.5896 40.7989 5 12.2293 -3.54465
16522 1 34.619 62.5896 38.4675 5 12.2293 -3.54465
16523 1 37.0918 62.5896 38.4675 5 12.2293 -3.54465
16524 1 36.2675 62.5896 36.1361 5 12.2293 -3.54465
16525 1 38.7403 62.5896 36.1361 5 12.2293 -3.54465
16526 1 37.916 62.5896 33.8048 5 12.2293 -3.54465
16527 1 40.3888 62.5896 33.8048 5 12.2293 -3.54465
16528 1 39.5645 62.5896 31.4734 5 12.2293 -3.54465
16529 1 42.0373 62.5896 31.4734 5 12.2293 -3.54465
16530 1 41.2131 62.5896 29.142 5 12.2293 -3.54465
16531 1 43.6859 62.5896 29.142 5 12.2293 -3.54465
16532 1 42.8616 62.5896 26.8107 5 12.2293 -3.54465
16533 1 45.3344 62.5896 26.8107 5 12.2293 -3.54465
16534 1 44.5101 62.5896 24.4793 5 12.2293 -3.54465
16535 1 46.9829 62.5896 24.4793 5 12.2293 -3.54465
16536 1 46.1586 62.5896 22.1479 5 12.2293 -3.54465
16537 1 48.6314 62.5896 22.1479 5 12.2293 -3.54465
16538 1 47.8072 62.5896 19.8166 5 12.2293 -3.54465
16539 1 50.2799 62.5896 19.8166 5 12.2293 -3.54465
16540 1 49.4557 62.5896 17.4852 5 12.2293 -3.54465
16541 1 51.9285 62.5896 17.4852 5 12.2293 -3.54465
16542 1 51.1042 62.5896 15.1539 5 12.2293 -3.54465
16543 1 53.577 62.5896 15.1539 5 12.2293 -3.54465
16544 1 52.7527 62.5896 12.8225 5 12.2293 -3.54465
16545 1 55.2255 62.5896 12.8225 5 12.2293 -3.54465
16546 1 54.4012 62.5896 10.4911 5 12.2293 -3.54465
16547 1 56.874 62.5896 10.4911 5 12.2293 -3.54465
16548 1 56.0498 62.5896 8.15977 5 12.2293 -3.54465
16549 1 58.5226 62.5896 8.15977 5 12.2293 -3.54465
16550 1 57.6983 62.5896 5.82841 5 12.2293 -3.54465
16551 1 60.1711 62.5896 5.82841 5 12.2293 -3.54465
16552 1 59.3468 62.5896 3.49704 5 12.2293 -3.54465
16553 1 61.8196 62.5896 3.49704 5 12.2293 -3.54465
16554 1 60.9953 62.5896 1.16568 5 12.2293 -3.54465
16555 1 63.4681 62.5896 1.16568 5 12.2293 -3.54465
16556 1 31.3219 60.5706 46.6273 3 1.69002e-18 -4.10627
16557 1 33.7947 60.5706 46.6273 3 4.01691e-16 -4.10627
16558 1 32.9705 60.5706 44.2959 3 9.99999e-17 -4.10627
16559 1 35.4432 60.5706 44.2959 3 1e-16 -4.10627
16560 1 34.619 60.5706 41.9645 3 4e-16 -4.10627
16561 1 37.0918 60.5706 41.9645 3 4.03897e-28 -4.10627
16562 1 36.2675 60.5706 39.6332 3 1e-16 -4.10627
16563 1 38.7403 60.5706 39.6332 3 1e-16 -4.10627
16564 1 37.916 60.5706 37.3018 3 1.21169e-27 -4.10627
16565 1 40.3888 60.5706 37.3018 3 3.99999e-16 -4.10627
16566 1 39.5645 60.5706 34.9704 3 1e-16 -4.10627
16567 1 42.0373 60.5706 34.9704 3 1e-16 -4.10627
16568 1 41.2131 60.5706 32.6391 3 4.00001e-16 -4.10627
16569 1 43.6859 60.5706 32.6391 3 8.07794e-28 -4.10627
16570 1 42.8616 60.5706 30.3077 3 9.99999e-17 -4.10627
16571 1 45.3344 60.5706 30.3077 3 9.99999e-17 -4.10627
16572 1 44.5101 60.5706 27.9764 3 7.57306e-28 -4.10627
16573 1 46.9829 60.5706 27.9764 3 3.99999e-16 -4.10627
16574 1 46.1586 60.5706 25.645 3 9.99999e-17 -4.10627
16575 1 48.6314 60.5706 25.645 3 9.99999e-17 -4.10627
16576 1 47.8072 60.5706 23.3136 3 3.99999e-16 -4.10627
16577 1 50.2799 60.5706 23.3136 3 6.05845e-28 -4.10627
16578 1 49.4557 60.5706 20.9823 3 9.99999e-17 -4.10627
16579 1 51.9285 60.5706 20.9823 3 1e-16 -4.10627
16580 1 51.1042 60.5706 18.6509 3 9.99999e-17 -4.10627
16581 1 53.577 60.5706 18.6509 3 3.99999e-16 -4.10627
16582 1 52.7527 60.5706 16.3195 3 4.00001e-16 -4.10627
16583 1 55.2255 60.5706 16.3195 3 1e-16 -4.10627
16584 1 54.4012 60.5706 13.9882 3 1e-16 -4.10627
16585 1 56.874 60.5706 13.9882 3 4.2914e-28 -4.10627
16586 1 56.0498 60.5706 11.6568 3 4.03897e-28 -4.10627
16587 1 58.5226 60.5706 11.6568 3 9.99999e-17 -4.10627
16588 1 57.6983 60.5706 9.32545 3 1e-16 -4.10627
16589 1 60.1711 60.5706 9.32545 3 3.99999e-16 -4.10627
16590 1 59.3468 60.5706 6.99409 3 3.99999e-16 -4.10627
16591 1 61.8196 60.5706 6.99409 3 5.77599e-17 -4.10627
16592 1 60.9953 60.5706 4.66273 3 9.99999e-17 -4.10627
16593 1 63.4681 60.5706 4.66273 3 2.304e-17 -4.10627
16594 1 62.6439 60.5706 2.33136 3 5.76e-18 -4.10627
16595 1 32.9705 58.5516 47.7929 3 1.0507e-16 -4.12244
16596 1 35.4432 58.5516 47.7929 3 1.0507e-16 -4.12244
16597 1 34.619 58.5516 45.4616 3 4e-16 -4.12244
16598 1 37.0918 58.5516 45.4616 3 0 -4.12244
16599 1 36.2675 58.5516 43.1302 3 1e-16 -4.12244
16600 1 38.7403 58.5516 43.1302 3 1e-16 -4.12244
16601 1 37.916 58.5516 40.7989 3 1.41364e-27 -4.12244
16602 1 40.3888 58.5516 40.7989 3 3.99999e-16 -4.12244
16603 1 39.5645 58.5516 38.4675 3 1e-16 -4.12244
16604 1 42.0373 58.5516 38.4675 3 1e-16 -4.12244
16605 1 41.2131 58.5516 36.1361 3 4.00001e-16 -4.12244
16606 1 43.6859 58.5516 36.1361 3 8.07794e-28 -4.12244
16607 1 42.8616 58.5516 33.8048 3 9.99999e-17 -4.12244
16608 1 45.3344 58.5516 33.8048 3 9.99999e-17 -4.12244
16609 1 44.5101 58.5516 31.4734 3 2.52435e-28 -4.12244
16610 1 46.9829 58.5516 31.4734 3 3.99999e-16 -4.12244
16611 1 46.1586 58.5516 29.142 3 9.99999e-17 -4.12244
16612 1 48.6314 58.5516 29.142 3 9.99999e-17 -4.12244
16613 1 47.8072 58.5516 26.8107 3 3.99999e-16 -4.12244
16614 1 50.2799 58.5516 26.8107 3 2.01948e-28 -4.12244
16615 1 49.4557 58.5516 24.4793 3 9.99999e-17 -4.12244
16616 1 51.9285 58.5516 24.4793 3 1e-16 -4.12244
16617 1 51.1042 58.5516 22.1479 3 9.99999e-17 -4.12244
16618 1 53.577 58.5516 22.1479 3 3.99999e-16 -4.12244
16619 1 52.7527 58.5516 19.8166 3 4.00001e-16 -4.12244
16620 1 55.2255 58.5516 19.8166 3 1e-16 -4.12244
16621 1 54.4012 58.5516 17.4852 3 1e-16 -4.12244
16622 1 56.874 58.5516 17.4852 3 1.00974e-28 -4.12244
16623 1 56.0498 58.5516 15.1539 3 0 -4.12244
16624 1 58.5226 58.5516 15.1539 3 9.99999e-17 -4.12244
16625 1 57.6983 58.5516 12.8225 3 1e-16 -4.12244
16626 1 60.1711 58.5516 12.8225 3 3.99999e-16 -4.12244
16627 1 59.3468 58.5516 10.4911 3 3.99999e-16 -4.12244
16628 1 61.8196 58.5516 10.4911 3 5.77599e-17 -4.12244
16629 1 60.9953 58.5516 8.15977 3 9.99999e-17 -4.12244
16630 1 63.4681 58.5516 8.15977 3 2.304e-17 -4.12244
16631 1 62.6439 58.5516 5.82841 3 5.76e-18 -4.12244
16632 1 36.2675 56.5326 46.6273 3 1.0169e-16 -4.12244
16633 1 38.7403 56.5326 46.6273 3 1.0169e-16 -4.12244
16634 1 37.916 56.5326 44.2959 3 8.07794e-28 -4.12244
16635 1 40.3888 56.5326 44.2959 3 3.99999e-16 -4.12244
16636 1 39.5645 56.5326 41.9645 3 1e-16 -4.12244
16637 1 42.0373 56.5326 41.9645 3 1e-16 -4.12244
16638 1 41.2131 56.5326 39.6332 3 4.00001e-16 -4.12244
16639 1 43.6859 56.5326 39.6332 3 2.01948e-28 -4.12244
16640 1 42.8616 56.5326 37.3018 3 9.99999e-17 -4.12244
16641 1 45.3344 56.5326 37.3018 3 9.99999e-17 -4.12244
16642 1 44.5101 56.5326 34.9704 3 4.03897e-28 -4.12244
16643 1 46.9829 56.5326 34.9704 3 3.99999e-16 -4.12244
16644 1 46.1586 56.5326 32.6391 3 9.99999e-17 -4.12244
16645 1 48.6314 56.5326 32.6391 3 9.99999e-17 -4.12244
16646 1 47.8072 56.5326 30.3077 3 3.99999e-16 -4.12244
16647 1 50.2799 56.5326 30.3077 3 2.01948e-28 -4.12244
16648 1 49.4557 56.5326 27.9764 3 9.99999e-17 -4.12244
16649 1 51.9285 56.5326 27.9764 3 1e-16 -4.12244
16650 1 51.1042 56.5326 25.645 3 9.99999e-17 -4.12244
16651 1 53.577 56.5326 25.645 3 3.99999e-16 -4.12244
16652 1 52.7527 56.5326 23.3136 3 4.00001e-16 -4.12244
16653 1 55.2255 56.5326 23.3136 3 1e-16 -4.12244
16654 1 54.4012 56.5326 20.9823 3 1e-16 -4.12244
16655 1 56.874 56.5326 20.9823 3 0 -4.12244
16656 1 56.0498 56.5326 18.6509 3 0 -4.12244
16657 1 58.5226 56.5326 18.6509 3 9.99999e-17 -4.12244
16658 1 57.6983 56.5326 16.3195 3 1e-16 -4.12244
16659 1 60.1711 56.5326 16.3195 3 3.99999e-16 -4.12244
16660 1 59.3468 56.5326 13.9882 3 3.99999e-16 -4.12244
16661 1 61.8196 56.5326 13.9882 3 5.77599e-17 -4.12244
16662 1 60.9953 56.5326 11.6568 3 9.99999e-17 -4.12244
16663 1 63.4681 56.5326 11.6568 3 2.304e-17 -4.12244
16664 1 62.6439 56.5326 9.32545 3 5.76e-18 -4.12244
16665 1 37.916 54.5135 47.7929 3 5.06996e-18 -4.12244
16666 1 40.3888 54.5135 47.7929 3 4.05069e-16 -4.12244
16667 1 39.5645 54.5135 45.4616 3 1e-16 -4.12244
16668 1 42.0373 54.5135 45.4616 3 1e-16 -4.12244
16669 1 41.2131 54.5135 43.1302 3 4.00001e-16 -4.12244
16670 1 43.6859 54.5135 43.1302 3 8.07794e-28 -4.12244
16671 1 42.8616 54.5135 40.7989 3 9.99999e-17 -4.12244
16672 1 45.3344 54.5135 40.7989 3 9.99999e-17 -4.12244
16673 1 44.5101 54.5135 38.4675 3 2.01948e-28 -4.12244
16674 1 46.9829 54.5135 38.4675 3 3.99999e-16 -4.12244
16675 1 46.1586 54.5135 36.1361 3 9.99999e-17 -4.12244
16676 1 48.6314 54.5135 36.1361 3 9.99999e-17 -4.12244
16677 1 47.8072 54.5135 33.8048 3 3.99999e-16 -4.12244
16678 1 50.2799 54.5135 33.8048 3 2.01948e-28 -4.12244
16679 1 49.4557 54.5135 31.4734 3 9.99999e-17 -4.12244
16680 1 51.9285 54.5135 31.4734 3 1e-16 -4.12244
16681 1 51.1042 54.5135 29.142 3 9.99999e-17 -4.12244
16682 1 53.577 54.5135 29.142 3 3.99999e-16 -4.12244
16683 1 52.7527 54.5135 26.8107 3 4.00001e-16 -4.12244
16684 1 55.2255 54.5135 26.8107 3 1e-16 -4.12244
16685 1 54.4012 54.5135 24.4793 3 1e-16 -4.12244
16686 1 56.874 54.5135 24.4793 3 1.00974e-28 -4.12244
16687 1 56.0498 54.5135 22.1479 3 0 -4.12244
16688 1 58.5226 54.5135 22.1479 3 9.99999e-17 -4.12244
16689 1 57.6983 54.5135 19.8166 3 1e-16 -4.12244
16690 1 60.1711 54.5135 19.8166 3 3.99999e-16 -4.12244
16691 1 59.3468 54.5135 17.4852 3 3.99999e-16 -4.12244
16692 1 61.8196 54.5135 17.4852 3 5.77599e-17 -4.12244
16693 1 60.9953 54.5135 15.1539 3 9.99999e-17 -4.12244
16694 1 63.4681 54.5135 15.1539 3 2.304e-17 -4.12244
16695 1 62.6439 54.5135 12.8225 3 5.76e-18 -4.12244
16696 1 41.2131 52.4945 46.6273 3 4.01691e-16 -4.12244
16697 1 43.6859 52.4945 46.6273 3 1.69002e-18 -4.12244
16698 1 42.8616 52.4945 44.2959 3 9.99999e-17 -4.12244
16699 1 45.3344 52.4945 44.2959 3 9.99999e-17 -4.12244
16700 1 44.5101 52.4945 41.9645 3 2.01948e-28 -4.12244
16701 1 46.9829 52.4945 41.9645 3 3.99999e-16 -4.12244
16702 1 46.1586 52.4945 39.6332 3 9.99999e-17 -4.12244
16703 1 48.6314 52.4945 39.6332 3 9.99999e-17 -4.12244
16704 1 47.8072 52.4945 37.3018 3 3.99999e-16 -4.12244
16705 1 50.2799 52.4945 37.3018 3 2.01948e-28 -4.12244
16706 1 49.4557 52.4945 34.9704 3 9.99999e-17 -4.12244
16707 1 51.9285 52.4945 34.9704 3 1e-16 -4.12244
16708 1 51.1042 52.4945 32.6391 3 9.99999e-17 -4.12244
16709 1 53.577 52.4945 32.6391 3 3.99999e-16 -4.12244
16710 1 52.7527 52.4945 30.3077 3 4.00001e-16 -4.12244
16711 1 55.2255 52.4945 30.3077 3 1e-16 -4.12244
16712 1 54.4012 52.4945 27.9764 3 1e-16 -4.12244
16713 1 56.874 52.4945 27.9764 3 1.51461e-28 -4.12244
16714 1 56.0498 52.4945 25.645 3 1.51461e-28 -4.12244
16715 1 58.5226 52.4945 25.645 3 9.99999e-17 -4.12244
16716 1 57.6983 52.4945 23.3136 3 1e-16 -4.12244
16717 1 60.1711 52.4945 23.3136 3 3.99999e-16 -4.12244
16718 1 59.3468 52.4945 20.9823 3 3.99999e-16 -4.12244
16719 1 61.8196 52.4945 20.9823 3 5.77599e-17 -4.12244
16720 1 60.9953 52.4945 18.6509 3 9.99999e-17 -4.12244
16721 1 63.4681 52.4945 18.6509 3 2.304e-17 -4.12244
16722 1 62.6439 52.4945 16.3195 3 5.76e-18 -4.12244
16723 1 42.8616 50.4755 47.7929 3 1.0507e-16 -4.12244
16724 1 45.3344 50.4755 47.7929 3 1.0507e-16 -4.12244
16725 1 44.5101 50.4755 45.4616 3 2.01948e-28 -4.12244
16726 1 46.9829 50.4755 45.4616 3 3.99999e-16 -4.12244
16727 1 46.1586 50.4755 43.1302 3 9.99999e-17 -4.12244
16728 1 48.6314 50.4755 43.1302 3 9.99999e-17 -4.12244
16729 1 47.8072 50.4755 40.7989 3 3.99999e-16 -4.12244
16730 1 50.2799 50.4755 40.7989 3 8.07794e-28 -4.12244
16731 1 49.4557 50.4755 38.4675 3 9.99999e-17 -4.12244
16732 1 51.9285 50.4755 38.4675 3 1e-16 -4.12244
16733 1 51.1042 50.4755 36.1361 3 9.99999e-17 -4.12244
16734 1 53.577 50.4755 36.1361 3 3.99999e-16 -4.12244
16735 1 52.7527 50.4755 33.8048 3 4.00001e-16 -4.12244
16736 1 55.2255 50.4755 33.8048 3 1e-16 -4.12244
16737 1 54.4012 50.4755 31.4734 3 1e-16 -4.12244
16738 1 56.874 50.4755 31.4734 3 5.04871e-29 -4.12244
16739 1 56.0498 50.4755 29.142 3 1.51461e-28 -4.12244
16740 1 58.5226 50.4755 29.142 3 9.99999e-17 -4.12244
16741 1 57.6983 50.4755 26.8107 3 1e-16 -4.12244
16742 1 60.1711 50.4755 26.8107 3 3.99999e-16 -4.12244
16743 1 59.3468 50.4755 24.4793 3 3.99999e-16 -4.12244
16744 1 61.8196 50.4755 24.4793 3 5.77599e-17 -4.12244
16745 1 60.9953 50.4755 22.1479 3 9.99999e-17 -4.12244
16746 1 63.4681 50.4755 22.1479 3 2.304e-17 -4.12244
16747 1 62.6439 50.4755 19.8166 3 5.76e-18 -4.12244
16748 1 46.1586 48.4565 46.6273 3 1.0169e-16 -4.12244
16749 1 48.6314 48.4565 46.6273 3 1.0169e-16 -4.12244
16750 1 47.8072 48.4565 44.2959 3 3.99999e-16 -4.12244
16751 1 50.2799 48.4565 44.2959 3 2.01948e-28 -4.12244
16752 1 49.4557 48.4565 41.9645 3 9.99999e-17 -4.12244
16753 1 51.9285 48.4565 41.9645 3 1e-16 -4.12244
16754 1 51.1042 48.4565 39.6332 3 9.99999e-17 -4.12244
16755 1 53.577 48.4565 39.6332 3 3.99999e-16 -4.12244
16756 1 52.7527 48.4565 37.3018 3 4.00001e-16 -4.12244
16757 1 55.2255 48.4565 37.3018 3 1e-16 -4.12244
16758 1 54.4012 48.4565 34.9704 3 1e-16 -4.12244
16759 1 56.874 48.4565 34.9704 3 2.01948e-28 -4.12244
16760 1 56.0498 48.4565 32.6391 3 2.01948e-28 -4.12244
16761 1 58.5226 48.4565 32.6391 3 9.99999e-17 -4.12244
16762 1 57.6983 48.4565 30.3077 3 1e-16 -4.12244
16763 1 60.1711 48.4565 30.3077 3 3.99999e-16 -4.12244
16764 1 59.3468 48.4565 27.9764 3 3.99999e-16 -4.12244
16765 1 61.8196 48.4565 27.9764 3 5.77599e-17 -4.12244
16766 1 60.9953 48.4565 25.645 3 9.99999e-17 -4.12244
16767 1 63.4681 48.4565 25.645 3 2.304e-17 -4.12244
16768 1 62.6439 48.4565 23.3136 3 5.76e-18 -4.12244
16769 1 47.8072 46.4375 47.7929 3 4.05069e-16 -4.12244
16770 1 50.2799 46.4375 47.7929 3 5.06996e-18 -4.12244
16771 1 49.4557 46.4375 45.4616 3 9.99999e-17 -4.12244
16772 1 51.9285 46.4375 45.4616 3 1e-16 -4.12244
16773 1 51.1042 46.4375 43.1302 3 9.99999e-17 -4.12244
16774 1 53.577 46.4375 43.1302 3 3.99999e-16 -4.12244
16775 1 52.7527 46.4375 40.7989 3 4.00001e-16 -4.12244
16776 1 55.2255 46.4375 40.7989 3 1e-16 -4.12244
16777 1 54.4012 46.4375 38.4675 3 1e-16 -4.12244
16778 1 56.874 46.4375 38.4675 3 0 -4.12244
16779 1 56.0498 46.4375 36.1361 3 6.05845e-28 -4.12244
16780 1 58.5226 46.4375 36.1361 3 9.99999e-17 -4.12244
16781 1 57.6983 46.4375 33.8048 3 1e-16 -4.12244
16782 1 60.1711 46.4375 33.8048 3 3.99999e-16 -4.12244
16783 1 59.3468 46.4375 31.4734 3 3.99999e-16 -4.12244
16784 1 61.8196 46.4375 31.4734 3 5.77599e-17 -4.12244
16785 1 60.9953 46.4375 29.142 3 9.99999e-17 -4.12244
16786 1 63.4681 46.4375 29.142 3 2.304e-17 -4.12244
16787 1 62.6439 46.4375 26.8107 3 5.76e-18 -4.12244
16788 1 51.1042 44.4184 46.6273 3 1.0169e-16 -4.12244
16789 1 53.577 44.4184 46.6273 3 4.0169e-16 -4.12244
16790 1 52.7527 44.4184 44.2959 3 4.00001e-16 -4.12244
16791 1 55.2255 44.4184 44.2959 3 1e-16 -4.12244
16792 1 54.4012 44.4184 41.9645 3 1e-16 -4.12244
16793 1 56.874 44.4184 41.9645 3 0 -4.12244
16794 1 56.0498 44.4184 39.6332 3 0 -4.12244
16795 1 58.5226 44.4184 39.6332 3 9.99999e-17 -4.12244
16796 1 57.6983 44.4184 37.3018 3 1e-16 -4.12244
16797 1 60.1711 44.4184 37.3018 3 3.99999e-16 -4.12244
16798 1 59.3468 44.4184 34.9704 3 3.99999e-16 -4.12244
16799 1 61.8196 44.4184 34.9704 3 5.77599e-17 -4.12244
16800 1 60.9953 44.4184 32.6391 3 9.99999e-17 -4.12244
16801 1 63.4681 44.4184 32.6391 3 2.304e-17 -4.12244
16802 1 62.6439 44.4184 30.3077 3 5.76e-18 -4.12244
16803 1 52.7527 42.3994 47.7929 3 4.05071e-16 -4.12244
16804 1 55.2255 42.3994 47.7929 3 1.0507e-16 -4.12244
16805 1 54.4012 42.3994 45.4616 3 1e-16 -4.12244
16806 1 56.874 42.3994 45.4616 3 0 -4.12244
16807 1 56.0498 42.3994 43.1302 3 6.05845e-28 -4.12244
16808 1 58.5226 42.3994 43.1302 3 9.99999e-17 -4.12244
16809 1 57.6983 42.3994 40.7989 3 1e-16 -4.12244
16810 1 60.1711 42.3994 40.7989 3 3.99999e-16 -4.12244
16811 1 59.3468 42.3994 38.4675 3 3.99999e-16 -4.12244
16812 1 61.8196 42.3994 38.4675 3 5.77599e-17 -4.12244
16813 1 60.9953 42.3994 36.1361 3 9.99999e-17 -4.12244
16814 1 63.4681 42.3994 36.1361 3 2.304e-17 -4.12244
16815 1 62.6439 42.3994 33.8048 3 5.76e-18 -4.12244
16816 1 56.0498 40.3804 46.6273 3 1.69002e-18 -4.12244
16817 1 58.5226 40.3804 46.6273 3 1.0169e-16 -4.12244
16818 1 57.6983 40.3804 44.2959 3 1e-16 -4.12244
16819 1 60.1711 40.3804 44.2959 3 3.99999e-16 -4.12244
16820 1 59.3468 40.3804 41.9645 3 3.99999e-16 -4.12244
16821 1 61.8196 40.3804 41.9645 3 5.77599e-17 -4.12244
16822 1 60.9953 40.3804 39.6332 3 9.99999e-17 -4.12244
16823 1 63.4681 40.3804 39.6332 3 2.304e-17 -4.12244
16824 1 62.6439 40.3804 37.3018 3 5.76e-18 -4.12244
16825 1 57.6983 38.3614 47.7929 3 1.0507e-16 -4.12244
16826 1 60.1711 38.3614 47.7929 3 4.05069e-16 -4.12244
16827 1 59.3468 38.3614 45.4616 3 3.99999e-16 -4.12244
16828 1 61.8196 38.3614 45.4616 3 5.77599e-17 -4.12244
16829 1 60.9953 38.3614 43.1302 3 9.99999e-17 -4.12244
16830 1 63.4681 38.3614 43.1302 3 2.304e-17 -4.12244
16831 1 62.6439 38.3614 40.7989 3 5.76e-18 -4.12244
16832 1 60.9953 36.3424 46.6273 3 1.0169e-16 -4.12244
16833 1 63.4681 36.3424 46.6273 3 2.473e-17 -4.12244
16834 1 62.6439 36.3424 44.2959 3 5.76e-18 -4.12244
16835 1 62.6439 34.3233 47.7929 3 1.083e-17 -4.12244
16836 1 32.9705 62.5896 47.7929 5 12.2293 -3.54465
16837 1 35.4432 62.5896 47.7929 5 12.2293 -3.54465
16838 1 34.619 62.5896 45.4616 5 12.2293 -3.54465
16839 1 37.0918 62.5896 45.4616 5 12.2293 -3.54465
16840 1 36.2675 62.5896 43.1302 5 12.2293 -3.54465
16841 1 38.7403 62.5896 43.1302 5 12.2293 -3.54465
16842 1 37.916 62.5896 40.7989 5 12.2293 -3.54465
16843 1 40.3888 62.5896 40.7989 5 12.2293 -3.54465
16844 1 39.5645 62.5896 38.4675 5 12.2293 -3.54465
16845 1 42.0373 62.5896 38.4675 5 12.2293 -3.54465
16846 1 41.2131 62.5896 36.1361 5 12.2293 -3.54465
16847 1 43.6859 62.5896 36.1361 5 12.2293 -3.54465
16848 1 42.8616 62.5896 33.8048 5 12.2293 -3.54465
16849 1 45.3344 62.5896 33.8048 5 12.2293 -3.54465
16850 1 44.5101 62.5896 31.4734 5 12.2293 -3.54465
16851 1 46.9829 62.5896 31.4734 5 12.2293 -3.54465
16852 1 46.1586 62.5896 29.142 5 12.2293 -3.54465
16853 1 48.6314 62.5896 29.142 5 12.2293 -3.54465
16854 1 47.8072 62.5896 26.8107 5 12.2293 -3.54465
16855 1 50.2799 62.5896 26.8107 5 12.2293 -3.54465
16856 1 49.4557 62.5896 24.4793 5 12.2293 -3.54465
16857 1 51.9285 62.5896 24.4793 5 12.2293 -3.54465
16858 1 51.1042 62.5896 22.1479 5 12.2293 -3.54465
16859 1 53.577 62.5896 22.1479 5 12.2293 -3.54465
16860 1 52.7527 62.5896 19.8166 5 12.2293 -3.54465
16861 1 55.2255 62.5896 19.8166 5 12.2293 -3.54465
16862 1 54.4012 62.5896 17.4852 5 12.2293 -3.54465
16863 1 56.874 62.5896 17.4852 5 12.2293 -3.54465
16864 1 56.0498 62.5896 15.1539 5 12.2293 -3.54465
16865 1 58.5226 62.5896 15.1539 5 12.2293 -3.54465
16866 1 57.6983 62.5896 12.8225 5 12.2293 -3.54465
16867 1 60.1711 62.5896 12.8225 5 12.2293 -3.54465
16868 1 59.3468 62.5896 10.4911 5 12.2293 -3.54465
16869 1 61.8196 62.5896 10.4911 5 12.2293 -3.54465
16870 1 60.9953 62.5896 8.15977 5 12.2293 -3.54465
16871 1 63.4681 62.5896 8.15977 5 12.2293 -3.54465
16872 1 62.6439 62.5896 5.82841 5 12.2293 -3.54465
16873 1 36.2675 60.5706 46.6273 3 1.0169e-16 -4.10627
16874 1 38.7403 60.5706 46.6273 3 1.0169e-16 -4.10627
16875 1 37.916 60.5706 44.2959 3 1.21169e-27 -4.10627
16876 1 40.3888 60.5706 44.2959 3 3.99999e-16 -4.10627
16877 1 39.5645 60.5706 41.9645 3 1e-16 -4.10627
16878 1 42.0373 60.5706 41.9645 3 1e-16 -4.10627
16879 1 41.2131 60.5706 39.6332 3 4.00001e-16 -4.10627
16880 1 43.6859 60.5706 39.6332 3 6.05845e-28 -4.10627
16881 1 42.8616 60.5706 37.3018 3 9.99999e-17 -4.10627
16882 1 45.3344 60.5706 37.3018 3 9.99999e-17 -4.10627
16883 1 44.5101 60.5706 34.9704 3 8.07794e-28 -4.10627
16884 1 46.9829 60.5706 34.9704 3 3.99999e-16 -4.10627
16885 1 46.1586 60.5706 32.6391 3 9.99999e-17 -4.10627
16886 1 48.6314 60.5706 32.6391 3 9.99999e-17 -4.10627
16887 1 47.8072 60.5706 30.3077 3 3.99999e-16 -4.10627
16888 1 50.2799 60.5706 30.3077 3 6.05845e-28 -4.10627
16889 1 49.4557 60.5706 27.9764 3 9.99999e-17 -4.10627
16890 1 51.9285 60.5706 27.9764 3 1e-16 -4.10627
16891 1 51.1042 60.5706 25.645 3 9.99999e-17 -4.10627
16892 1 53.577 60.5706 25.645 3 3.99999e-16 -4.10627
16893 1 52.7527 60.5706 23.3136 3 4.00001e-16 -4.10627
16894 1 55.2255 60.5706 23.3136 3 1e-16 -4.10627
16895 1 54.4012 60.5706 20.9823 3 1e-16 -4.10627
16896 1 56.874 60.5706 20.9823 3 4.03897e-28 -4.10627
16897 1 56.0498 60.5706 18.6509 3 4.03897e-28 -4.10627
16898 1 58.5226 60.5706 18.6509 3 9.99999e-17 -4.10627
16899 1 57.6983 60.5706 16.3195 3 1e-16 -4.10627
16900 1 60.1711 60.5706 16.3195 3 3.99999e-16 -4.10627
16901 1 59.3468 60.5706 13.9882 3 3.99999e-16 -4.10627
16902 1 61.8196 60.5706 13.9882 3 5.77599e-17 -4.10627
16903 1 60.9953 60.5706 11.6568 3 9.99999e-17 -4.10627
16904 1 63.4681 60.5706 11.6568 3 2.304e-17 -4.10627
16905 1 62.6439 60.5706 9.32545 3 5.76e-18 -4.10627
16906 1 37.916 58.5516 47.7929 3 5.06996e-18 -4.12244
16907 1 40.3888 58.5516 47.7929 3 4.05069e-16 -4.12244
16908 1 39.5645 58.5516 45.4616 3 1e-16 -4.12244
16909 1 42.0373 58.5516 45.4616 3 1e-16 -4.12244
16910 1 41.2131 58.5516 43.1302 3 4.00001e-16 -4.12244
16911 1 43.6859 58.5516 43.1302 3 8.07794e-28 -4.12244
16912 1 42.8616 58.5516 40.7989 3 9.99999e-17 -4.12244
16913 1 45.3344 58.5516 40.7989 3 9.99999e-17 -4.12244
16914 1 44.5101 58.5516 38.4675 3 2.01948e-28 -4.12244
16915 1 46.9829 58.5516 38.4675 3 3.99999e-16 -4.12244
16916 1 46.1586 58.5516 36.1361 3 9.99999e-17 -4.12244
16917 1 48.6314 58.5516 36.1361 3 9.99999e-17 -4.12244
16918 1 47.8072 58.5516 33.8048 3 3.99999e-16 -4.12244
16919 1 50.2799 58.5516 33.8048 3 2.01948e-28 -4.12244
16920 1 49.4557 58.5516 31.4734 3 9.99999e-17 -4.12244
16921 1 51.9285 58.5516 31.4734 3 1e-16 -4.12244
16922 1 51.1042 58.5516 29.142 3 9.99999e-17 -4.12244
16923 1 53.577 58.5516 29.142 3 3.99999e-16 -4.12244
16924 1 52.7527 58.5516 26.8107 3 4.00001e-16 -4.12244
16925 1 55.2255 58.5516 26.8107 3 1e-16 -4.12244
16926 1 54.4012 58.5516 24.4793 3 1e-16 -4.12244
16927 1 56.874 58.5516 24.4793 3 1.00974e-28 -4.12244
16928 1 56.0498 58.5516 22.1479 3 0 -4.12244
16929 1 58.5226 58.5516 22.1479 3 9.99999e-17 -4.12244
16930 1 57.6983 58.5516 19.8166 3 1e-16 -4.12244
16931 1 60.1711 58.5516 19.8166 3 3.99999e-16 -4.12244
16932 1 59.3468 58.5516 17.4852 3 3.99999e-16 -4.12244
16933 1 61.8196 58.5516 17.4852 3 5.77599e-17 -4.12244
16934 1 60.9953 58.5516 15.1539 3 9.99999e-17 -4.12244
16935 1 63.4681 58.5516 15.1539 3 2.304e-17 -4.12244
16936 1 62.6439 58.5516 12.8225 3 5.76e-18 -4.12244
16937 1 41.2131 56.5326 46.6273 3 4.01691e-16 -4.12244
16938 1 43.6859 56.5326 46.6273 3 1.69002e-18 -4.12244
16939 1 42.8616 56.5326 44.2959 3 9.99999e-17 -4.12244
16940 1 45.3344 56.5326 44.2959 3 9.99999e-17 -4.12244
16941 1 44.5101 56.5326 41.9645 3 2.01948e-28 -4.12244
16942 1 46.9829 56.5326 41.9645 3 3.99999e-16 -4.12244
16943 1 46.1586 56.5326 39.6332 3 9.99999e-17 -4.12244
16944 1 48.6314 56.5326 39.6332 3 9.99999e-17 -4.12244
16945 1 47.8072 56.5326 37.3018 3 3.99999e-16 -4.12244
16946 1 50.2799 56.5326 37.3018 3 2.01948e-28 -4.12244
16947 1 49.4557 56.5326 34.9704 3 9.99999e-17 -4.12244
16948 1 51.9285 56.5326 34.9704 3 1e-16 -4.12244
16949 1 51.1042 56.5326 32.6391 3 9.99999e-17 -4.12244
16950 1 53.577 56.5326 32.6391 3 3.99999e-16 -4.12244
16951 1 52.7527 56.5326 30.3077 3 4.00001e-16 -4.12244
16952 1 55.2255 56.5326 30.3077 3 1e-16 -4.12244
16953 1 54.4012 56.5326 27.9764 3 1e-16 -4.12244
16954 1 56.874 56.5326 27.9764 3 1.51461e-28 -4.12244
16955 1 56.0498 56.5326 25.645 3 1.51461e-28 -4.12244
16956 1 58.5226 56.5326 25.645 3 9.99999e-17 -4.12244
16957 1 57.6983 56.5326 23.3136 3 1e-16 -4.12244
16958 1 60.1711 56.5326 23.3136 3 3.99999e-16 -4.12244
16959 1 59.3468 56.5326 20.9823 3 3.99999e-16 -4.12244
16960 1 61.8196 56.5326 20.9823 3 5.77599e-17 -4.12244
16961 1 60.9953 56.5326 18.6509 3 9.99999e-17 -4.12244
16962 1 63.4681 56.5326 18.6509 3 2.304e-17 -4.12244
16963 1 62.6439 56.5326 16.3195 3 5.76e-18 -4.12244
16964 1 42.8616 54.5135 47.7929 3 1.0507e-16 -4.12244
16965 1 45.3344 54.5135 47.7929 3 1.0507e-16 -4.12244
16966 1 44.5101 54.5135 45.4616 3 2.01948e-28 -4.12244
16967 1 46.9829 54.5135 45.4616 3 3.99999e-16 -4.12244
16968 1 46.1586 54.5135 43.1302 3 9.99999e-17 -4.12244
16969 1 48.6314 54.5135 43.1302 3 9.99999e-17 -4.12244
16970 1 47.8072 54.5135 40.7989 3 3.99999e-16 -4.12244
16971 1 50.2799 54.5135 40.7989 3 8.07794e-28 -4.12244
16972 1 49.4557 54.5135 38.4675 3 9.99999e-17 -4.12244
16973 1 51.9285 54.5135 38.4675 3 1e-16 -4.12244
16974 1 51.1042 54.5135 36.1361 3 9.99999e-17 -4.12244
16975 1 53.577 54.5135 36.1361 3 3.99999e-16 -4.12244
16976 1 52.7527 54.5135 33.8048 3 4.00001e-16 -4.12244
16977 1 55.2255 54.5135 33.8048 3 1e-16 -4.12244
16978 1 54.4012 54.5135 31.4734 3 1e-16 -4.12244
16979 1 56.874 54.5135 31.4734 3 5.04871e-29 -4.12244
16980 1 56.0498 54.5135 29.142 3 1.51461e-28 -4.12244
16981 1 58.5226 54.5135 29.142 3 9.99999e-17 -4.12244
16982 1 57.6983 54.5135 26.8107 3 1e-16 -4.12244
16983 1 60.1711 54.5135 26.8107 3 3.99999e-16 -4.12244
16984 1 59.3468 54.5135 24.4793 3 3.99999e-16 -4.12244
16985 1 61.8196 54.5135 24.4793 3 5.77599e-17 -4.12244
16986 1 60.9953 54.5135 22.1479 3 9.99999e-17 -4.12244
16987 1 63.4681 54.5135 22.1479 3 2.304e-17 -4.12244
16988 1 62.6439 54.5135 19.8166 3 5.76e-18 -4.12244
16989 1 46.1586 52.4945 46.6273 3 1.0169e-16 -4.12244
16990 1 48.6314 52.4945 46.6273 3 1.0169e-16 -4.12244
16991 1 47.8072 52.4945 44.2959 3 3.99999e-16 -4.12244
16992 1 50.2799 52.4945 44.2959 3 2.01948e-28 -4.12244
16993 1 49.4557 52.4945 41.9645 3 9.99999e-17 -4.12244
16994 1 51.9285 52.4945 41.9645 3 1e-16 -4.12244
16995 1 51.1042 52.4945 39.6332 3 9.99999e-17 -4.12244
16996 1 53.577 52.4945 39.6332 3 3.99999e-16 -4.12244
16997 1 52.7527 52.4945 37.3018 3 4.00001e-16 -4.12244
16998 1 55.2255 52.4945 37.3018 3 1e-16 -4.12244
16999 1 54.4012 52.4945 34.9704 3 1e-16 -4.12244
17000 1 56.874 52.4945 34.9704 3 2.01948e-28 -4.12244
17001 1 56.0498 52.4945 32.6391 3 2.01948e-28 -4.12244
17002 1 58.5226 52.4945 32.6391 3 9.99999e-17 -4.12244
17003 1 57.6983 52.4945 30.3077 3 1e-16 -4.12244
17004 1 60.1711 52.4945 30.3077 3 3.99999e-16 -4.12244
17005 1 59.3468 52.4945 27.9764 3 3.99999e-16 -4.12244
17006 1 61.8196 52.4945 27.9764 3 5.77599e-17 -4.12244
17007 1 60.9953 52.4945 25.645 3 9.99999e-17 -4.12244
17008 1 63.4681 52.4945 25.645 3 2.304e-17 -4.12244
17009 1 62.6439 52.4945 23.3136 3 5.76e-18 -4.12244
17010 1 47.8072 50.4755 47.7929 3 4.05069e-16 -4.12244
17011 1 50.2799 50.4755 47.7929 3 5.06996e-18 -4.12244
17012 1 49.4557 50.4755 45.4616 3 9.99999e-17 -4.12244
17013 1 51.9285 50.4755 45.4616 3 1e-16 -4.12244
17014 1 51.1042 50.4755 43.1302 3 9.99999e-17 -4.12244
17015 1 53.577 50.4755 43.1302 3 3.99999e-16 -4.12244
17016 1 52.7527 50.4755 40.7989 3 4.00001e-16 -4.12244
17017 1 55.2255 50.4755 40.7989 3 1e-16 -4.12244
17018 1 54.4012 50.4755 38.4675 3 1e-16 -4.12244
17019 1 56.874 50.4755 38.4675 3 0 -4.12244
17020 1 56.0498 50.4755 36.1361 3 6.05845e-28 -4.12244
17021 1 58.5226 50.4755 36.1361 3 9.99999e-17 -4.12244
17022 1 57.6983 50.4755 33.8048 3 1e-16 -4.12244
17023 1 60.1711 50.4755 33.8048 3 3.99999e-16 -4.12244
17024 1 59.3468 50.4755 31.4734 3 3.99999e-16 -4.12244
17025 1 61.8196 50.4755 31.4734 3 5.77599e-17 -4.12244
17026 1 60.9953 50.4755 29.142 3 9.99999e-17 -4.12244
17027 1 63.4681 50.4755 29.142 3 2.304e-17 -4.12244
17028 1 62.6439 50.4755 26.8107 3 5.76e-18 -4.12244
17029 1 51.1042 48.4565 46.6273 3 1.0169e-16 -4.12244
17030 1 53.577 48.4565 46.6273 3 4.0169e-16 -4.12244
17031 1 52.7527 48.4565 44.2959 3 4.00001e-16 -4.12244
17032 1 55.2255 48.4565 44.2959 3 1e-16 -4.12244
17033 1 54.4012 48.4565 41.9645 3 1e-16 -4.12244
17034 1 56.874 48.4565 41.9645 3 0 -4.12244
17035 1 56.0498 48.4565 39.6332 3 0 -4.12244
17036 1 58.5226 48.4565 39.6332 3 9.99999e-17 -4.12244
17037 1 57.6983 48.4565 37.3018 3 1e-16 -4.12244
17038 1 60.1711 48.4565 37.3018 3 3.99999e-16 -4.12244
17039 1 59.3468 48.4565 34.9704 3 3.99999e-16 -4.12244
17040 1 61.8196 48.4565 34.9704 3 5.77599e-17 -4.12244
17041 1 60.9953 48.4565 32.6391 3 9.99999e-17 -4.12244
17042 1 63.4681 48.4565 32.6391 3 2.304e-17 -4.12244
17043 1 62.6439 48.4565 30.3077 3 5.76e-18 -4.12244
17044 1 52.7527 46.4375 47.7929 3 4.05071e-16 -4.12244
17045 1 55.2255 46.4375 47.7929 3 1.0507e-16 -4.12244
17046 1 54.4012 46.4375 45.4616 3 1e-16 -4.12244
17047 1 56.874 46.4375 45.4616 3 0 -4.12244
17048 1 56.0498 46.4375 43.1302 3 6.05845e-28 -4.12244
17049 1 58.5226 46.4375 43.1302 3 9.99999e-17 -4.12244
17050 1 57.6983 46.4375 40.7989 3 1e-16 -4.12244
17051 1 60.1711 46.4375 40.7989 3 3.99999e-16 -4.12244
17052 1 59.3468 46.4375 38.4675 3 3.99999e-16 -4.12244
17053 1 61.8196 46.4375 38.4675 3 5.77599e-17 -4.12244
17054 1 60.9953 46.4375 36.1361 3 9.99999e-17 -4.12244
17055 1 63.4681 46.4375 36.1361 3 2.304e-17 -4.12244
17056 1 62.6439 46.4375 33.8048 3 5.76e-18 -4.12244
17057 1 56.0498 44.4184 46.6273 3 1.69002e-18 -4.12244
17058 1 58.5226 44.4184 46.6273 3 1.0169e-16 -4.12244
17059 1 57.6983 44.4184 44.2959 3 1e-16 -4.12244
17060 1 60.1711 44.4184 44.2959 3 3.99999e-16 -4.12244
17061 1 59.3468 44.4184 41.9645 3 3.99999e-16 -4.12244
17062 1 61.8196 44.4184 41.9645 3 5.77599e-17 -4.12244
17063 1 60.9953 44.4184 39.6332 3 9.99999e-17 -4.12244
17064 1 63.4681 44.4184 39.6332 3 2.304e-17 -4.12244
17065 1 62.6439 44.4184 37.3018 3 5.76e-18 -4.12244
17066 1 57.6983 42.3994 47.7929 3 1.0507e-16 -4.12244
17067 1 60.1711 42.3994 47.7929 3 4.05069e-16 -4.12244
17068 1 59.3468 42.3994 45.4616 3 3.99999e-16 -4.12244
17069 1 61.8196 42.3994 45.4616 3 5.77599e-17 -4.12244
17070 1 60.9953 42.3994 43.1302 3 9.99999e-17 -4.12244
17071 1 63.4681 42.3994 43.1302 3 2.304e-17 -4.12244
17072 1 62.6439 42.3994 40.7989 3 5.76e-18 -4.12244
17073 1 60.9953 40.3804 46.6273 3 1.0169e-16 -4.12244
17074 1 63.4681 40.3804 46.6273 3 2.473e-17 -4.12244
17075 1 62.6439 40.3804 44.2959 3 5.76e-18 -4.12244
17076 1 62.6439 38.3614 47.7929 3 1.083e-17 -4.12244
17077 1 37.916 62.5896 47.7929 5 12.2293 -3.54465
17078 1 40.3888 62.5896 47.7929 5 12.2293 -3.54465
17079 1 39.5645 62.5896 45.4616 5 12.2293 -3.54465
17080 1 42.0373 62.5896 45.4616 5 12.2293 -3.54465
17081 1 41.2131 62.5896 43.1302 5 12.2293 -3.54465
17082 1 43.6859 62.5896 43.1302 5 12.2293 -3.54465
17083 1 42.8616 62.5896 40.7989 5 12.2293 -3.54465
17084 1 45.3344 62.5896 40.7989 5 12.2293 -3.54465
17085 1 44.5101 62.5896 38.4675 5 12.2293 -3.54465
17086 1 46.9829 62.5896 38.4675 5 12.2293 -3.54465
17087 1 46.1586 62.5896 36.1361 5 12.2293 -3.54465
17088 1 48.6314 62.5896 36.1361 5 12.2293 -3.54465
17089 1 47.8072 62.5896 33.8048 5 12.2293 -3.54465
17090 1 50.2799 62.5896 33.8048 5 12.2293 -3.54465
17091 1 49.4557 62.5896 31.4734 5 12.2293 -3.54465
17092 1 51.9285 62.5896 31.4734 5 12.2293 -3.54465
17093 1 51.1042 62.5896 29.142 5 12.2293 -3.54465
17094 1 53.577 62.5896 29.142 5 12.2293 -3.54465
17095 1 52.7527 62.5896 26.8107 5 12.2293 -3.54465
17096 1 55.2255 62.5896 26.8107 5 12.2293 -3.54465
17097 1 54.4012 62.5896 24.4793 5 12.2293 -3.54465
17098 1 56.874 62.5896 24.4793 5 12.2293 -3.54465
17099 1 56.0498 62.5896 22.1479 5 12.2293 -3.54465
17100 1 58.5226 62.5896 22.1479 5 12.2293 -3.54465
17101 1 57.6983 62.5896 19.8166 5 12.2293 -3.54465
17102 1 60.1711 62.5896 19.8166 5 12.2293 -3.54465
17103 1 59.3468 62.5896 17.4852 5 12.2293 -3.54465
17104 1 61.8196 62.5896 17.4852 5 12.2293 -3.54465
17105 1 60.9953 62.5896 15.1539 5 12.2293 -3.54465
17106 1 63.4681 62.5896 15.1539 5 12.2293 -3.54465
17107 1 62.6439 62.5896 12.8225 5 12.2293 -3.54465
17108 1 41.2131 60.5706 46.6273 3 4.01691e-16 -4.10627
17109 1 43.6859 60.5706 46.6273 3 1.69002e-18 -4.10627
17110 1 42.8616 60.5706 44.2959 3 9.99999e-17 -4.10627
17111 1 45.3344 60.5706 44.2959 3 9.99999e-17 -4.10627
17112 1 44.5101 60.5706 41.9645 3 6.05845e-28 -4.10627
17113 1 46.9829 60.5706 41.9645 3 3.99999e-16 -4.10627
17114 1 46.1586 60.5706 39.6332 3 9.99999e-17 -4.10627
17115 1 48.6314 60.5706 39.6332 3 9.99999e-17 -4.10627
17116 1 47.8072 60.5706 37.3018 3 3.99999e-16 -4.10627
17117 1 50.2799 60.5706 37.3018 3 6.05845e-28 -4.10627
17118 1 49.4557 60.5706 34.9704 3 9.99999e-17 -4.10627
17119 1 51.9285 60.5706 34.9704 3 1e-16 -4.10627
17120 1 51.1042 60.5706 32.6391 3 9.99999e-17 -4.10627
17121 1 53.577 60.5706 32.6391 3 3.99999e-16 -4.10627
17122 1 52.7527 60.5706 30.3077 3 4.00001e-16 -4.10627
17123 1 55.2255 60.5706 30.3077 3 1e-16 -4.10627
17124 1 54.4012 60.5706 27.9764 3 1e-16 -4.10627
17125 1 56.874 60.5706 27.9764 3 5.55358e-28 -4.10627
17126 1 56.0498 60.5706 25.645 3 5.55358e-28 -4.10627
17127 1 58.5226 60.5706 25.645 3 9.99999e-17 -4.10627
17128 1 57.6983 60.5706 23.3136 3 1e-16 -4.10627
17129 1 60.1711 60.5706 23.3136 3 3.99999e-16 -4.10627
17130 1 59.3468 60.5706 20.9823 3 3.99999e-16 -4.10627
17131 1 61.8196 60.5706 20.9823 3 5.77599e-17 -4.10627
17132 1 60.9953 60.5706 18.6509 3 9.99999e-17 -4.10627
17133 1 63.4681 60.5706 18.6509 3 2.304e-17 -4.10627
17134 1 62.6439 60.5706 16.3195 3 5.76e-18 -4.10627
17135 1 42.8616 58.5516 47.7929 3 1.0507e-16 -4.12244
17136 1 45.3344 58.5516 47.7929 3 1.0507e-16 -4.12244
17137 1 44.5101 58.5516 45.4616 3 2.01948e-28 -4.12244
17138 1 46.9829 58.5516 45.4616 3 3.99999e-16 -4.12244
17139 1 46.1586 58.5516 43.1302 3 9.99999e-17 -4.12244
17140 1 48.6314 58.5516 43.1302 3 9.99999e-17 -4.12244
17141 1 47.8072 58.5516 40.7989 3 3.99999e-16 -4.12244
17142 1 50.2799 58.5516 40.7989 3 8.07794e-28 -4.12244
17143 1 49.4557 58.5516 38.4675 3 9.99999e-17 -4.12244
17144 1 51.9285 58.5516 38.4675 3 1e-16 -4.12244
17145 1 51.1042 58.5516 36.1361 3 9.99999e-17 -4.12244
17146 1 53.577 58.5516 36.1361 3 3.99999e-16 -4.12244
17147 1 52.7527 58.5516 33.8048 3 4.00001e-16 -4.12244
17148 1 55.2255 58.5516 33.8048 3 1e-16 -4.12244
17149 1 54.4012 58.5516 31.4734 3 1e-16 -4.12244
17150 1 56.874 58.5516 31.4734 3 5.04871e-29 -4.12244
17151 1 56.0498 58.5516 29.142 3 1.51461e-28 -4.12244
17152 1 58.5226 58.5516 29.142 3 9.99999e-17 -4.12244
17153 1 57.6983 58.5516 26.8107 3 1e-16 -4.12244
17154 1 60.1711 58.5516 26.8107 3 3.99999e-16 -4.12244
17155 1 59.3468 58.5516 24.4793 3 3.99999e-16 -4.12244
17156 1 61.8196 58.5516 24.4793 3 5.77599e-17 -4.12244
17157 1 60.9953 58.5516 22.1479 3 9.99999e-17 -4.12244
17158 1 63.4681 58.5516 22.1479 3 2.304e-17 -4.12244
17159 1 62.6439 58.5516 19.8166 3 5.76e-18 -4.12244
17160 1 46.1586 56.5326 46.6273 3 1.0169e-16 -4.12244
17161 1 48.6314 56.5326 46.6273 3 1.0169e-16 -4.12244
17162 1 47.8072 56.5326 44.2959 3 3.99999e-16 -4.12244
17163 1 50.2799 56.5326 44.2959 3 2.01948e-28 -4.12244
17164 1 49.4557 56.5326 41.9645 3 9.99999e-17 -4.12244
17165 1 51.9285 56.5326 41.9645 3 1e-16 -4.12244
17166 1 51.1042 56.5326 39.6332 3 9.99999e-17 -4.12244
17167 1 53.577 56.5326 39.6332 3 3.99999e-16 -4.12244
17168 1 52.7527 56.5326 37.3018 3 4.00001e-16 -4.12244
17169 1 55.2255 56.5326 37.3018 3 1e-16 -4.12244
17170 1 54.4012 56.5326 34.9704 3 1e-16 -4.12244
17171 1 56.874 56.5326 34.9704 3 2.01948e-28 -4.12244
17172 1 56.0498 56.5326 32.6391 3 2.01948e-28 -4.12244
17173 1 58.5226 56.5326 32.6391 3 9.99999e-17 -4.12244
17174 1 57.6983 56.5326 30.3077 3 1e-16 -4.12244
17175 1 60.1711 56.5326 30.3077 3 3.99999e-16 -4.12244
17176 1 59.3468 56.5326 27.9764 3 3.99999e-16 -4.12244
17177 1 61.8196 56.5326 27.9764 3 5.77599e-17 -4.12244
17178 1 60.9953 56.5326 25.645 3 9.99999e-17 -4.12244
17179 1 63.4681 56.5326 25.645 3 2.304e-17 -4.12244
17180 1 62.6439 56.5326 23.3136 3 5.76e-18 -4.12244
17181 1 47.8072 54.5135 47.7929 3 4.05069e-16 -4.12244
17182 1 50.2799 54.5135 47.7929 3 5.06996e-18 -4.12244
17183 1 49.4557 54.5135 45.4616 3 9.99999e-17 -4.12244
17184 1 51.9285 54.5135 45.4616 3 1e-16 -4.12244
17185 1 51.1042 54.5135 43.1302 3 9.99999e-17 -4.12244
17186 1 53.577 54.5135 43.1302 3 3.99999e-16 -4.12244
17187 1 52.7527 54.5135 40.7989 3 4.00001e-16 -4.12244
17188 1 55.2255 54.5135 40.7989 3 1e-16 -4.12244
17189 1 54.4012 54.5135 38.4675 3 1e-16 -4.12244
17190 1 56.874 54.5135 38.4675 3 0 -4.12244
17191 1 56.0498 54.5135 36.1361 3 6.05845e-28 -4.12244
17192 1 58.5226 54.5135 36.1361 3 9.99999e-17 -4.12244
17193 1 57.6983 54.5135 33.8048 3 1e-16 -4.12244
17194 1 60.1711 54.5135 33.8048 3 3.99999e-16 -4.12244
17195 1 59.3468 54.5135 31.4734 3 3.99999e-16 -4.12244
17196 1 61.8196 54.5135 31.4734 3 5.77599e-17 -4.12244
17197 1 60.9953 54.5135 29.142 3 9.99999e-17 -4.12244
17198 1 63.4681 54.5135 29.142 3 2.304e-17 -4.12244
17199 1 62.6439 54.5135 26.8107 3 5.76e-18 -4.12244
17200 1 51.1042 52.4945 46.6273 3 1.0169e-16 -4.12244
17201 1 53.577 52.4945 46.6273 3 4.0169e-16 -4.12244
17202 1 52.7527 52.4945 44.2959 3 4.00001e-16 -4.12244
17203 1 55.2255 52.4945 44.2959 3 1e-16 -4.12244
17204 1 54.4012 52.4945 41.9645 3 1e-16 -4.12244
17205 1 56.874 52.4945 41.9645 3 0 -4.12244
17206 1 56.0498 52.4945 39.6332 3 0 -4.12244
17207 1 58.5226 52.4945 39.6332 3 9.99999e-17 -4.12244
17208 1 57.6983 52.4945 37.3018 3 1e-16 -4.12244
17209 1 60.1711 52.4945 37.3018 3 3.99999e-16 -4.12244
17210 1 59.3468 52.4945 34.9704 3 3.99999e-16 -4.12244
17211 1 61.8196 52.4945 34.9704 3 5.77599e-17 -4.12244
17212 1 60.9953 52.4945 32.6391 3 9.99999e-17 -4.12244
17213 1 63.4681 52.4945 32.6391 3 2.304e-17 -4.12244
17214 1 62.6439 52.4945 30.3077 3 5.76e-18 -4.12244
17215 1 52.7527 50.4755 47.7929 3 4.05071e-16 -4.12244
17216 1 55.2255 50.4755 47.7929 3 1.0507e-16 -4.12244
17217 1 54.4012 50.4755 45.4616 3 1e-16 -4.12244
17218 1 56.874 50.4755 45.4616 3 0 -4.12244
17219 1 56.0498 50.4755 43.1302 3 6.05845e-28 -4.12244
17220 1 58.5226 50.4755 43.1302 3 9.99999e-17 -4.12244
17221 1 57.6983 50.4755 40.7989 3 1e-16 -4.12244
17222 1 60.1711 50.4755 40.7989 3 3.99999e-16 -4.12244
17223 1 59.3468 50.4755 38.4675 3 3.99999e-16 -4.12244
17224 1 61.8196 50.4755 38.4675 3 5.77599e-17 -4.12244
17225 1 60.9953 50.4755 36.1361 3 9.99999e-17 -4.12244
17226 1 63.4681 50.4755 36.1361 3 2.304e-17 -4.12244
17227 1 62.6439 50.4755 33.8048 3 5.76e-18 -4.12244
17228 1 56.0498 48.4565 46.6273 3 1.69002e-18 -4.12244
17229 1 58.5226 48.4565 46.6273 3 1.0169e-16 -4.12244
17230 1 57.6983 48.4565 44.2959 3 1e-16 -4.12244
17231 1 60.1711 48.4565 44.2959 3 3.99999e-16 -4.12244
17232 1 59.3468 48.4565 41.9645 3 3.99999e-16 -4.12244
17233 1 61.8196 48.4565 41.9645 3 5.77599e-17 -4.12244
17234 1 60.9953 48.4565 39.6332 3 9.99999e-17 -4.12244
17235 1 63.4681 48.4565 39.6332 3 2.304e-17 -4.12244
17236 1 62.6439 48.4565 37.3018 3 5.76e-18 -4.12244
17237 1 57.6983 46.4375 47.7929 3 1.0507e-16 -4.12244
17238 1 60.1711 46.4375 47.7929 3 4.05069e-16 -4.12244
17239 1 59.3468 46.4375 45.4616 3 3.99999e-16 -4.12244
17240 1 61.8196 46.4375 45.4616 3 5.77599e-17 -4.12244
17241 1 60.9953 46.4375 43.1302 3 9.99999e-17 -4.12244
17242 1 63.4681 46.4375 43.1302 3 2.304e-17 -4.12244
17243 1 62.6439 46.4375 40.7989 3 5.76e-18 -4.12244
17244 1 60.9953 44.4184 46.6273 3 1.0169e-16 -4.12244
17245 1 63.4681 44.4184 46.6273 3 2.473e-17 -4.12244
17246 1 62.6439 44.4184 44.2959 3 5.76e-18 -4.12244
17247 1 62.6439 42.3994 47.7929 3 1.083e-17 -4.12244
17248 1 42.8616 62.5896 47.7929 5 12.2293 -3.54465
17249 1 45.3344 62.5896 47.7929 5 12.2293 -3.54465
17250 1 44.5101 62.5896 45.4616 5 12.2293 -3.54465
17251 1 46.9829 62.5896 45.4616 5 12.2293 -3.54465
17252 1 46.1586 62.5896 43.1302 5 12.2293 -3.54465
17253 1 48.6314 62.5896 43.1302 5 12.2293 -3.54465
17254 1 47.8072 62.5896 40.7989 5 12.2293 -3.54465
17255 1 50.2799 62.5896 40.7989 5 12.2293 -3.54465
17256 1 49.4557 62.5896 38.4675 5 12.2293 -3.54465
17257 1 51.9285 62.5896 38.4675 5 12.2293 -3.54465
17258 1 51.1042 62.5896 36.1361 5 12.2293 -3.54465
17259 1 53.577 62.5896 36.1361 5 12.2293 -3.54465
17260 1 52.7527 62.5896 33.8048 5 12.2293 -3.54465
17261 1 55.2255 62.5896 33.8048 5 12.2293 -3.54465
17262 1 54.4012 62.5896 31.4734 5 12.2293 -3.54465
17263 1 56.874 62.5896 31.4734 5 12.2293 -3.54465
17264 1 56.0498 62.5896 29.142 5 12.2293 -3.54465
17265 1 58.5226 62.5896 29.142 5 12.2293 -3.54465
17266 1 57.6983 62.5896 26.8107 5 12.2293 -3.54465
17267 1 60.1711 62.5896 26.8107 5 12.2293 -3.54465
17268 1 59.3468 62.5896 24.4793 5 12.2293 -3.54465
17269 1 61.8196 62.5896 24.4793 5 12.2293 -3.54465
17270 1 60.9953 62.5896 22.1479 5 12.2293 -3.54465
17271 1 63.4681 62.5896 22.1479 5 12.2293 -3.54465
17272 1 62.6439 62.5896 19.8166 5 12.2293 -3.54465
17273 1 46.1586 60.5706 46.6273 3 1.0169e-16 -4.10627
17274 1 48.6314 60.5706 46.6273 3 1.0169e-16 -4.10627
17275 1 47.8072 60.5706 44.2959 3 3.99999e-16 -4.10627
17276 1 50.2799 60.5706 44.2959 3 6.05845e-28 -4.10627
17277 1 49.4557 60.5706 41.9645 3 9.99999e-17 -4.10627
17278 1 51.9285 60.5706 41.9645 3 1e-16 -4.10627
17279 1 51.1042 60.5706 39.6332 3 9.99999e-17 -4.10627
17280 1 53.577 60.5706 39.6332 3 3.99999e-16 -4.10627
17281 1 52.7527 60.5706 37.3018 3 4.00001e-16 -4.10627
17282 1 55.2255 60.5706 37.3018 3 1e-16 -4.10627
17283 1 54.4012 60.5706 34.9704 3 1e-16 -4.10627
17284 1 56.874 60.5706 34.9704 3 6.05845e-28 -4.10627
17285 1 56.0498 60.5706 32.6391 3 6.05845e-28 -4.10627
17286 1 58.5226 60.5706 32.6391 3 9.99999e-17 -4.10627
17287 1 57.6983 60.5706 30.3077 3 1e-16 -4.10627
17288 1 60.1711 60.5706 30.3077 3 3.99999e-16 -4.10627
17289 1 59.3468 60.5706 27.9764 3 3.99999e-16 -4.10627
17290 1 61.8196 60.5706 27.9764 3 5.77599e-17 -4.10627
17291 1 60.9953 60.5706 25.645 3 9.99999e-17 -4.10627
17292 1 63.4681 60.5706 25.645 3 2.304e-17 -4.10627
17293 1 62.6439 60.5706 23.3136 3 5.76e-18 -4.10627
17294 1 47.8072 58.5516 47.7929 3 4.05069e-16 -4.12244
17295 1 50.2799 58.5516 47.7929 3 5.06996e-18 -4.12244
17296 1 49.4557 58.5516 45.4616 3 9.99999e-17 -4.12244
17297 1 51.9285 58.5516 45.4616 3 1e-16 -4.12244
17298 1 51.1042 58.5516 43.1302 3 9.99999e-17 -4.12244
17299 1 53.577 58.5516 43.1302 3 3.99999e-16 -4.12244
17300 1 52.7527 58.5516 40.7989 3 4.00001e-16 -4.12244
17301 1 55.2255 58.5516 40.7989 3 1e-16 -4.12244
17302 1 54.4012 58.5516 38.4675 3 1e-16 -4.12244
17303 1 56.874 58.5516 38.4675 3 0 -4.12244
17304 1 56.0498 58.5516 36.1361 3 6.05845e-28 -4.12244
17305 1 58.5226 58.5516 36.1361 3 9.99999e-17 -4.12244
17306 1 57.6983 58.5516 33.8048 3 1e-16 -4.12244
17307 1 60.1711 58.5516 33.8048 3 3.99999e-16 -4.12244
17308 1 59.3468 58.5516 31.4734 3 3.99999e-16 -4.12244
17309 1 61.8196 58.5516 31.4734 3 5.77599e-17 -4.12244
17310 1 60.9953 58.5516 29.142 3 9.99999e-17 -4.12244
17311 1 63.4681 58.5516 29.142 3 2.304e-17 -4.12244
17312 1 62.6439 58.5516 26.8107 3 5.76e-18 -4.12244
17313 1 51.1042 56.5326 46.6273 3 1.0169e-16 -4.12244
17314 1 53.577 56.5326 46.6273 3 4.0169e-16 -4.12244
17315 1 52.7527 56.5326 44.2959 3 4.00001e-16 -4.12244
17316 1 55.2255 56.5326 44.2959 3 1e-16 -4.12244
17317 1 54.4012 56.5326 41.9645 3 1e-16 -4.12244
17318 1 56.874 56.5326 41.9645 3 0 -4.12244
17319 1 56.0498 56.5326 39.6332 3 0 -4.12244
17320 1 58.5226 56.5326 39.6332 3 9.99999e-17 -4.12244
17321 1 57.6983 56.5326 37.3018 3 1e-16 -4.12244
17322 1 60.1711 56.5326 37.3018 3 3.99999e-16 -4.12244
17323 1 59.3468 56.5326 34.9704 3 3.99999e-16 -4.12244
17324 1 61.8196 56.5326 34.9704 3 5.77599e-17 -4.12244
17325 1 60.9953 56.5326 32.6391 3 9.99999e-17 -4.12244
17326 1 63.4681 56.5326 32.6391 3 2.304e-17 -4.12244
17327 1 62.6439 56.5326 30.3077 3 5.76e-18 -4.12244
17328 1 52.7527 54.5135 47.7929 3 4.05071e-16 -4.12244
17329 1 55.2255 54.5135 47.7929 3 1.0507e-16 -4.12244
17330 1 54.4012 54.5135 45.4616 3 1e-16 -4.12244
17331 1 56.874 54.5135 45.4616 3 0 -4.12244
17332 1 56.0498 54.5135 43.1302 3 6.05845e-28 -4.12244
17333 1 58.5226 54.5135 43.1302 3 9.99999e-17 -4.12244
17334 1 57.6983 54.5135 40.7989 3 1e-16 -4.12244
17335 1 60.1711 54.5135 40.7989 3 3.99999e-16 -4.12244
17336 1 59.3468 54.5135 38.4675 3 3.99999e-16 -4.12244
17337 1 61.8196 54.5135 38.4675 3 5.77599e-17 -4.12244
17338 1 60.9953 54.5135 36.1361 3 9.99999e-17 -4.12244
17339 1 63.4681 54.5135 36.1361 3 2.304e-17 -4.12244
17340 1 62.6439 54.5135 33.8048 3 5.76e-18 -4.12244
17341 1 56.0498 52.4945 46.6273 3 1.69002e-18 -4.12244
17342 1 58.5226 52.4945 46.6273 3 1.0169e-16 -4.12244
17343 1 57.6983 52.4945 44.2959 3 1e-16 -4.12244
17344 1 60.1711 52.4945 44.2959 3 3.99999e-16 -4.12244
17345 1 59.3468 52.4945 41.9645 3 3.99999e-16 -4.12244
17346 1 61.8196 52.4945 41.9645 3 5.77599e-17 -4.12244
17347 1 60.9953 52.4945 39.6332 3 9.99999e-17 -4.12244
17348 1 63.4681 52.4945 39.6332 3 2.304e-17 -4.12244
17349 1 62.6439 52.4945 37.3018 3 5.76e-18 -4.12244
17350 1 57.6983 50.4755 47.7929 3 1.0507e-16 -4.12244
17351 1 60.1711 50.4755 47.7929 3 4.05069e-16 -4.12244
17352 1 59.3468 50.4755 45.4616 3 3.99999e-16 -4.12244
17353 1 61.8196 50.4755 45.4616 3 5.77599e-17 -4.12244
17354 1 60.9953 50.4755 43.1302 3 9.99999e-17 -4.12244
17355 1 63.4681 50.4755 43.1302 3 2.304e-17 -4.12244
17356 1 62.6439 50.4755 40.7989 3 5.76e-18 -4.12244
17357 1 60.9953 48.4565 46.6273 3 1.0169e-16 -4.12244
17358 1 63.4681 48.4565 46.6273 3 2.473e-17 -4.12244
17359 1 62.6439 48.4565 44.2959 3 5.76e-18 -4.12244
17360 1 62.6439 46.4375 47.7929 3 1.083e-17 -4.12244
17361 1 47.8072 62.5896 47.7929 5 12.2293 -3.54465
17362 1 50.2799 62.5896 47.7929 5 12.2293 -3.54465
17363 1 49.4557 62.5896 45.4616 5 12.2293 -3.54465
17364 1 51.9285 62.5896 45.4616 5 12.2293 -3.54465
17365 1 51.1042 62.5896 43.1302 5 12.2293 -3.54465
17366 1 53.577 62.5896 43.1302 5 12.2293 -3.54465
17367 1 52.7527 62.5896 40.7989 5 12.2293 -3.54465
17368 1 55.2255 62.5896 40.7989 5 12.2293 -3.54465
17369 1 54.4012 62.5896 38.4675 5 12.2293 -3.54465
17370 1 56.874 62.5896 38.4675 5 12.2293 -3.54465
17371 1 56.0498 62.5896 36.1361 5 12.2293 -3.54465
17372 1 58.5226 62.5896 36.1361 5 12.2293 -3.54465
17373 1 57.6983 62.5896 33.8048 5 12.2293 -3.54465
17374 1 60.1711 62.5896 33.8048 5 12.2293 -3.54465
17375 1 59.3468 62.5896 31.4734 5 12.2293 -3.54465
17376 1 61.8196 62.5896 31.4734 5 12.2293 -3.54465
17377 1 60.9953 62.5896 29.142 5 12.2293 -3.54465
17378 1 63.4681 62.5896 29.142 5 12.2293 -3.54465
17379 1 62.6439 62.5896 26.8107 5 12.2293 -3.54465
17380 1 51.1042 60.5706 46.6273 3 1.0169e-16 -4.10627
17381 1 53.577 60.5706 46.6273 3 4.0169e-16 -4.10627
17382 1 52.7527 60.5706 44.2959 3 4.00001e-16 -4.10627
17383 1 55.2255 60.5706 44.2959 3 1e-16 -4.10627
17384 1 54.4012 60.5706 41.9645 3 1e-16 -4.10627
17385 1 56.874 60.5706 41.9645 3 4.03897e-28 -4.10627
17386 1 56.0498 60.5706 39.6332 3 4.03897e-28 -4.10627
17387 1 58.5226 60.5706 39.6332 3 9.99999e-17 -4.10627
17388 1 57.6983 60.5706 37.3018 3 1e-16 -4.10627
17389 1 60.1711 60.5706 37.3018 3 3.99999e-16 -4.10627
17390 1 59.3468 60.5706 34.9704 3 3.99999e-16 -4.10627
17391 1 61.8196 60.5706 34.9704 3 5.77599e-17 -4.10627
17392 1 60.9953 60.5706 32.6391 3 9.99999e-17 -4.10627
17393 1 63.4681 60.5706 32.6391 3 2.304e-17 -4.10627
17394 1 62.6439 60.5706 30.3077 3 5.76e-18 -4.10627
17395 1 52.7527 58.5516 47.7929 3 4.05071e-16 -4.12244
17396 1 55.2255 58.5516 47.7929 3 1.0507e-16 -4.12244
17397 1 54.4012 58.5516 45.4616 3 1e-16 -4.12244
17398 1 56.874 58.5516 45.4616 3 0 -4.12244
17399 1 56.0498 58.5516 43.1302 3 6.05845e-28 -4.12244
17400 1 58.5226 58.5516 43.1302 3 9.99999e-17 -4.12244
17401 1 57.6983 58.5516 40.7989 3 1e-16 -4.12244
17402 1 60.1711 58.5516 40.7989 3 3.99999e-16 -4.12244
17403 1 59.3468 58.5516 38.4675 3 3.99999e-16 -4.12244
17404 1 61.8196 58.5516 38.4675 3 5.77599e-17 -4.12244
17405 1 60.9953 58.5516 36.1361 3 9.99999e-17 -4.12244
17406 1 63.4681 58.5516 36.1361 3 2.304e-17 -4.12244
17407 1 62.6439 58.5516 33.8048 3 5.76e-18 -4.12244
17408 1 56.0498 56.5326 46.6273 3 1.69002e-18 -4.12244
17409 1 58.5226 56.5326 46.6273 3 1.0169e-16 -4.12244
17410 1 57.6983 56.5326 44.2959 3 1e-16 -4.12244
17411 1 60.1711 56.5326 44.2959 3 3.99999e-16 -4.12244
17412 1 59.3468 56.5326 41.9645 3 3.99999e-16 -4.12244
17413 1 61.8196 56.5326 41.9645 3 5.77599e-17 -4.12244
17414 1 60.9953 56.5326 39.6332 3 9.99999e-17 -4.12244
17415 1 63.4681 56.5326 39.6332 3 2.304e-17 -4.12244
17416 1 62.6439 56.5326 37.3018 3 5.76e-18 -4.12244
17417 1 57.6983 54.5135 47.7929 3 1.0507e-16 -4.12244
17418 1 60.1711 54.5135 47.7929 3 4.05069e-16 -4.12244
17419 1 59.3468 54.5135 45.4616 3 3.99999e-16 -4.12244
17420 1 61.8196 54.5135 45.4616 3 5.77599e-17 -4.12244
17421 1 60.9953 54.5135 43.1302 3 9.99999e-17 -4.12244
17422 1 63.4681 54.5135 43.1302 3 2.304e-17 -4.12244
17423 1 62.6439 54.5135 40.7989 3 5.76e-18 -4.12244
17424 1 60.9953 52.4945 46.6273 3 1.0169e-16 -4.12244
17425 1 63.4681 52.4945 46.6273 3 2.473e-17 -4.12244
17426 1 62.6439 52.4945 44.2959 3 5.76e-18 -4.12244
17427 1 62.6439 50.4755 47.7929 3 1.083e-17 -4.12244
17428 1 52.7527 62.5896 47.7929 5 12.2293 -3.54465
17429 1 55.2255 62.5896 47.7929 5 12.2293 -3.54465
17430 1 54.4012 62.5896 45.4616 5 12.2293 -3.54465
17431 1 56.874 62.5896 45.4616 5 12.2293 -3.54465
17432 1 56.0498 62.5896 43.1302 5 12.2293 -3.54465
17433 1 58.5226 62.5896 43.1302 5 12.2293 -3.54465
17434 1 57.6983 62.5896 40.7989 5 12.2293 -3.54465
17435 1 60.1711 62.5896 40.7989 5 12.2293 -3.54465
17436 1 59.3468 62.5896 38.4675 5 12.2293 -3.54465
17437 1 61.8196 62.5896 38.4675 5 12.2293 -3.54465
17438 1 60.9953 62.5896 36.1361 5 12.2293 -3.54465
17439 1 63.4681 62.5896 36.1361 5 12.2293 -3.54465
17440 1 62.6439 62.5896 33.8048 5 12.2293 -3.54465
17441 1 56.0498 60.5706 46.6273 3 1.69002e-18 -4.10627
17442 1 58.5226 60.5706 46.6273 3 1.0169e-16 -4.10627
17443 1 57.6983 60.5706 44.2959 3 1e-16 -4.10627
17444 1 60.1711 60.5706 44.2959 3 3.99999e-16 -4.10627
17445 1 59.3468 60.5706 41.9645 3 3.99999e-16 -4.10627
17446 1 61.8196 60.5706 41.9645 3 5.77599e-17 -4.10627
17447 1 60.9953 60.5706 39.6332 3 9.99999e-17 -4.10627
17448 1 63.4681 60.5706 39.6332 3 2.304e-17 -4.10627
17449 1 62.6439 60.5706 37.3018 3 5.76e-18 -4.10627
17450 1 57.6983 58.5516 47.7929 3 1.0507e-16 -4.12244
17451 1 60.1711 58.5516 47.7929 3 4.05069e-16 -4.12244
17452 1 59.3468 58.5516 45.4616 3 3.99999e-16 -4.12244
17453 1 61.8196 58.5516 45.4616 3 5.77599e-17 -4.12244
17454 1 60.9953 58.5516 43.1302 3 9.99999e-17 -4.12244
17455 1 63.4681 58.5516 43.1302 3 2.304e-17 -4.12244
17456 1 62.6439 58.5516 40.7989 3 5.76e-18 -4.12244
17457 1 60.9953 56.5326 46.6273 3 1.0169e-16 -4.12244
17458 1 63.4681 56.5326 46.6273 3 2.473e-17 -4.12244
17459 1 62.6439 56.5326 44.2959 3 5.76e-18 -4.12244
17460 1 62.6439 54.5135 47.7929 3 1.083e-17 -4.12244
17461 1 57.6983 62.5896 47.7929 5 12.2293 -3.54465
17462 1 60.1711 62.5896 47.7929 5 12.2293 -3.54465
17463 1 59.3468 62.5896 45.4616 5 12.2293 -3.54465
17464 1 61.8196 62.5896 45.4616 5 12.2293 -3.54465
17465 1 60.9953 62.5896 43.1302 5 12.2293 -3.54465
17466 1 63.4681 62.5896 43.1302 5 12.2293 -3.54465
17467 1 62.6439 62.5896 40.7989 5 12.2293 -3.54465
17468 1 60.9953 60.5706 46.6273 3 1.0169e-16 -4.10627
17469 1 63.4681 60.5706 46.6273 3 2.473e-17 -4.10627
17470 1 62.6439 60.5706 44.2959 3 5.76e-18 -4.10627
17471 1 62.6439 58.5516 47.7929 3 1.083e-17 -4.12244
17472 1 62.6439 62.5896 47.7929 5 12.2293 -3.54465
