ITEM: TIMESTEP
72
ITEM: NUMBER OF ATOMS
17472
ITEM: BOX BOUNDS pp ss pp
0.0000000000000000e+00 6.4292383637599997e+01
-6.4608629439699998e-03 6.2596070632943970e+01
0.0000000000000000e+00 4.8958625098699997e+01
ITEM: ATOMS id type x y z c_cna c_cs c_peat
1 1 63.3778 0 2.33136 5 6.02137 -3.54885
2 1 62.4378 0 0 5 6.02212 -3.54885
3 1 0.618197 0 0 5 6.02212 -3.54885
4 1 63.3765 4.03804 2.33136 3 1.41686e-06 -4.11576
5 1 62.4378 4.03804 0 3 1.41204e-06 -4.11577
6 1 0.618197 4.03804 0 3 1.41204e-06 -4.11577
7 1 63.5505 2.01902 5.82841 3 8.74829e-07 -4.09998
8 1 62.6107 2.01902 3.49704 3 8.67521e-07 -4.10002
9 1 0.791081 2.01902 3.49704 3 8.67521e-07 -4.10002
10 1 64.1439 2.01902 1.16568 3 8.63869e-07 -4.10005
11 1 2.32431 2.01902 1.16568 3 8.63871e-07 -4.10005
12 1 63.7268 0 9.32545 5 6.0192 -3.5488
13 1 62.7858 0 6.99409 5 6.01984 -3.54882
14 1 0.966198 0 6.99409 5 6.01984 -3.54882
15 1 0.0256663 0 4.66273 5 6.02059 -3.54884
16 1 2.49845 0 4.66273 5 6.02059 -3.54884
17 1 1.55824 0 2.33136 5 6.02137 -3.54885
18 1 4.03102 0 2.33136 5 6.02137 -3.54885
19 1 3.09098 0 0 5 6.02212 -3.54885
20 1 5.56376 0 0 5 6.02212 -3.54885
21 1 63.3734 8.0857 2.33167 3 1.16e-05 -4.11731
22 1 62.4378 8.08578 3.22736e-09 3 1.20964e-05 -4.11734
23 1 0.618197 8.08578 3.19611e-09 3 1.20964e-05 -4.11734
24 1 63.5467 6.05706 5.82841 3 0.000182136 -4.11648
25 1 62.6082 6.05706 3.49704 3 0.000190055 -4.11656
26 1 0.788623 6.05706 3.49704 3 0.000190055 -4.11656
27 1 64.1431 6.05706 1.16568 3 0.000192152 -4.11661
28 1 2.32347 6.05706 1.16568 3 0.000192152 -4.11661
29 1 63.7226 4.03804 9.32545 3 1.48586e-06 -4.11564
30 1 62.7823 4.03804 6.99409 3 1.45409e-06 -4.11568
31 1 0.962695 4.03804 6.99409 3 1.45408e-06 -4.11568
32 1 0.023165 4.03804 4.66273 3 1.43102e-06 -4.11573
33 1 2.49595 4.03804 4.66273 3 1.43102e-06 -4.11573
34 1 1.55694 4.03804 2.33136 3 1.41686e-06 -4.11576
35 1 4.02972 4.03804 2.33136 3 1.41686e-06 -4.11576
36 1 3.09098 4.03804 0 3 1.41206e-06 -4.11577
37 1 5.56376 4.03804 0 3 1.41204e-06 -4.11577
38 1 63.9009 2.01902 12.8225 3 9.22375e-07 -4.09974
39 1 62.9591 2.01902 10.4911 3 9.01619e-07 -4.09983
40 1 1.13954 2.01902 10.4911 3 9.01608e-07 -4.09983
41 1 0.198529 2.01902 8.15977 3 8.86011e-07 -4.09991
42 1 2.67131 2.01902 8.15977 3 8.86012e-07 -4.09991
43 1 1.73095 2.01902 5.82841 3 8.74814e-07 -4.09998
44 1 4.20373 2.01902 5.82841 3 8.74824e-07 -4.09998
45 1 3.26386 2.01902 3.49704 3 8.67515e-07 -4.10002
46 1 5.73665 2.01902 3.49704 3 8.67527e-07 -4.10002
47 1 4.7971 2.01902 1.16568 3 8.63871e-07 -4.10005
48 1 7.26988 2.01902 1.16568 3 8.63871e-07 -4.10005
49 1 64.0804 0 16.3195 5 6.01838 -3.54873
50 1 63.1377 0 13.9882 5 6.01843 -3.54876
51 1 1.31806 0 13.9882 5 6.01843 -3.54876
52 1 0.37593 0 11.6568 5 6.01871 -3.54878
53 1 2.84871 0 11.6568 5 6.01871 -3.54878
54 1 1.90718 0 9.32545 5 6.0192 -3.5488
55 1 4.37997 0 9.32545 5 6.0192 -3.5488
56 1 3.43898 0 6.99409 5 6.01984 -3.54882
57 1 5.91177 0 6.99409 5 6.01984 -3.54882
58 1 4.97123 0 4.66273 5 6.02059 -3.54884
59 1 7.44402 0 4.66273 5 6.02059 -3.54884
60 1 6.50381 0 2.33136 5 6.02137 -3.54885
61 1 8.97659 0 2.33136 5 6.02137 -3.54885
62 1 8.03655 0 0 5 6.02212 -3.54885
63 1 10.5093 0 0 5 6.02212 -3.54885
64 1 63.3683 12.1411 2.33318 3 2.08718e-05 -4.11721
65 1 62.4378 12.1412 6.25227e-09 3 2.06877e-05 -4.11724
66 1 0.618197 12.1412 6.06755e-09 3 2.06877e-05 -4.11724
67 1 63.5359 10.1131 5.83022 3 1.49876e-05 -4.11685
68 1 62.6014 10.1136 3.49837 3 1.54783e-05 -4.11697
69 1 0.781834 10.1136 3.49837 3 1.54783e-05 -4.11697
70 1 64.1408 10.1138 1.16616 3 1.59529e-05 -4.11702
71 1 2.32115 10.1138 1.16616 3 1.59529e-05 -4.11702
72 1 63.7127 8.084 9.3254 3 1.28943e-05 -4.11683
73 1 62.774 8.08489 6.99446 3 1.03533e-05 -4.11706
74 1 0.954414 8.08489 6.99446 3 1.03533e-05 -4.11706
75 1 0.0172079 8.08542 4.66319 3 1.05633e-05 -4.11722
76 1 2.48999 8.08542 4.66319 3 1.05633e-05 -4.11722
77 1 1.55383 8.0857 2.33167 3 1.16e-05 -4.11731
78 1 4.02662 8.0857 2.33167 3 1.16e-05 -4.11731
79 1 3.09098 8.08578 3.18426e-09 3 1.20963e-05 -4.11734
80 1 5.56376 8.08578 3.19966e-09 3 1.20964e-05 -4.11734
81 1 63.8949 6.05706 12.8225 3 9.19271e-05 -4.11595
82 1 62.9534 6.05706 10.4911 3 0.000131568 -4.11616
83 1 1.1338 6.05706 10.4911 3 0.000131569 -4.11616
84 1 0.193508 6.05706 8.15977 3 0.000163309 -4.11634
85 1 2.66629 6.05706 8.15977 3 0.000163309 -4.11634
86 1 1.72706 6.05706 5.82841 3 0.000182136 -4.11648
87 1 4.19984 6.05706 5.82841 3 0.000182136 -4.11648
88 1 3.26141 6.05706 3.49704 3 0.000190055 -4.11656
89 1 5.73419 6.05706 3.49704 3 0.000190055 -4.11656
90 1 4.79626 6.05706 1.16568 3 0.000192152 -4.11661
91 1 7.26904 6.05706 1.16568 3 0.000192152 -4.11661
92 1 64.0763 4.03804 16.3195 3 1.63654e-06 -4.11554
93 1 63.1331 4.03804 13.9882 3 1.57733e-06 -4.11556
94 1 1.31352 4.03804 13.9882 3 1.57733e-06 -4.11556
95 1 0.371349 4.03804 11.6568 3 1.52674e-06 -4.11559
96 1 2.84413 4.03804 11.6568 3 1.52672e-06 -4.11559
97 1 1.90296 4.03804 9.32545 3 1.48585e-06 -4.11564
98 1 4.37575 4.03804 9.32545 3 1.48585e-06 -4.11564
99 1 3.43548 4.03804 6.99409 3 1.4541e-06 -4.11568
100 1 5.90826 4.03804 6.99409 3 1.45408e-06 -4.11568
101 1 4.96873 4.03804 4.66273 3 1.43101e-06 -4.11573
102 1 7.44152 4.03804 4.66273 3 1.43103e-06 -4.11573
103 1 6.50251 4.03804 2.33136 3 1.41684e-06 -4.11576
104 1 8.97529 4.03804 2.33136 3 1.41686e-06 -4.11576
105 1 8.03655 4.03804 0 3 1.41207e-06 -4.11577
106 1 10.5093 4.03804 0 3 1.41204e-06 -4.11577
107 1 64.2579 2.01902 19.8166 3 1.00713e-06 -4.09949
108 1 63.314 2.01902 17.4852 3 9.78191e-07 -4.09956
109 1 1.49436 2.01902 17.4852 3 9.78189e-07 -4.09956
110 1 0.551062 2.01902 15.1539 3 9.4846e-07 -4.09964
111 1 3.02385 2.01902 15.1539 3 9.48475e-07 -4.09964
112 1 2.0813 2.01902 12.8225 3 9.22391e-07 -4.09974
113 1 4.55409 2.01902 12.8225 3 9.22391e-07 -4.09974
114 1 3.61233 2.01902 10.4911 3 9.01619e-07 -4.09983
115 1 6.08511 2.01902 10.4911 3 9.01619e-07 -4.09983
116 1 5.1441 2.01902 8.15977 3 8.85998e-07 -4.09991
117 1 7.61688 2.01902 8.15977 3 8.86011e-07 -4.09991
118 1 6.67652 2.01902 5.82841 3 8.74829e-07 -4.09998
119 1 9.1493 2.01902 5.82841 3 8.74829e-07 -4.09998
120 1 8.20943 2.01902 3.49704 3 8.67521e-07 -4.10002
121 1 10.6822 2.01902 3.49704 3 8.67506e-07 -4.10002
122 1 9.74266 2.01902 1.16568 3 8.63883e-07 -4.10005
123 1 12.2154 2.01902 1.16568 3 8.63869e-07 -4.10005
124 1 0.14616 0 23.3136 5 6.01964 -3.54869
125 1 63.4946 0 20.9823 5 6.01902 -3.5487
126 1 1.67497 0 20.9823 5 6.01902 -3.5487
127 1 0.731269 0 18.6509 5 6.01858 -3.54871
128 1 3.20405 0 18.6509 5 6.01858 -3.54871
129 1 2.26079 0 16.3195 5 6.01838 -3.54873
130 1 4.73357 0 16.3195 5 6.01838 -3.54873
131 1 3.79084 0 13.9882 5 6.01843 -3.54876
132 1 6.26363 0 13.9882 5 6.01843 -3.54876
133 1 5.3215 0 11.6568 5 6.01871 -3.54878
134 1 7.79428 0 11.6568 5 6.01871 -3.54878
135 1 6.85275 0 9.32545 5 6.0192 -3.5488
136 1 9.32553 0 9.32545 5 6.0192 -3.5488
137 1 8.38455 0 6.99409 5 6.01984 -3.54882
138 1 10.8573 0 6.99409 5 6.01984 -3.54882
139 1 9.9168 0 4.66273 5 6.02059 -3.54884
140 1 12.3896 0 4.66273 5 6.02059 -3.54884
141 1 11.4494 0 2.33136 5 6.02137 -3.54885
142 1 13.9222 0 2.33136 5 6.02137 -3.54885
143 1 12.9821 0 0 5 6.02212 -3.54885
144 1 15.4549 0 0 5 6.02212 -3.54885
145 1 63.3618 16.1927 2.33538 3 3.25865e-05 -4.11766
146 1 62.4378 16.1927 7.38247e-09 3 3.13416e-05 -4.1177
147 1 0.618197 16.1927 7.34333e-09 3 3.13416e-05 -4.1177
148 1 63.522 14.167 5.83492 3 3.05818e-05 -4.11723
149 1 62.5929 14.1674 3.50127 3 2.74318e-05 -4.11738
150 1 0.773267 14.1674 3.50127 3 2.74318e-05 -4.11738
151 1 64.1379 14.1675 1.16714 3 2.60015e-05 -4.11745
152 1 2.31826 14.1675 1.16714 3 2.60015e-05 -4.11745
153 1 63.6953 12.1382 9.32983 3 2.48705e-05 -4.11668
154 1 62.7598 12.1399 6.99836 3 2.27765e-05 -4.11694
155 1 0.940197 12.1399 6.99836 3 2.27765e-05 -4.11694
156 1 0.00721941 12.1407 4.66607 3 2.14783e-05 -4.11711
157 1 2.48 12.1407 4.66607 3 2.14783e-05 -4.11711
158 1 1.54869 12.1411 2.33318 3 2.08718e-05 -4.11721
159 1 4.02148 12.1411 2.33318 3 2.08718e-05 -4.11721
160 1 3.09098 12.1412 6.14348e-09 3 2.06877e-05 -4.11724
161 1 5.56376 12.1412 6.21891e-09 3 2.06877e-05 -4.11724
162 1 63.8796 10.1072 12.8225 3 2.37569e-05 -4.11607
163 1 62.9381 10.1101 10.4922 3 1.79658e-05 -4.11641
164 1 1.11847 10.1101 10.4922 3 1.79658e-05 -4.11641
165 1 0.179817 10.1119 8.16153 3 1.53536e-05 -4.11667
166 1 2.6526 10.1119 8.16153 3 1.53536e-05 -4.11667
167 1 1.71634 10.1131 5.83022 3 1.49876e-05 -4.11685
168 1 4.18913 10.1131 5.83022 3 1.49876e-05 -4.11685
169 1 3.25462 10.1136 3.49837 3 1.54783e-05 -4.11697
170 1 5.7274 10.1136 3.49837 3 1.54783e-05 -4.11697
171 1 4.79393 10.1138 1.16616 3 1.59529e-05 -4.11702
172 1 7.26672 10.1138 1.16616 3 1.59529e-05 -4.11702
173 1 64.0679 8.07917 16.3176 3 2.77711e-05 -4.11577
174 1 63.1233 8.08102 13.9867 3 2.55864e-05 -4.11616
175 1 1.30366 8.08102 13.9867 3 2.55864e-05 -4.11616
176 1 0.360991 8.0827 11.6561 3 1.88849e-05 -4.11652
177 1 2.83378 8.0827 11.6561 3 1.88849e-05 -4.11652
178 1 1.89315 8.084 9.3254 3 1.28943e-05 -4.11683
179 1 4.36593 8.084 9.3254 3 1.28943e-05 -4.11683
180 1 3.4272 8.08489 6.99446 3 1.03533e-05 -4.11706
181 1 5.89998 8.08489 6.99446 3 1.03533e-05 -4.11706
182 1 4.96278 8.08542 4.66319 3 1.05633e-05 -4.11722
183 1 7.43556 8.08542 4.66319 3 1.05633e-05 -4.11722
184 1 6.4994 8.0857 2.33167 3 1.16e-05 -4.11731
185 1 8.97218 8.0857 2.33167 3 1.16e-05 -4.11731
186 1 8.03655 8.08578 3.61932e-09 3 1.20963e-05 -4.11734
187 1 10.5093 8.08578 3.66357e-09 3 1.20964e-05 -4.11734
188 1 64.2544 6.05706 19.8166 3 1.34715e-05 -4.11537
189 1 63.3091 6.05706 17.4852 3 2.81613e-05 -4.11553
190 1 1.48951 6.05706 17.4852 3 2.81612e-05 -4.11553
191 1 0.545379 6.05706 15.1539 3 5.47065e-05 -4.11573
192 1 3.01816 6.05706 15.1539 3 5.47064e-05 -4.11573
193 1 2.07532 6.05706 12.8225 3 9.19272e-05 -4.11595
194 1 4.54811 6.05706 12.8225 3 9.19273e-05 -4.11595
195 1 3.60658 6.05706 10.4911 3 0.000131569 -4.11616
196 1 6.07937 6.05706 10.4911 3 0.000131569 -4.11616
197 1 5.13908 6.05706 8.15977 3 0.000163309 -4.11634
198 1 7.61186 6.05706 8.15977 3 0.000163309 -4.11634
199 1 6.67262 6.05706 5.82841 3 0.000182136 -4.11648
200 1 9.14541 6.05706 5.82841 3 0.000182136 -4.11648
201 1 8.20697 6.05706 3.49704 3 0.000190055 -4.11656
202 1 10.6798 6.05706 3.49704 3 0.000190055 -4.11656
203 1 9.74182 6.05706 1.16568 3 0.000192152 -4.11661
204 1 12.2146 6.05706 1.16568 3 0.000192152 -4.11661
205 1 0.14544 4.03804 23.3136 3 1.78548e-06 -4.11551
206 1 63.4925 4.03804 20.9823 3 1.75326e-06 -4.11552
207 1 1.67288 4.03804 20.9823 3 1.75329e-06 -4.11552
208 1 0.728024 4.03804 18.6509 3 1.69894e-06 -4.11552
209 1 3.20081 4.03804 18.6509 3 1.69894e-06 -4.11552
210 1 2.2567 4.03804 16.3195 3 1.63656e-06 -4.11554
211 1 4.72948 4.03804 16.3195 3 1.63654e-06 -4.11554
212 1 3.7863 4.03804 13.9882 3 1.57729e-06 -4.11556
213 1 6.25909 4.03804 13.9882 3 1.57733e-06 -4.11556
214 1 5.31692 4.03804 11.6568 3 1.52672e-06 -4.11559
215 1 7.7897 4.03804 11.6568 3 1.52674e-06 -4.11559
216 1 6.84853 4.03804 9.32545 3 1.48587e-06 -4.11564
217 1 9.32131 4.03804 9.32545 3 1.48585e-06 -4.11564
218 1 8.38105 4.03804 6.99409 3 1.4541e-06 -4.11568
219 1 10.8538 4.03804 6.99409 3 1.4541e-06 -4.11568
220 1 9.9143 4.03804 4.66273 3 1.43101e-06 -4.11573
221 1 12.3871 4.03804 4.66273 3 1.43103e-06 -4.11573
222 1 11.4481 4.03804 2.33136 3 1.41686e-06 -4.11576
223 1 13.9209 4.03804 2.33136 3 1.41684e-06 -4.11576
224 1 12.9821 4.03804 0 3 1.41204e-06 -4.11577
225 1 15.4549 4.03804 0 3 1.41206e-06 -4.11577
226 1 0.326468 2.01902 26.8107 3 1.02868e-06 -4.09945
227 1 63.6742 2.01902 24.4793 3 1.03673e-06 -4.09944
228 1 1.85459 2.01902 24.4793 3 1.03671e-06 -4.09944
229 1 0.909925 2.01902 22.1479 3 1.02868e-06 -4.09945
230 1 3.38271 2.01902 22.1479 3 1.02869e-06 -4.09945
231 1 2.4383 2.01902 19.8166 3 1.00711e-06 -4.09949
232 1 4.91108 2.01902 19.8166 3 1.00712e-06 -4.09949
233 1 3.96714 2.01902 17.4852 3 9.78191e-07 -4.09956
234 1 6.43992 2.01902 17.4852 3 9.78176e-07 -4.09956
235 1 5.49663 2.01902 15.1539 3 9.48475e-07 -4.09964
236 1 7.96941 2.01902 15.1539 3 9.48463e-07 -4.09964
237 1 7.02687 2.01902 12.8225 3 9.22383e-07 -4.09974
238 1 9.49965 2.01902 12.8225 3 9.22407e-07 -4.09974
239 1 8.55789 2.01902 10.4911 3 9.01608e-07 -4.09983
240 1 11.0307 2.01902 10.4911 3 9.01634e-07 -4.09983
241 1 10.0897 2.01902 8.15977 3 8.85998e-07 -4.09991
242 1 12.5624 2.01902 8.15977 3 8.86011e-07 -4.09991
243 1 11.6221 2.01902 5.82841 3 8.74839e-07 -4.09998
244 1 14.0949 2.01902 5.82841 3 8.74814e-07 -4.09998
245 1 13.155 2.01902 3.49704 3 8.67527e-07 -4.10002
246 1 15.6278 2.01902 3.49704 3 8.67515e-07 -4.10002
247 1 14.6882 2.01902 1.16568 3 8.63871e-07 -4.10005
248 1 17.161 2.01902 1.16568 3 8.63871e-07 -4.10005
249 1 0.505124 0 30.3077 5 6.01858 -3.54871
250 1 63.8538 0 27.9764 5 6.01902 -3.5487
251 1 2.03421 0 27.9764 5 6.01902 -3.5487
252 1 1.09023 0 25.645 5 6.01964 -3.54869
253 1 3.56302 0 25.645 5 6.01964 -3.54869
254 1 2.61894 0 23.3136 5 6.01964 -3.54869
255 1 5.09173 0 23.3136 5 6.01964 -3.54869
256 1 4.14775 0 20.9823 5 6.01902 -3.5487
257 1 6.62054 0 20.9823 5 6.01902 -3.5487
258 1 5.67684 0 18.6509 5 6.01858 -3.54871
259 1 8.14962 0 18.6509 5 6.01858 -3.54871
260 1 7.20635 0 16.3195 5 6.01838 -3.54873
261 1 9.67914 0 16.3195 5 6.01838 -3.54873
262 1 8.73641 0 13.9882 5 6.01843 -3.54876
263 1 11.2092 0 13.9882 5 6.01843 -3.54876
264 1 10.2671 0 11.6568 5 6.01871 -3.54878
265 1 12.7398 0 11.6568 5 6.01871 -3.54878
266 1 11.7983 0 9.32545 5 6.0192 -3.5488
267 1 14.2711 0 9.32545 5 6.0192 -3.5488
268 1 13.3301 0 6.99409 5 6.01984 -3.54882
269 1 15.8029 0 6.99409 5 6.01984 -3.54882
270 1 14.8624 0 4.66273 5 6.02059 -3.54884
271 1 17.3352 0 4.66273 5 6.02059 -3.54884
272 1 16.3949 0 2.33136 5 6.02137 -3.54885
273 1 18.8677 0 2.33136 5 6.02137 -3.54885
274 1 17.9277 0 0 5 6.02212 -3.54885
275 1 20.4005 0 0 5 6.02212 -3.54885
276 1 63.3537 20.2396 2.33725 3 4.80558e-05 -4.11824
277 1 62.4378 20.2394 7.65042e-09 3 4.58252e-05 -4.11829
278 1 0.618196 20.2394 7.65326e-09 3 4.58252e-05 -4.11829
279 1 63.504 18.2172 5.84054 3 4.99255e-05 -4.1177
280 1 62.582 18.2169 3.50458 3 4.16723e-05 -4.11787
281 1 0.762422 18.2169 3.50458 3 4.16723e-05 -4.11787
282 1 64.1342 18.2167 1.16823 3 3.80993e-05 -4.11796
283 1 2.31465 18.2167 1.16823 3 3.80993e-05 -4.11796
284 1 63.671 16.1913 9.33825 3 5.67156e-05 -4.11702
285 1 62.7409 16.1925 7.00489 3 4.43745e-05 -4.11733
286 1 0.921322 16.1925 7.00489 3 4.43745e-05 -4.11733
287 1 64.2868 16.1928 4.67046 3 3.6577e-05 -4.11754
288 1 2.46722 16.1928 4.67046 3 3.6577e-05 -4.11754
289 1 1.54225 16.1927 2.33538 3 3.25865e-05 -4.11766
290 1 4.01503 16.1927 2.33538 3 3.25865e-05 -4.11766
291 1 3.09098 16.1927 7.34585e-09 3 3.13416e-05 -4.1177
292 1 5.56376 16.1927 7.36978e-09 3 3.13416e-05 -4.1177
293 1 63.8555 14.1593 12.8297 3 4.62847e-05 -4.11616
294 1 62.9158 14.1636 10.4994 3 4.15638e-05 -4.11665
295 1 1.09617 14.1636 10.4994 3 4.15638e-05 -4.11665
296 1 0.161136 14.166 8.16773 3 3.56115e-05 -4.11699
297 1 2.63392 14.166 8.16773 3 3.56115e-05 -4.11699
298 1 1.70241 14.167 5.83492 3 3.05818e-05 -4.11723
299 1 4.17519 14.167 5.83492 3 3.05818e-05 -4.11723
300 1 3.24605 14.1674 3.50127 3 2.74318e-05 -4.11738
301 1 5.71884 14.1674 3.50127 3 2.74318e-05 -4.11738
302 1 4.79105 14.1675 1.16714 3 2.60015e-05 -4.11745
303 1 7.26383 14.1675 1.16714 3 2.60015e-05 -4.11745
304 1 64.0513 12.1249 16.3197 3 4.29304e-05 -4.11534
305 1 63.1045 12.1306 13.9902 3 3.36981e-05 -4.11585
306 1 1.28486 12.1306 13.9902 3 3.36981e-05 -4.11585
307 1 0.341925 12.1352 11.6604 3 2.80028e-05 -4.11632
308 1 2.81471 12.1352 11.6604 3 2.80028e-05 -4.11632
309 1 1.87574 12.1382 9.32983 3 2.48705e-05 -4.11668
310 1 4.34853 12.1382 9.32983 3 2.48705e-05 -4.11668
311 1 3.41298 12.1399 6.99836 3 2.27765e-05 -4.11694
312 1 5.88576 12.1399 6.99836 3 2.27765e-05 -4.11694
313 1 4.95279 12.1407 4.66607 3 2.14783e-05 -4.11711
314 1 7.42557 12.1407 4.66607 3 2.14783e-05 -4.11711
315 1 6.49426 12.1411 2.33318 3 2.08718e-05 -4.11721
316 1 8.96705 12.1411 2.33318 3 2.08718e-05 -4.11721
317 1 8.03655 12.1412 6.18981e-09 3 2.06877e-05 -4.11724
318 1 10.5093 12.1412 6.32533e-09 3 2.06877e-05 -4.11724
319 1 64.2468 10.0963 19.8145 3 2.94958e-05 -4.11497
320 1 63.2981 10.0998 17.4832 3 3.39978e-05 -4.11529
321 1 1.47849 10.0998 17.4832 3 3.39978e-05 -4.11529
322 1 0.531592 10.1037 15.1526 3 3.09937e-05 -4.11568
323 1 3.00438 10.1037 15.1526 3 3.09937e-05 -4.11568
324 1 2.05998 10.1072 12.8225 3 2.37569e-05 -4.11607
325 1 4.53276 10.1072 12.8225 3 2.37569e-05 -4.11607
326 1 3.59126 10.1101 10.4922 3 1.79658e-05 -4.11641
327 1 6.06404 10.1101 10.4922 3 1.79658e-05 -4.11641
328 1 5.12538 10.1119 8.16153 3 1.53536e-05 -4.11667
329 1 7.59817 10.1119 8.16153 3 1.53536e-05 -4.11667
330 1 6.66191 10.1131 5.83022 3 1.49876e-05 -4.11685
331 1 9.13469 10.1131 5.83022 3 1.49876e-05 -4.11685
332 1 8.20019 10.1136 3.49837 3 1.54783e-05 -4.11697
333 1 10.673 10.1136 3.49837 3 1.54783e-05 -4.11697
334 1 9.7395 10.1138 1.16616 3 1.59529e-05 -4.11702
335 1 12.2123 10.1138 1.16616 3 1.59529e-05 -4.11702
336 1 0.144112 8.07532 23.3131 3 9.6003e-06 -4.115
337 1 63.4885 8.07606 20.9808 3 1.53105e-05 -4.11515
338 1 1.66894 8.07606 20.9808 3 1.53104e-05 -4.11515
339 1 0.721642 8.07741 18.6489 3 2.32112e-05 -4.11542
340 1 3.19443 8.07741 18.6489 3 2.32112e-05 -4.11542
341 1 2.24825 8.07917 16.3176 3 2.77711e-05 -4.11577
342 1 4.72104 8.07917 16.3176 3 2.77711e-05 -4.11577
343 1 3.77645 8.08102 13.9867 3 2.55865e-05 -4.11616
344 1 6.24923 8.08102 13.9867 3 2.55864e-05 -4.11616
345 1 5.30656 8.0827 11.6561 3 1.88849e-05 -4.11652
346 1 7.77934 8.0827 11.6561 3 1.88849e-05 -4.11652
347 1 6.83871 8.084 9.3254 3 1.28943e-05 -4.11683
348 1 9.3115 8.084 9.3254 3 1.28943e-05 -4.11683
349 1 8.37277 8.08489 6.99446 3 1.03533e-05 -4.11706
350 1 10.8455 8.08489 6.99446 3 1.03533e-05 -4.11706
351 1 9.90834 8.08542 4.66319 3 1.05633e-05 -4.11722
352 1 12.3811 8.08542 4.66319 3 1.05633e-05 -4.11722
353 1 11.445 8.0857 2.33167 3 1.16e-05 -4.11731
354 1 13.9178 8.0857 2.33167 3 1.16e-05 -4.11731
355 1 12.9821 8.08578 3.00512e-09 3 1.20964e-05 -4.11734
356 1 15.4549 8.08578 3.14568e-09 3 1.20963e-05 -4.11734
357 1 0.328335 6.05706 26.8107 3 7.01602e-06 -4.11526
358 1 63.6742 6.05706 24.4793 3 5.26905e-06 -4.11523
359 1 1.85459 6.05706 24.4793 3 5.26906e-06 -4.11523
360 1 0.908058 6.05706 22.1479 3 7.01613e-06 -4.11526
361 1 3.38084 6.05706 22.1479 3 7.0161e-06 -4.11526
362 1 2.43476 6.05706 19.8166 3 1.34715e-05 -4.11537
363 1 4.90754 6.05706 19.8166 3 1.34715e-05 -4.11537
364 1 3.96229 6.05706 17.4852 3 2.81612e-05 -4.11553
365 1 6.43507 6.05706 17.4852 3 2.81613e-05 -4.11553
366 1 5.49095 6.05706 15.1539 3 5.47065e-05 -4.11573
367 1 7.96373 6.05706 15.1539 3 5.47064e-05 -4.11573
368 1 7.02089 6.05706 12.8225 3 9.19272e-05 -4.11595
369 1 9.49367 6.05706 12.8225 3 9.19273e-05 -4.11595
370 1 8.55215 6.05706 10.4911 3 0.000131569 -4.11616
371 1 11.0249 6.05706 10.4911 3 0.000131568 -4.11616
372 1 10.0846 6.05706 8.15977 3 0.000163309 -4.11634
373 1 12.5574 6.05706 8.15977 3 0.000163309 -4.11634
374 1 11.6182 6.05706 5.82841 3 0.000182136 -4.11648
375 1 14.091 6.05706 5.82841 3 0.000182136 -4.11648
376 1 13.1525 6.05706 3.49704 3 0.000190055 -4.11656
377 1 15.6253 6.05706 3.49704 3 0.000190055 -4.11656
378 1 14.6874 6.05706 1.16568 3 0.000192152 -4.11661
379 1 17.1602 6.05706 1.16568 3 0.000192152 -4.11661
380 1 0.508369 4.03804 30.3077 3 1.69894e-06 -4.11552
381 1 63.8559 4.03804 27.9764 3 1.75326e-06 -4.11552
382 1 2.0363 4.03804 27.9764 3 1.75327e-06 -4.11552
383 1 1.09095 4.03804 25.645 3 1.78548e-06 -4.11551
384 1 3.56374 4.03804 25.645 3 1.78548e-06 -4.11551
385 1 2.61822 4.03804 23.3136 3 1.78548e-06 -4.11551
386 1 5.09101 4.03804 23.3136 3 1.78548e-06 -4.11551
387 1 4.14566 4.03804 20.9823 3 1.75327e-06 -4.11552
388 1 6.61845 4.03804 20.9823 3 1.75326e-06 -4.11552
389 1 5.67359 4.03804 18.6509 3 1.69894e-06 -4.11552
390 1 8.14638 4.03804 18.6509 3 1.69894e-06 -4.11552
391 1 7.20227 4.03804 16.3195 3 1.63656e-06 -4.11554
392 1 9.67505 4.03804 16.3195 3 1.63656e-06 -4.11554
393 1 8.73187 4.03804 13.9882 3 1.57732e-06 -4.11556
394 1 11.2047 4.03804 13.9882 3 1.57729e-06 -4.11556
395 1 10.2625 4.03804 11.6568 3 1.52674e-06 -4.11559
396 1 12.7353 4.03804 11.6568 3 1.52672e-06 -4.11559
397 1 11.7941 4.03804 9.32545 3 1.48585e-06 -4.11564
398 1 14.2669 4.03804 9.32545 3 1.48585e-06 -4.11564
399 1 13.3266 4.03804 6.99409 3 1.45407e-06 -4.11568
400 1 15.7994 4.03804 6.99409 3 1.4541e-06 -4.11568
401 1 14.8599 4.03804 4.66273 3 1.43103e-06 -4.11573
402 1 17.3327 4.03804 4.66273 3 1.43101e-06 -4.11573
403 1 16.3936 4.03804 2.33136 3 1.41686e-06 -4.11576
404 1 18.8664 4.03804 2.33136 3 1.41684e-06 -4.11576
405 1 17.9277 4.03804 0 3 1.41204e-06 -4.11577
406 1 20.4005 4.03804 0 3 1.41207e-06 -4.11577
407 1 0.685331 2.01902 33.8048 3 9.48463e-07 -4.09964
408 1 64.0344 2.01902 31.4734 3 9.78187e-07 -4.09956
409 1 2.21482 2.01902 31.4734 3 9.78204e-07 -4.09956
410 1 1.27088 2.01902 29.142 3 1.00713e-06 -4.09949
411 1 3.74367 2.01902 29.142 3 1.00711e-06 -4.09949
412 1 2.79925 2.01902 26.8107 3 1.02868e-06 -4.09945
413 1 5.27204 2.01902 26.8107 3 1.02868e-06 -4.09945
414 1 4.32737 2.01902 24.4793 3 1.03673e-06 -4.09944
415 1 6.80016 2.01902 24.4793 3 1.03671e-06 -4.09944
416 1 5.85549 2.01902 22.1479 3 1.02866e-06 -4.09945
417 1 8.32828 2.01902 22.1479 3 1.02869e-06 -4.09945
418 1 7.38386 2.01902 19.8166 3 1.00712e-06 -4.09949
419 1 9.85665 2.01902 19.8166 3 1.00711e-06 -4.09949
420 1 8.91271 2.01902 17.4852 3 9.78204e-07 -4.09956
421 1 11.3855 2.01902 17.4852 3 9.78191e-07 -4.09956
422 1 10.4422 2.01902 15.1539 3 9.48478e-07 -4.09964
423 1 12.915 2.01902 15.1539 3 9.48475e-07 -4.09964
424 1 11.9724 2.01902 12.8225 3 9.22375e-07 -4.09974
425 1 14.4452 2.01902 12.8225 3 9.22391e-07 -4.09974
426 1 13.5035 2.01902 10.4911 3 9.01623e-07 -4.09983
427 1 15.9762 2.01902 10.4911 3 9.01619e-07 -4.09983
428 1 15.0352 2.01902 8.15977 3 8.86025e-07 -4.09991
429 1 17.508 2.01902 8.15977 3 8.85998e-07 -4.09991
430 1 16.5677 2.01902 5.82841 3 8.74829e-07 -4.09998
431 1 19.0404 2.01902 5.82841 3 8.74829e-07 -4.09998
432 1 18.1006 2.01902 3.49704 3 8.67512e-07 -4.10002
433 1 20.5734 2.01902 3.49704 3 8.67521e-07 -4.10002
434 1 19.6338 2.01902 1.16568 3 8.63871e-07 -4.10005
435 1 22.1066 2.01902 1.16568 3 8.63883e-07 -4.10005
436 1 0.860464 0 37.3018 5 6.01871 -3.54878
437 1 64.2107 0 34.9704 5 6.01843 -3.54876
438 1 2.39112 0 34.9704 5 6.01843 -3.54876
439 1 1.44839 0 32.6391 5 6.01838 -3.54873
440 1 3.92117 0 32.6391 5 6.01838 -3.54873
441 1 2.97791 0 30.3077 5 6.01858 -3.54871
442 1 5.45069 0 30.3077 5 6.01858 -3.54871
443 1 4.50699 0 27.9764 5 6.01902 -3.5487
444 1 6.97978 0 27.9764 5 6.01902 -3.5487
445 1 6.0358 0 25.645 5 6.01964 -3.54869
446 1 8.50858 0 25.645 5 6.01964 -3.54869
447 1 7.56451 0 23.3136 5 6.01964 -3.54869
448 1 10.0373 0 23.3136 5 6.01964 -3.54869
449 1 9.09332 0 20.9823 5 6.01902 -3.5487
450 1 11.5661 0 20.9823 5 6.01902 -3.5487
451 1 10.6224 0 18.6509 5 6.01858 -3.54871
452 1 13.0952 0 18.6509 5 6.01858 -3.54871
453 1 12.1519 0 16.3195 5 6.01838 -3.54873
454 1 14.6247 0 16.3195 5 6.01838 -3.54873
455 1 13.682 0 13.9882 5 6.01843 -3.54876
456 1 16.1548 0 13.9882 5 6.01843 -3.54876
457 1 15.2126 0 11.6568 5 6.01871 -3.54878
458 1 17.6854 0 11.6568 5 6.01871 -3.54878
459 1 16.7439 0 9.32545 5 6.0192 -3.5488
460 1 19.2167 0 9.32545 5 6.0192 -3.5488
461 1 18.2757 0 6.99409 5 6.01984 -3.54882
462 1 20.7485 0 6.99409 5 6.01984 -3.54882
463 1 19.8079 0 4.66273 5 6.02059 -3.54884
464 1 22.2807 0 4.66273 5 6.02059 -3.54884
465 1 21.3405 0 2.33136 5 6.02137 -3.54885
466 1 23.8133 0 2.33136 5 6.02137 -3.54885
467 1 22.8733 0 0 5 6.02212 -3.54885
468 1 25.346 0 0 5 6.02212 -3.54885
469 1 63.3431 24.2818 2.33746 3 7.83887e-05 -4.11909
470 1 62.4378 24.2815 7.94132e-09 3 7.45992e-05 -4.11914
471 1 0.618196 24.2815 7.94126e-09 3 7.45992e-05 -4.11914
472 1 63.4806 22.2625 5.84407 3 7.79181e-05 -4.11836
473 1 62.5681 22.2615 3.50648 3 6.41046e-05 -4.11857
474 1 0.748508 22.2615 3.50648 3 6.41046e-05 -4.11857
475 1 64.1296 22.261 1.16883 3 5.81635e-05 -4.11867
476 1 2.31003 22.261 1.16883 3 5.81635e-05 -4.11867
477 1 63.638 20.2412 9.34714 3 9.97795e-05 -4.11749
478 1 62.7163 20.2409 7.01111 3 7.05627e-05 -4.11786
479 1 0.896679 20.2409 7.01111 3 7.05627e-05 -4.11786
480 1 64.2705 20.2402 4.67436 3 5.54392e-05 -4.1181
481 1 2.45086 20.2402 4.67436 3 5.54392e-05 -4.1181
482 1 1.5341 20.2396 2.33725 3 4.80558e-05 -4.11824
483 1 4.00688 20.2396 2.33725 3 4.80558e-05 -4.11824
484 1 3.09098 20.2394 7.64868e-09 3 4.58252e-05 -4.11829
485 1 5.56376 20.2394 7.64489e-09 3 4.58252e-05 -4.11829
486 1 63.8187 18.2126 12.8417 3 0.000127292 -4.11643
487 1 62.8842 18.216 10.5097 3 9.22624e-05 -4.11701
488 1 1.06456 18.216 10.5097 3 9.22624e-05 -4.11701
489 1 0.136054 18.2172 8.17577 3 6.57171e-05 -4.11742
490 1 2.60884 18.2172 8.17577 3 6.57171e-05 -4.11742
491 1 1.68437 18.2172 5.84054 3 4.99255e-05 -4.1177
492 1 4.15715 18.2172 5.84054 3 4.99255e-05 -4.1177
493 1 3.23521 18.2169 3.50458 3 4.16723e-05 -4.11787
494 1 5.70799 18.2169 3.50458 3 4.16723e-05 -4.11787
495 1 4.78743 18.2167 1.16823 3 3.80993e-05 -4.11796
496 1 7.26022 18.2167 1.16823 3 3.80993e-05 -4.11796
497 1 64.0221 16.174 16.3282 3 8.87972e-05 -4.11504
498 1 63.0738 16.1827 14 3 8.10424e-05 -4.11593
499 1 1.25423 16.1827 14 3 8.10424e-05 -4.11593
500 1 0.313287 16.1884 11.6701 3 7.1413e-05 -4.11657
501 1 2.78607 16.1884 11.6701 3 7.1413e-05 -4.11657
502 1 1.85137 16.1913 9.33825 3 5.67156e-05 -4.11702
503 1 4.32416 16.1913 9.33825 3 5.67156e-05 -4.11702
504 1 3.39411 16.1925 7.00489 3 4.43745e-05 -4.11733
505 1 5.86689 16.1925 7.00489 3 4.43745e-05 -4.11733
506 1 4.94 16.1928 4.67046 3 3.6577e-05 -4.11754
507 1 7.41278 16.1928 4.67046 3 3.6577e-05 -4.11754
508 1 6.48782 16.1927 2.33538 3 3.25865e-05 -4.11766
509 1 8.9606 16.1927 2.33538 3 3.25865e-05 -4.11766
510 1 8.03655 16.1927 7.386e-09 3 3.13416e-05 -4.1177
511 1 10.5093 16.1927 7.37333e-09 3 3.13416e-05 -4.1177
512 1 64.2323 14.1367 19.8171 3 8.12689e-05 -4.11426
513 1 63.278 14.1447 17.4876 3 6.74147e-05 -4.11484
514 1 1.45844 14.1447 17.4876 3 6.74147e-05 -4.11484
515 1 0.508168 14.1528 15.1588 3 5.23261e-05 -4.11553
516 1 2.98095 14.1528 15.1588 3 5.23261e-05 -4.11553
517 1 2.03586 14.1593 12.8297 3 4.62847e-05 -4.11616
518 1 4.50865 14.1593 12.8297 3 4.62847e-05 -4.11616
519 1 3.56895 14.1636 10.4994 3 4.15638e-05 -4.11665
520 1 6.04174 14.1636 10.4994 3 4.15638e-05 -4.11665
521 1 5.1067 14.166 8.16773 3 3.56115e-05 -4.11699
522 1 7.57949 14.166 8.16773 3 3.56115e-05 -4.11699
523 1 6.64798 14.167 5.83492 3 3.05818e-05 -4.11723
524 1 9.12076 14.167 5.83492 3 3.05818e-05 -4.11723
525 1 8.19162 14.1674 3.50127 3 2.74318e-05 -4.11738
526 1 10.6644 14.1674 3.50127 3 2.74318e-05 -4.11738
527 1 9.73662 14.1675 1.16714 3 2.60015e-05 -4.11745
528 1 12.2094 14.1675 1.16714 3 2.60015e-05 -4.11745
529 1 0.141419 12.1112 23.3131 3 4.04781e-05 -4.11431
530 1 63.4806 12.114 20.981 3 4.63182e-05 -4.1145
531 1 1.66098 12.114 20.981 3 4.63183e-05 -4.1145
532 1 0.708885 12.1189 18.6499 3 4.8972e-05 -4.11486
533 1 3.18167 12.1189 18.6499 3 4.8972e-05 -4.11486
534 1 2.23168 12.1249 16.3197 3 4.29304e-05 -4.11534
535 1 4.70447 12.1249 16.3197 3 4.29304e-05 -4.11534
536 1 3.75764 12.1306 13.9902 3 3.36981e-05 -4.11585
537 1 6.23043 12.1306 13.9902 3 3.36981e-05 -4.11585
538 1 5.28749 12.1352 11.6604 3 2.80028e-05 -4.11632
539 1 7.76028 12.1352 11.6604 3 2.80028e-05 -4.11632
540 1 6.82131 12.1382 9.32983 3 2.48705e-05 -4.11668
541 1 9.2941 12.1382 9.32983 3 2.48705e-05 -4.11668
542 1 8.35855 12.1399 6.99836 3 2.27765e-05 -4.11694
543 1 10.8313 12.1399 6.99836 3 2.27765e-05 -4.11694
544 1 9.89836 12.1407 4.66607 3 2.14783e-05 -4.11711
545 1 12.3711 12.1407 4.66607 3 2.14783e-05 -4.11711
546 1 11.4398 12.1411 2.33318 3 2.08718e-05 -4.11721
547 1 13.9126 12.1411 2.33318 3 2.08718e-05 -4.11721
548 1 12.9821 12.1412 6.11416e-09 3 2.06877e-05 -4.11724
549 1 15.4549 12.1412 6.0563e-09 3 2.06877e-05 -4.11724
550 1 0.332136 10.0939 26.812 3 2.15714e-05 -4.11475
551 1 63.6742 10.0931 24.4793 3 1.77539e-05 -4.11468
552 1 1.85459 10.0931 24.4793 3 1.77539e-05 -4.11468
553 1 0.904257 10.0939 22.1466 3 2.15714e-05 -4.11475
554 1 3.37704 10.0939 22.1466 3 2.15714e-05 -4.11475
555 1 2.42721 10.0963 19.8145 3 2.94958e-05 -4.11497
556 1 4.89999 10.0963 19.8145 3 2.94958e-05 -4.11497
557 1 3.95127 10.0998 17.4832 3 3.39978e-05 -4.11529
558 1 6.42406 10.0998 17.4832 3 3.39978e-05 -4.11529
559 1 5.47716 10.1037 15.1526 3 3.09937e-05 -4.11568
560 1 7.94994 10.1037 15.1526 3 3.09937e-05 -4.11568
561 1 7.00555 10.1072 12.8225 3 2.37569e-05 -4.11607
562 1 9.47833 10.1072 12.8225 3 2.37569e-05 -4.11607
563 1 8.53682 10.1101 10.4922 3 1.79658e-05 -4.11641
564 1 11.0096 10.1101 10.4922 3 1.79658e-05 -4.11641
565 1 10.071 10.1119 8.16153 3 1.53536e-05 -4.11667
566 1 12.5437 10.1119 8.16153 3 1.53536e-05 -4.11667
567 1 11.6075 10.1131 5.83022 3 1.49876e-05 -4.11685
568 1 14.0803 10.1131 5.83022 3 1.49876e-05 -4.11685
569 1 13.1458 10.1136 3.49837 3 1.54783e-05 -4.11697
570 1 15.6185 10.1136 3.49837 3 1.54783e-05 -4.11697
571 1 14.6851 10.1138 1.16616 3 1.59529e-05 -4.11702
572 1 17.1579 10.1138 1.16616 3 1.59529e-05 -4.11702
573 1 0.514751 8.07741 30.3097 3 2.32112e-05 -4.11542
574 1 63.8598 8.07606 27.9778 3 1.53105e-05 -4.11515
575 1 2.04024 8.07606 27.9778 3 1.53105e-05 -4.11515
576 1 1.09228 8.07532 25.6455 3 9.6003e-06 -4.115
577 1 3.56507 8.07532 25.6455 3 9.60026e-06 -4.115
578 1 2.6169 8.07532 23.3131 3 9.60026e-06 -4.115
579 1 5.08968 8.07532 23.3131 3 9.6003e-06 -4.115
580 1 4.14172 8.07606 20.9808 3 1.53105e-05 -4.11515
581 1 6.61451 8.07606 20.9808 3 1.53105e-05 -4.11515
582 1 5.66721 8.07741 18.6489 3 2.32112e-05 -4.11542
583 1 8.13999 8.07741 18.6489 3 2.32112e-05 -4.11542
584 1 7.19382 8.07917 16.3176 3 2.7771e-05 -4.11577
585 1 9.66661 8.07917 16.3176 3 2.77711e-05 -4.11577
586 1 8.72202 8.08102 13.9867 3 2.55865e-05 -4.11616
587 1 11.1948 8.08102 13.9867 3 2.55864e-05 -4.11616
588 1 10.2521 8.0827 11.6561 3 1.88849e-05 -4.11652
589 1 12.7249 8.0827 11.6561 3 1.88849e-05 -4.11652
590 1 11.7843 8.084 9.3254 3 1.28943e-05 -4.11683
591 1 14.2571 8.084 9.3254 3 1.28943e-05 -4.11683
592 1 13.3183 8.08489 6.99446 3 1.03533e-05 -4.11706
593 1 15.7911 8.08489 6.99446 3 1.03533e-05 -4.11706
594 1 14.8539 8.08542 4.66319 3 1.05633e-05 -4.11722
595 1 17.3267 8.08542 4.66319 3 1.05633e-05 -4.11722
596 1 16.3905 8.0857 2.33167 3 1.16e-05 -4.11731
597 1 18.8633 8.0857 2.33167 3 1.16e-05 -4.11731
598 1 17.9277 8.08578 3.19934e-09 3 1.20964e-05 -4.11734
599 1 20.4005 8.08578 3.62354e-09 3 1.20963e-05 -4.11734
600 1 0.691014 6.05706 33.8048 3 5.4706e-05 -4.11573
601 1 64.0393 6.05706 31.4734 3 2.81608e-05 -4.11553
602 1 2.21967 6.05706 31.4734 3 2.81608e-05 -4.11553
603 1 1.27442 6.05706 29.142 3 1.34713e-05 -4.11537
604 1 3.7472 6.05706 29.142 3 1.34712e-05 -4.11537
605 1 2.80112 6.05706 26.8107 3 7.01598e-06 -4.11526
606 1 5.2739 6.05706 26.8107 3 7.01603e-06 -4.11526
607 1 4.32737 6.05706 24.4793 3 5.26906e-06 -4.11523
608 1 6.80016 6.05706 24.4793 3 5.26906e-06 -4.11523
609 1 5.85363 6.05706 22.1479 3 7.01615e-06 -4.11526
610 1 8.32641 6.05706 22.1479 3 7.01614e-06 -4.11526
611 1 7.38033 6.05706 19.8166 3 1.34715e-05 -4.11537
612 1 9.85311 6.05706 19.8166 3 1.34715e-05 -4.11537
613 1 8.90786 6.05706 17.4852 3 2.81612e-05 -4.11553
614 1 11.3806 6.05706 17.4852 3 2.81612e-05 -4.11553
615 1 10.4365 6.05706 15.1539 3 5.47065e-05 -4.11573
616 1 12.9093 6.05706 15.1539 3 5.47065e-05 -4.11573
617 1 11.9665 6.05706 12.8225 3 9.19273e-05 -4.11595
618 1 14.4392 6.05706 12.8225 3 9.19272e-05 -4.11595
619 1 13.4977 6.05706 10.4911 3 0.000131569 -4.11616
620 1 15.9705 6.05706 10.4911 3 0.000131569 -4.11616
621 1 15.0302 6.05706 8.15977 3 0.000163309 -4.11634
622 1 17.503 6.05706 8.15977 3 0.000163309 -4.11634
623 1 16.5638 6.05706 5.82841 3 0.000182136 -4.11648
624 1 19.0365 6.05706 5.82841 3 0.000182136 -4.11648
625 1 18.0981 6.05706 3.49704 3 0.000190055 -4.11656
626 1 20.5709 6.05706 3.49704 3 0.000190055 -4.11656
627 1 19.633 6.05706 1.16568 3 0.000192152 -4.11661
628 1 22.1057 6.05706 1.16568 3 0.000192152 -4.11661
629 1 0.865045 4.03804 37.3018 3 1.52672e-06 -4.11559
630 1 64.2153 4.03804 34.9704 3 1.57732e-06 -4.11556
631 1 2.39566 4.03804 34.9704 3 1.57732e-06 -4.11556
632 1 1.45248 4.03804 32.6391 3 1.63654e-06 -4.11554
633 1 3.92526 4.03804 32.6391 3 1.63656e-06 -4.11554
634 1 2.98115 4.03804 30.3077 3 1.69892e-06 -4.11552
635 1 5.45394 4.03804 30.3077 3 1.69894e-06 -4.11552
636 1 4.50908 4.03804 27.9764 3 1.75327e-06 -4.11552
637 1 6.98186 4.03804 27.9764 3 1.75327e-06 -4.11552
638 1 6.03652 4.03804 25.645 3 1.78548e-06 -4.11551
639 1 8.5093 4.03804 25.645 3 1.78549e-06 -4.11551
640 1 7.56379 4.03804 23.3136 3 1.78548e-06 -4.11551
641 1 10.0366 4.03804 23.3136 3 1.78548e-06 -4.11551
642 1 9.09123 4.03804 20.9823 3 1.75329e-06 -4.11552
643 1 11.564 4.03804 20.9823 3 1.75327e-06 -4.11552
644 1 10.6192 4.03804 18.6509 3 1.69892e-06 -4.11552
645 1 13.0919 4.03804 18.6509 3 1.69894e-06 -4.11552
646 1 12.1478 4.03804 16.3195 3 1.63654e-06 -4.11554
647 1 14.6206 4.03804 16.3195 3 1.63656e-06 -4.11554
648 1 13.6774 4.03804 13.9882 3 1.57733e-06 -4.11556
649 1 16.1502 4.03804 13.9882 3 1.57729e-06 -4.11556
650 1 15.2081 4.03804 11.6568 3 1.52672e-06 -4.11559
651 1 17.6808 4.03804 11.6568 3 1.52672e-06 -4.11559
652 1 16.7397 4.03804 9.32545 3 1.48585e-06 -4.11564
653 1 19.2125 4.03804 9.32545 3 1.48587e-06 -4.11564
654 1 18.2722 4.03804 6.99409 3 1.4541e-06 -4.11568
655 1 20.745 4.03804 6.99409 3 1.4541e-06 -4.11568
656 1 19.8054 4.03804 4.66273 3 1.43103e-06 -4.11573
657 1 22.2782 4.03804 4.66273 3 1.43101e-06 -4.11573
658 1 21.3392 4.03804 2.33136 3 1.41686e-06 -4.11576
659 1 23.812 4.03804 2.33136 3 1.41686e-06 -4.11576
660 1 22.8733 4.03804 0 3 1.41204e-06 -4.11577
661 1 25.346 4.03804 0 3 1.41204e-06 -4.11577
662 1 1.03786 2.01902 40.7989 3 8.86011e-07 -4.09991
663 1 0.096851 2.01902 38.4675 3 9.01619e-07 -4.09983
664 1 2.56963 2.01902 38.4675 3 9.01604e-07 -4.09983
665 1 1.62788 2.01902 36.1361 3 9.22391e-07 -4.09974
666 1 4.10066 2.01902 36.1361 3 9.22383e-07 -4.09974
667 1 3.15812 2.01902 33.8048 3 9.48481e-07 -4.09964
668 1 5.6309 2.01902 33.8048 3 9.48475e-07 -4.09964
669 1 4.68761 2.01902 31.4734 3 9.78204e-07 -4.09956
670 1 7.16039 2.01902 31.4734 3 9.78189e-07 -4.09956
671 1 6.21645 2.01902 29.142 3 1.00713e-06 -4.09949
672 1 8.68923 2.01902 29.142 3 1.00711e-06 -4.09949
673 1 7.74482 2.01902 26.8107 3 1.02868e-06 -4.09945
674 1 10.2176 2.01902 26.8107 3 1.02867e-06 -4.09945
675 1 9.27294 2.01902 24.4793 3 1.03671e-06 -4.09944
676 1 11.7457 2.01902 24.4793 3 1.03673e-06 -4.09944
677 1 10.8011 2.01902 22.1479 3 1.02868e-06 -4.09945
678 1 13.2738 2.01902 22.1479 3 1.02868e-06 -4.09945
679 1 12.3294 2.01902 19.8166 3 1.00713e-06 -4.09949
680 1 14.8022 2.01902 19.8166 3 1.00711e-06 -4.09949
681 1 13.8583 2.01902 17.4852 3 9.78189e-07 -4.09956
682 1 16.3311 2.01902 17.4852 3 9.78191e-07 -4.09956
683 1 15.3878 2.01902 15.1539 3 9.48475e-07 -4.09964
684 1 17.8605 2.01902 15.1539 3 9.48475e-07 -4.09964
685 1 16.918 2.01902 12.8225 3 9.22391e-07 -4.09974
686 1 19.3908 2.01902 12.8225 3 9.22383e-07 -4.09974
687 1 18.449 2.01902 10.4911 3 9.01619e-07 -4.09983
688 1 20.9218 2.01902 10.4911 3 9.01608e-07 -4.09983
689 1 19.9808 2.01902 8.15977 3 8.86011e-07 -4.09991
690 1 22.4536 2.01902 8.15977 3 8.85998e-07 -4.09991
691 1 21.5132 2.01902 5.82841 3 8.74814e-07 -4.09998
692 1 23.986 2.01902 5.82841 3 8.74839e-07 -4.09998
693 1 23.0461 2.01902 3.49704 3 8.67515e-07 -4.10002
694 1 25.5189 2.01902 3.49704 3 8.67527e-07 -4.10002
695 1 24.5794 2.01902 1.16568 3 8.63869e-07 -4.10005
696 1 27.0522 2.01902 1.16568 3 8.63871e-07 -4.10005
697 1 1.21073 0 44.2959 5 6.02059 -3.54884
698 1 0.270195 0 41.9645 5 6.01984 -3.54882
699 1 2.74298 0 41.9645 5 6.01984 -3.54882
700 1 1.802 0 39.6332 5 6.0192 -3.5488
701 1 4.27478 0 39.6332 5 6.0192 -3.5488
702 1 3.33325 0 37.3018 5 6.01871 -3.54878
703 1 5.80603 0 37.3018 5 6.01871 -3.54878
704 1 4.8639 0 34.9704 5 6.01843 -3.54876
705 1 7.33669 0 34.9704 5 6.01843 -3.54876
706 1 6.39396 0 32.6391 5 6.01838 -3.54873
707 1 8.86674 0 32.6391 5 6.01838 -3.54873
708 1 7.92348 0 30.3077 5 6.01858 -3.54871
709 1 10.3963 0 30.3077 5 6.01858 -3.54871
710 1 9.45256 0 27.9764 5 6.01902 -3.5487
711 1 11.9253 0 27.9764 5 6.01902 -3.5487
712 1 10.9814 0 25.645 5 6.01964 -3.54869
713 1 13.4542 0 25.645 5 6.01964 -3.54869
714 1 12.5101 0 23.3136 5 6.01964 -3.54869
715 1 14.9829 0 23.3136 5 6.01964 -3.54869
716 1 14.0389 0 20.9823 5 6.01902 -3.5487
717 1 16.5117 0 20.9823 5 6.01902 -3.5487
718 1 15.568 0 18.6509 5 6.01858 -3.54871
719 1 18.0408 0 18.6509 5 6.01858 -3.54871
720 1 17.0975 0 16.3195 5 6.01838 -3.54873
721 1 19.5703 0 16.3195 5 6.01838 -3.54873
722 1 18.6275 0 13.9882 5 6.01843 -3.54876
723 1 21.1003 0 13.9882 5 6.01843 -3.54876
724 1 20.1582 0 11.6568 5 6.01871 -3.54878
725 1 22.631 0 11.6568 5 6.01871 -3.54878
726 1 21.6895 0 9.32545 5 6.0192 -3.5488
727 1 24.1622 0 9.32545 5 6.0192 -3.5488
728 1 23.2213 0 6.99409 5 6.01984 -3.54882
729 1 25.694 0 6.99409 5 6.01984 -3.54882
730 1 24.7535 0 4.66273 5 6.02059 -3.54884
731 1 27.2263 0 4.66273 5 6.02059 -3.54884
732 1 26.2861 0 2.33136 5 6.02137 -3.54885
733 1 28.7589 0 2.33136 5 6.02137 -3.54885
734 1 27.8188 0 0 5 6.02212 -3.54885
735 1 30.2916 0 0 5 6.02212 -3.54885
736 1 63.3294 28.3211 2.33477 3 0.000129519 -4.1202
737 1 62.4378 28.3209 4.6124e-09 3 0.000123538 -4.12024
738 1 0.618196 28.3209 4.60912e-09 3 0.000123538 -4.12024
739 1 63.4498 26.3032 5.84167 3 0.000133537 -4.11936
740 1 62.5499 26.3021 3.50483 3 0.000109496 -4.11957
741 1 0.730281 26.3021 3.50483 3 0.000109496 -4.11957
742 1 64.1236 26.3015 1.16825 3 9.91672e-05 -4.11967
743 1 2.30399 26.3015 1.16825 3 9.91672e-05 -4.11967
744 1 63.5941 24.2858 9.35054 3 0.000164011 -4.11823
745 1 62.6839 24.2841 7.01272 3 0.000116216 -4.11866
746 1 0.864315 24.2841 7.01272 3 0.000116216 -4.11866
747 1 64.2492 24.2827 4.67502 3 9.09683e-05 -4.11894
748 1 2.42956 24.2827 4.67502 3 9.09683e-05 -4.11894
749 1 1.52353 24.2818 2.33746 3 7.83887e-05 -4.11909
750 1 3.99631 24.2818 2.33746 3 7.83887e-05 -4.11909
751 1 3.09098 24.2815 7.94226e-09 3 7.45992e-05 -4.11914
752 1 5.56376 24.2815 7.93576e-09 3 7.45992e-05 -4.11914
753 1 63.7657 22.2642 12.8538 3 0.000266141 -4.11685
754 1 62.8411 22.2646 10.5183 3 0.000157093 -4.11755
755 1 1.02152 22.2646 10.5183 3 0.000157093 -4.11755
756 1 0.102996 22.2637 8.18147 3 0.000104555 -4.11804
757 1 2.57578 22.2637 8.18147 3 0.000104555 -4.11804
758 1 1.66101 22.2625 5.84407 3 7.79181e-05 -4.11836
759 1 4.13379 22.2625 5.84407 3 7.79181e-05 -4.11836
760 1 3.22129 22.2615 3.50648 3 6.41046e-05 -4.11857
761 1 5.69408 22.2615 3.50648 3 6.41046e-05 -4.11857
762 1 4.78281 22.261 1.16883 3 5.81635e-05 -4.11867
763 1 7.25559 22.261 1.16883 3 5.81635e-05 -4.11867
764 1 63.9724 20.2283 16.3425 3 0.000309047 -4.11501
765 1 63.0265 20.2367 14.014 3 0.000237836 -4.1162
766 1 1.20691 20.2367 14.014 3 0.000237836 -4.1162
767 1 0.272398 20.2403 11.6818 3 0.000154051 -4.11696
768 1 2.74518 20.2403 11.6818 3 0.000154051 -4.11696
769 1 1.81843 20.2412 9.34714 3 9.97795e-05 -4.11749
770 1 4.29121 20.2412 9.34714 3 9.97795e-05 -4.11749
771 1 3.36946 20.2409 7.01111 3 7.05627e-05 -4.11786
772 1 5.84225 20.2409 7.01111 3 7.05627e-05 -4.11786
773 1 4.92364 20.2402 4.67436 3 5.54392e-05 -4.1181
774 1 7.39642 20.2402 4.67436 3 5.54392e-05 -4.1181
775 1 6.47967 20.2396 2.33725 3 4.80558e-05 -4.11824
776 1 8.95245 20.2396 2.33725 3 4.80558e-05 -4.11824
777 1 8.03655 20.2394 7.643e-09 3 4.58252e-05 -4.11829
778 1 10.5093 20.2394 7.63922e-09 3 4.58252e-05 -4.11829
779 1 64.2047 18.1808 19.8236 3 0.000239462 -4.11297
780 1 63.242 18.1942 17.4978 3 0.000165317 -4.11428
781 1 1.42239 18.1942 17.4978 3 0.000165317 -4.11428
782 1 0.469229 18.2056 15.171 3 0.000151781 -4.11557
783 1 2.94201 18.2056 15.171 3 0.000151781 -4.11557
784 1 1.99909 18.2126 12.8417 3 0.000127292 -4.11643
785 1 4.47187 18.2126 12.8417 3 0.000127292 -4.11643
786 1 3.53734 18.216 10.5097 3 9.22624e-05 -4.11701
787 1 6.01012 18.216 10.5097 3 9.22624e-05 -4.11701
788 1 5.08162 18.2172 8.17577 3 6.57171e-05 -4.11742
789 1 7.55441 18.2172 8.17577 3 6.57171e-05 -4.11742
790 1 6.62994 18.2172 5.84054 3 4.99255e-05 -4.1177
791 1 9.10272 18.2172 5.84054 3 4.99255e-05 -4.1177
792 1 8.18077 18.2169 3.50458 3 4.16723e-05 -4.11787
793 1 10.6536 18.2169 3.50458 3 4.16723e-05 -4.11787
794 1 9.733 18.2167 1.16823 3 3.80993e-05 -4.11796
795 1 12.2058 18.2167 1.16823 3 3.80993e-05 -4.11796
796 1 0.136057 16.1478 23.3141 3 0.000163251 -4.11301
797 1 63.4651 16.1536 20.9843 3 0.000151325 -4.1134
798 1 1.64548 16.1536 20.9843 3 0.000151325 -4.1134
799 1 0.685045 16.1633 18.6558 3 0.000119747 -4.11412
800 1 3.15783 16.1633 18.6558 3 0.000119747 -4.11412
801 1 2.20254 16.174 16.3282 3 8.87972e-05 -4.11504
802 1 4.67533 16.174 16.3282 3 8.87972e-05 -4.11504
803 1 3.72702 16.1827 14 3 8.10424e-05 -4.11593
804 1 6.1998 16.1827 14 3 8.10424e-05 -4.11593
805 1 5.25886 16.1884 11.6701 3 7.1413e-05 -4.11657
806 1 7.73164 16.1884 11.6701 3 7.1413e-05 -4.11657
807 1 6.79694 16.1913 9.33825 3 5.67156e-05 -4.11702
808 1 9.26972 16.1913 9.33825 3 5.67156e-05 -4.11702
809 1 8.33967 16.1925 7.00489 3 4.43745e-05 -4.11733
810 1 10.8125 16.1925 7.00489 3 4.43745e-05 -4.11733
811 1 9.88557 16.1928 4.67046 3 3.6577e-05 -4.11754
812 1 12.3584 16.1928 4.67046 3 3.6577e-05 -4.11754
813 1 11.4334 16.1927 2.33538 3 3.25865e-05 -4.11766
814 1 13.9062 16.1927 2.33538 3 3.25865e-05 -4.11766
815 1 12.9821 16.1927 7.35568e-09 3 3.13416e-05 -4.1177
816 1 15.4549 16.1927 7.3487e-09 3 3.13416e-05 -4.1177
817 1 0.339687 14.1309 26.8109 3 8.36351e-05 -4.11388
818 1 63.6742 14.1288 24.4793 3 8.17936e-05 -4.11375
819 1 1.85459 14.1288 24.4793 3 8.17936e-05 -4.11375
820 1 0.896706 14.1309 22.1477 3 8.36351e-05 -4.11388
821 1 3.36949 14.1309 22.1477 3 8.36351e-05 -4.11388
822 1 2.41272 14.1367 19.8171 3 8.12689e-05 -4.11426
823 1 4.88551 14.1367 19.8171 3 8.12689e-05 -4.11426
824 1 3.93122 14.1447 17.4876 3 6.74147e-05 -4.11484
825 1 6.40401 14.1447 17.4876 3 6.74147e-05 -4.11484
826 1 5.45374 14.1528 15.1588 3 5.23261e-05 -4.11553
827 1 7.92652 14.1528 15.1588 3 5.23261e-05 -4.11553
828 1 6.98143 14.1593 12.8297 3 4.62847e-05 -4.11616
829 1 9.45422 14.1593 12.8297 3 4.62847e-05 -4.11616
830 1 8.51452 14.1636 10.4994 3 4.15638e-05 -4.11665
831 1 10.9873 14.1636 10.4994 3 4.15638e-05 -4.11665
832 1 10.0523 14.166 8.16773 3 3.56115e-05 -4.11699
833 1 12.5251 14.166 8.16773 3 3.56115e-05 -4.11699
834 1 11.5935 14.167 5.83492 3 3.05818e-05 -4.11723
835 1 14.0663 14.167 5.83492 3 3.05818e-05 -4.11723
836 1 13.1372 14.1674 3.50127 3 2.74318e-05 -4.11738
837 1 15.61 14.1674 3.50127 3 2.74318e-05 -4.11738
838 1 14.6822 14.1675 1.16714 3 2.60015e-05 -4.11745
839 1 17.155 14.1675 1.16714 3 2.60015e-05 -4.11745
840 1 0.527508 12.1189 30.3088 3 4.8972e-05 -4.11486
841 1 63.8678 12.114 27.9776 3 4.63183e-05 -4.1145
842 1 2.04819 12.114 27.9776 3 4.63183e-05 -4.1145
843 1 1.09497 12.1112 25.6455 3 4.04781e-05 -4.11431
844 1 3.56776 12.1112 25.6455 3 4.04781e-05 -4.11431
845 1 2.6142 12.1112 23.3131 3 4.04781e-05 -4.11431
846 1 5.08699 12.1112 23.3131 3 4.04781e-05 -4.11431
847 1 4.13377 12.114 20.981 3 4.63183e-05 -4.1145
848 1 6.60655 12.114 20.981 3 4.63182e-05 -4.1145
849 1 5.65445 12.1189 18.6499 3 4.8972e-05 -4.11486
850 1 8.12724 12.1189 18.6499 3 4.8972e-05 -4.11486
851 1 7.17725 12.1249 16.3197 3 4.29304e-05 -4.11534
852 1 9.65003 12.1249 16.3197 3 4.29304e-05 -4.11534
853 1 8.70321 12.1306 13.9902 3 3.36981e-05 -4.11585
854 1 11.176 12.1306 13.9902 3 3.36981e-05 -4.11585
855 1 10.2331 12.1352 11.6604 3 2.80028e-05 -4.11632
856 1 12.7058 12.1352 11.6604 3 2.80028e-05 -4.11632
857 1 11.7669 12.1382 9.32983 3 2.48705e-05 -4.11668
858 1 14.2397 12.1382 9.32983 3 2.48705e-05 -4.11668
859 1 13.3041 12.1399 6.99836 3 2.27765e-05 -4.11694
860 1 15.7769 12.1399 6.99836 3 2.27765e-05 -4.11694
861 1 14.8439 12.1407 4.66607 3 2.14783e-05 -4.11711
862 1 17.3167 12.1407 4.66607 3 2.14783e-05 -4.11711
863 1 16.3854 12.1411 2.33318 3 2.08718e-05 -4.11721
864 1 18.8582 12.1411 2.33318 3 2.08718e-05 -4.11721
865 1 17.9277 12.1412 6.19718e-09 3 2.06877e-05 -4.11724
866 1 20.4005 12.1412 6.18112e-09 3 2.06877e-05 -4.11724
867 1 0.704801 10.1037 33.806 3 3.09937e-05 -4.11568
868 1 64.0503 10.0998 31.4755 3 3.39978e-05 -4.11529
869 1 2.23069 10.0998 31.4755 3 3.39978e-05 -4.11529
870 1 1.28197 10.0963 29.1441 3 2.94958e-05 -4.11497
871 1 3.75475 10.0963 29.1441 3 2.94959e-05 -4.11497
872 1 2.80492 10.0939 26.812 3 2.15714e-05 -4.11475
873 1 5.2777 10.0939 26.812 3 2.15714e-05 -4.11475
874 1 4.32737 10.0931 24.4793 3 1.77539e-05 -4.11468
875 1 6.80016 10.0931 24.4793 3 1.77539e-05 -4.11468
876 1 5.84983 10.0939 22.1466 3 2.15714e-05 -4.11475
877 1 8.32261 10.0939 22.1466 3 2.15714e-05 -4.11475
878 1 7.37278 10.0963 19.8145 3 2.94958e-05 -4.11497
879 1 9.84556 10.0963 19.8145 3 2.94958e-05 -4.11497
880 1 8.89684 10.0998 17.4832 3 3.39978e-05 -4.11529
881 1 11.3696 10.0998 17.4832 3 3.39978e-05 -4.11529
882 1 10.4227 10.1037 15.1526 3 3.09937e-05 -4.11568
883 1 12.8955 10.1037 15.1526 3 3.09937e-05 -4.11568
884 1 11.9511 10.1072 12.8225 3 2.37569e-05 -4.11607
885 1 14.4239 10.1072 12.8225 3 2.37569e-05 -4.11607
886 1 13.4824 10.1101 10.4922 3 1.79658e-05 -4.11641
887 1 15.9552 10.1101 10.4922 3 1.79658e-05 -4.11641
888 1 15.0165 10.1119 8.16153 3 1.53536e-05 -4.11667
889 1 17.4893 10.1119 8.16153 3 1.53536e-05 -4.11667
890 1 16.553 10.1131 5.83022 3 1.49876e-05 -4.11685
891 1 19.0258 10.1131 5.83022 3 1.49876e-05 -4.11685
892 1 18.0913 10.1136 3.49837 3 1.54783e-05 -4.11697
893 1 20.5641 10.1136 3.49837 3 1.54783e-05 -4.11697
894 1 19.6306 10.1138 1.16616 3 1.59529e-05 -4.11702
895 1 22.1034 10.1138 1.16616 3 1.59529e-05 -4.11702
896 1 0.875402 8.0827 37.3025 3 1.88848e-05 -4.11652
897 1 64.2251 8.08102 34.9719 3 2.55864e-05 -4.11616
898 1 2.40551 8.08102 34.9719 3 2.55864e-05 -4.11616
899 1 1.46092 8.07917 32.641 3 2.77711e-05 -4.11577
900 1 3.93371 8.07917 32.641 3 2.77711e-05 -4.11577
901 1 2.98753 8.07741 30.3097 3 2.32113e-05 -4.11542
902 1 5.46032 8.07741 30.3097 3 2.32112e-05 -4.11542
903 1 4.51302 8.07606 27.9778 3 1.53105e-05 -4.11515
904 1 6.9858 8.07606 27.9778 3 1.53105e-05 -4.11515
905 1 6.03785 8.07532 25.6455 3 9.6003e-06 -4.115
906 1 8.51063 8.07532 25.6455 3 9.6003e-06 -4.115
907 1 7.56246 8.07532 23.3131 3 9.6003e-06 -4.115
908 1 10.0352 8.07532 23.3131 3 9.60026e-06 -4.115
909 1 9.08729 8.07606 20.9808 3 1.53104e-05 -4.11515
910 1 11.5601 8.07606 20.9808 3 1.53105e-05 -4.11515
911 1 10.6128 8.07741 18.6489 3 2.32112e-05 -4.11542
912 1 13.0856 8.07741 18.6489 3 2.32112e-05 -4.11542
913 1 12.1394 8.07917 16.3176 3 2.77711e-05 -4.11577
914 1 14.6122 8.07917 16.3176 3 2.77711e-05 -4.11577
915 1 13.6676 8.08102 13.9867 3 2.55864e-05 -4.11616
916 1 16.1404 8.08102 13.9867 3 2.55865e-05 -4.11616
917 1 15.1977 8.0827 11.6561 3 1.88849e-05 -4.11652
918 1 17.6705 8.0827 11.6561 3 1.88849e-05 -4.11652
919 1 16.7299 8.084 9.3254 3 1.28943e-05 -4.11683
920 1 19.2026 8.084 9.3254 3 1.28943e-05 -4.11683
921 1 18.2639 8.08489 6.99446 3 1.03533e-05 -4.11706
922 1 20.7367 8.08489 6.99446 3 1.03533e-05 -4.11706
923 1 19.7995 8.08542 4.66319 3 1.05633e-05 -4.11722
924 1 22.2723 8.08542 4.66319 3 1.05633e-05 -4.11722
925 1 21.3361 8.0857 2.33167 3 1.16e-05 -4.11731
926 1 23.8089 8.0857 2.33167 3 1.16e-05 -4.11731
927 1 22.8733 8.08578 3.66407e-09 3 1.20964e-05 -4.11734
928 1 25.346 8.08578 3.01007e-09 3 1.20964e-05 -4.11734
929 1 1.04288 6.05706 40.7989 3 0.000163309 -4.11634
930 1 0.102596 6.05706 38.4675 3 0.000131568 -4.11616
931 1 2.57538 6.05706 38.4675 3 0.000131568 -4.11616
932 1 1.63386 6.05706 36.1361 3 9.19266e-05 -4.11595
933 1 4.10664 6.05706 36.1361 3 9.19268e-05 -4.11595
934 1 3.1638 6.05706 33.8048 3 5.4706e-05 -4.11573
935 1 5.63658 6.05706 33.8048 3 5.4706e-05 -4.11573
936 1 4.69245 6.05706 31.4734 3 2.81608e-05 -4.11553
937 1 7.16524 6.05706 31.4734 3 2.81608e-05 -4.11553
938 1 6.21999 6.05706 29.142 3 1.34713e-05 -4.11537
939 1 8.69277 6.05706 29.142 3 1.34712e-05 -4.11537
940 1 7.74669 6.05706 26.8107 3 7.01598e-06 -4.11526
941 1 10.2195 6.05706 26.8107 3 7.01601e-06 -4.11526
942 1 9.27294 6.05706 24.4793 3 5.26908e-06 -4.11523
943 1 11.7457 6.05706 24.4793 3 5.26906e-06 -4.11523
944 1 10.7992 6.05706 22.1479 3 7.01611e-06 -4.11526
945 1 13.272 6.05706 22.1479 3 7.01613e-06 -4.11526
946 1 12.3259 6.05706 19.8166 3 1.34715e-05 -4.11537
947 1 14.7987 6.05706 19.8166 3 1.34715e-05 -4.11537
948 1 13.8534 6.05706 17.4852 3 2.81612e-05 -4.11553
949 1 16.3262 6.05706 17.4852 3 2.81612e-05 -4.11553
950 1 15.3821 6.05706 15.1539 3 5.47064e-05 -4.11573
951 1 17.8549 6.05706 15.1539 3 5.47065e-05 -4.11573
952 1 16.912 6.05706 12.8225 3 9.19273e-05 -4.11595
953 1 19.3848 6.05706 12.8225 3 9.19271e-05 -4.11595
954 1 18.4433 6.05706 10.4911 3 0.000131569 -4.11616
955 1 20.9161 6.05706 10.4911 3 0.000131569 -4.11616
956 1 19.9758 6.05706 8.15977 3 0.000163309 -4.11634
957 1 22.4486 6.05706 8.15977 3 0.000163309 -4.11634
958 1 21.5093 6.05706 5.82841 3 0.000182136 -4.11648
959 1 23.9821 6.05706 5.82841 3 0.000182136 -4.11648
960 1 23.0437 6.05706 3.49704 3 0.000190055 -4.11656
961 1 25.5165 6.05706 3.49704 3 0.000190055 -4.11656
962 1 24.5785 6.05706 1.16568 3 0.000192152 -4.11661
963 1 27.0513 6.05706 1.16568 3 0.000192152 -4.11661
964 1 1.21323 4.03804 44.2959 3 1.43102e-06 -4.11573
965 1 0.273698 4.03804 41.9645 3 1.45409e-06 -4.11568
966 1 2.74648 4.03804 41.9645 3 1.4541e-06 -4.11568
967 1 1.80622 4.03804 39.6332 3 1.48586e-06 -4.11564
968 1 4.279 4.03804 39.6332 3 1.48587e-06 -4.11564
969 1 3.33783 4.03804 37.3018 3 1.52672e-06 -4.11559
970 1 5.81061 4.03804 37.3018 3 1.52673e-06 -4.11559
971 1 4.86844 4.03804 34.9704 3 1.57729e-06 -4.11556
972 1 7.34123 4.03804 34.9704 3 1.57732e-06 -4.11556
973 1 6.39805 4.03804 32.6391 3 1.63654e-06 -4.11554
974 1 8.87083 4.03804 32.6391 3 1.63656e-06 -4.11554
975 1 7.92672 4.03804 30.3077 3 1.69894e-06 -4.11552
976 1 10.3995 4.03804 30.3077 3 1.69895e-06 -4.11552
977 1 9.45465 4.03804 27.9764 3 1.75327e-06 -4.11552
978 1 11.9274 4.03804 27.9764 3 1.75327e-06 -4.11552
979 1 10.9821 4.03804 25.645 3 1.78548e-06 -4.11551
980 1 13.4549 4.03804 25.645 3 1.78548e-06 -4.11551
981 1 12.5094 4.03804 23.3136 3 1.78548e-06 -4.11551
982 1 14.9821 4.03804 23.3136 3 1.78548e-06 -4.11551
983 1 14.0368 4.03804 20.9823 3 1.75329e-06 -4.11552
984 1 16.5096 4.03804 20.9823 3 1.75328e-06 -4.11552
985 1 15.5647 4.03804 18.6509 3 1.69894e-06 -4.11552
986 1 18.0375 4.03804 18.6509 3 1.69894e-06 -4.11552
987 1 17.0934 4.03804 16.3195 3 1.63654e-06 -4.11554
988 1 19.5662 4.03804 16.3195 3 1.63656e-06 -4.11554
989 1 18.623 4.03804 13.9882 3 1.57733e-06 -4.11556
990 1 21.0958 4.03804 13.9882 3 1.57732e-06 -4.11556
991 1 20.1536 4.03804 11.6568 3 1.52674e-06 -4.11559
992 1 22.6264 4.03804 11.6568 3 1.52674e-06 -4.11559
993 1 21.6852 4.03804 9.32545 3 1.48585e-06 -4.11564
994 1 24.158 4.03804 9.32545 3 1.48585e-06 -4.11564
995 1 23.2178 4.03804 6.99409 3 1.4541e-06 -4.11568
996 1 25.6905 4.03804 6.99409 3 1.45407e-06 -4.11568
997 1 24.751 4.03804 4.66273 3 1.43103e-06 -4.11573
998 1 27.2238 4.03804 4.66273 3 1.43103e-06 -4.11573
999 1 26.2848 4.03804 2.33136 3 1.41684e-06 -4.11576
1000 1 28.7576 4.03804 2.33136 3 1.41686e-06 -4.11576
1001 1 27.8188 4.03804 0 3 1.41206e-06 -4.11577
1002 1 30.2916 4.03804 0 3 1.41204e-06 -4.11577
1003 1 1.38487 2.01902 47.7929 3 8.63883e-07 -4.10005
1004 1 0.445312 2.01902 45.4616 3 8.6753e-07 -4.10002
1005 1 2.9181 2.01902 45.4616 3 8.67506e-07 -4.10002
1006 1 1.97823 2.01902 43.1302 3 8.74814e-07 -4.09998
1007 1 4.45101 2.01902 43.1302 3 8.74829e-07 -4.09998
1008 1 3.51065 2.01902 40.7989 3 8.86012e-07 -4.09991
1009 1 5.98343 2.01902 40.7989 3 8.86012e-07 -4.09991
1010 1 5.04242 2.01902 38.4675 3 9.01623e-07 -4.09983
1011 1 7.5152 2.01902 38.4675 3 9.01619e-07 -4.09983
1012 1 6.57344 2.01902 36.1361 3 9.22391e-07 -4.09974
1013 1 9.04623 2.01902 36.1361 3 9.22383e-07 -4.09974
1014 1 8.10368 2.01902 33.8048 3 9.48466e-07 -4.09964
1015 1 10.5765 2.01902 33.8048 3 9.48475e-07 -4.09964
1016 1 9.63317 2.01902 31.4734 3 9.78204e-07 -4.09956
1017 1 12.106 2.01902 31.4734 3 9.78174e-07 -4.09956
1018 1 11.162 2.01902 29.142 3 1.00712e-06 -4.09949
1019 1 13.6348 2.01902 29.142 3 1.00713e-06 -4.09949
1020 1 12.6904 2.01902 26.8107 3 1.02868e-06 -4.09945
1021 1 15.1632 2.01902 26.8107 3 1.02868e-06 -4.09945
1022 1 14.2185 2.01902 24.4793 3 1.03671e-06 -4.09944
1023 1 16.6913 2.01902 24.4793 3 1.03671e-06 -4.09944
1024 1 15.7466 2.01902 22.1479 3 1.02869e-06 -4.09945
1025 1 18.2194 2.01902 22.1479 3 1.02867e-06 -4.09945
1026 1 17.275 2.01902 19.8166 3 1.00712e-06 -4.09949
1027 1 19.7478 2.01902 19.8166 3 1.00712e-06 -4.09949
1028 1 18.8038 2.01902 17.4852 3 9.78176e-07 -4.09956
1029 1 21.2766 2.01902 17.4852 3 9.78204e-07 -4.09956
1030 1 20.3333 2.01902 15.1539 3 9.48463e-07 -4.09964
1031 1 22.8061 2.01902 15.1539 3 9.48478e-07 -4.09964
1032 1 21.8636 2.01902 12.8225 3 9.22399e-07 -4.09974
1033 1 24.3364 2.01902 12.8225 3 9.22375e-07 -4.09974
1034 1 23.3946 2.01902 10.4911 3 9.0163e-07 -4.09983
1035 1 25.8674 2.01902 10.4911 3 9.01623e-07 -4.09983
1036 1 24.9264 2.01902 8.15977 3 8.86011e-07 -4.09991
1037 1 27.3992 2.01902 8.15977 3 8.86025e-07 -4.09991
1038 1 26.4588 2.01902 5.82841 3 8.74814e-07 -4.09998
1039 1 28.9316 2.01902 5.82841 3 8.74829e-07 -4.09998
1040 1 27.9917 2.01902 3.49704 3 8.67515e-07 -4.10002
1041 1 30.4645 2.01902 3.49704 3 8.67512e-07 -4.10002
1042 1 29.5249 2.01902 1.16568 3 8.63883e-07 -4.10005
1043 1 31.9977 2.01902 1.16568 3 8.63871e-07 -4.10005
1044 1 2.15094 0 46.6273 5 6.02137 -3.54885
1045 1 4.62372 0 46.6273 5 6.02137 -3.54885
1046 1 3.68351 0 44.2959 5 6.02059 -3.54884
1047 1 6.15629 0 44.2959 5 6.02059 -3.54884
1048 1 5.21576 0 41.9645 5 6.01984 -3.54882
1049 1 7.68855 0 41.9645 5 6.01984 -3.54882
1050 1 6.74756 0 39.6332 5 6.0192 -3.5488
1051 1 9.22035 0 39.6332 5 6.0192 -3.5488
1052 1 8.27882 0 37.3018 5 6.01871 -3.54878
1053 1 10.7516 0 37.3018 5 6.01871 -3.54878
1054 1 9.80947 0 34.9704 5 6.01843 -3.54876
1055 1 12.2823 0 34.9704 5 6.01843 -3.54876
1056 1 11.3395 0 32.6391 5 6.01838 -3.54873
1057 1 13.8123 0 32.6391 5 6.01838 -3.54873
1058 1 12.869 0 30.3077 5 6.01858 -3.54871
1059 1 15.3418 0 30.3077 5 6.01858 -3.54871
1060 1 14.3981 0 27.9764 5 6.01902 -3.5487
1061 1 16.8709 0 27.9764 5 6.01902 -3.5487
1062 1 15.9269 0 25.645 5 6.01964 -3.54869
1063 1 18.3997 0 25.645 5 6.01964 -3.54869
1064 1 17.4556 0 23.3136 5 6.01964 -3.54869
1065 1 19.9284 0 23.3136 5 6.01964 -3.54869
1066 1 18.9845 0 20.9823 5 6.01902 -3.5487
1067 1 21.4572 0 20.9823 5 6.01902 -3.5487
1068 1 20.5135 0 18.6509 5 6.01858 -3.54871
1069 1 22.9863 0 18.6509 5 6.01858 -3.54871
1070 1 22.0431 0 16.3195 5 6.01838 -3.54873
1071 1 24.5158 0 16.3195 5 6.01838 -3.54873
1072 1 23.5731 0 13.9882 5 6.01843 -3.54876
1073 1 26.0459 0 13.9882 5 6.01843 -3.54876
1074 1 25.1038 0 11.6568 5 6.01871 -3.54878
1075 1 27.5766 0 11.6568 5 6.01871 -3.54878
1076 1 26.635 0 9.32545 5 6.0192 -3.5488
1077 1 29.1078 0 9.32545 5 6.0192 -3.5488
1078 1 28.1668 0 6.99409 5 6.01984 -3.54882
1079 1 30.6396 0 6.99409 5 6.01984 -3.54882
1080 1 29.6991 0 4.66273 5 6.02059 -3.54884
1081 1 32.1719 0 4.66273 5 6.02059 -3.54884
1082 1 31.2316 0 2.33136 5 6.02137 -3.54885
1083 1 33.7044 0 2.33136 5 6.02137 -3.54885
1084 1 32.7644 0 0 5 6.02212 -3.54885
1085 1 35.2372 0 0 5 6.02212 -3.54885
1086 1 1.49372 32.3599 2.32983 3 0.000142377 -4.12113
1087 1 0.618196 32.3597 2.88327e-09 3 0.00013603 -4.12116
1088 1 3.09098 32.3597 2.88769e-09 3 0.00013603 -4.12116
1089 1 63.4105 30.3417 5.83113 3 0.00018524 -4.12051
1090 1 62.5269 30.3408 3.4986 3 0.000154623 -4.12067
1091 1 0.707279 30.3408 3.4986 3 0.000154623 -4.12067
1092 1 64.116 30.3403 1.16619 3 0.000141586 -4.12074
1093 1 2.29641 30.3403 1.16619 3 0.000141586 -4.12074
1094 1 63.535 28.3251 9.34094 3 0.000275951 -4.11942
1095 1 62.6411 28.3233 7.00503 3 0.000191447 -4.11982
1096 1 0.821529 28.3233 7.00503 3 0.000191447 -4.11982
1097 1 64.2213 28.3219 4.66972 3 0.000149472 -4.12007
1098 1 2.40169 28.3219 4.66972 3 0.000149472 -4.12007
1099 1 1.50978 28.3211 2.33477 3 0.000129519 -4.1202
1100 1 3.98257 28.3211 2.33477 3 0.000129519 -4.1202
1101 1 3.09098 28.3209 4.61306e-09 3 0.000123538 -4.12024
1102 1 5.56376 28.3209 4.60719e-09 3 0.000123538 -4.12024
1103 1 63.6916 26.3093 12.8549 3 0.000464591 -4.11763
1104 1 62.7828 26.307 10.5167 3 0.000271562 -4.11847
1105 1 0.963222 26.307 10.5167 3 0.000271562 -4.11847
1106 1 0.0589704 26.3049 8.17893 3 0.000180367 -4.11901
1107 1 2.53175 26.3049 8.17893 3 0.000180367 -4.11901
1108 1 1.63021 26.3032 5.84167 3 0.000133537 -4.11936
1109 1 4.103 26.3032 5.84167 3 0.000133537 -4.11936
1110 1 3.20306 26.3021 3.50483 3 0.000109496 -4.11957
1111 1 5.67585 26.3021 3.50483 3 0.000109496 -4.11957
1112 1 4.77677 26.3015 1.16825 3 9.91672e-05 -4.11967
1113 1 7.24956 26.3015 1.16825 3 9.91672e-05 -4.11967
1114 1 63.8914 24.2854 16.3584 3 0.00101185 -4.11517
1115 1 62.9573 24.2879 14.0248 3 0.000482604 -4.11663
1116 1 1.13772 24.2879 14.0248 3 0.000482604 -4.11663
1117 1 0.216137 24.2874 11.6882 3 0.000260539 -4.11759
1118 1 2.68892 24.2874 11.6882 3 0.000260539 -4.11759
1119 1 1.77447 24.2858 9.35054 3 0.000164011 -4.11823
1120 1 4.24726 24.2858 9.35054 3 0.000164011 -4.11823
1121 1 3.3371 24.2841 7.01272 3 0.000116216 -4.11866
1122 1 5.80988 24.2841 7.01272 3 0.000116216 -4.11866
1123 1 4.90234 24.2827 4.67502 3 9.09683e-05 -4.11894
1124 1 7.37512 24.2827 4.67502 3 9.09683e-05 -4.11894
1125 1 6.46909 24.2818 2.33746 3 7.83887e-05 -4.11909
1126 1 8.94188 24.2818 2.33746 3 7.83887e-05 -4.11909
1127 1 8.03655 24.2815 7.93464e-09 3 7.45992e-05 -4.11914
1128 1 10.5093 24.2815 7.93154e-09 3 7.45992e-05 -4.11914
1129 1 64.1499 22.2327 19.8354 3 0.000811247 -4.11062
1130 1 63.1776 22.2512 17.514 3 0.000701874 -4.11412
1131 1 1.35804 22.2512 17.514 3 0.000701874 -4.11412
1132 1 0.407827 22.2608 15.1864 3 0.000471623 -4.11582
1133 1 2.88061 22.2608 15.1864 3 0.000471623 -4.11582
1134 1 1.94612 22.2642 12.8538 3 0.000266141 -4.11685
1135 1 4.41891 22.2642 12.8538 3 0.000266141 -4.11685
1136 1 3.49431 22.2646 10.5183 3 0.000157093 -4.11755
1137 1 5.96709 22.2646 10.5183 3 0.000157093 -4.11755
1138 1 5.04856 22.2637 8.18147 3 0.000104555 -4.11804
1139 1 7.52135 22.2637 8.18147 3 0.000104555 -4.11804
1140 1 6.60657 22.2625 5.84407 3 7.79181e-05 -4.11836
1141 1 9.07936 22.2625 5.84407 3 7.79181e-05 -4.11836
1142 1 8.16686 22.2615 3.50648 3 6.41046e-05 -4.11857
1143 1 10.6396 22.2615 3.50648 3 6.41046e-05 -4.11857
1144 1 9.72838 22.261 1.16883 3 5.81635e-05 -4.11867
1145 1 12.2012 22.261 1.16883 3 5.81635e-05 -4.11867
1146 1 0.125072 20.1865 23.316 3 0.000695882 -4.1099
1147 1 63.4344 20.1974 20.9906 3 0.000541395 -4.11102
1148 1 1.61477 20.1974 20.9906 3 0.000541395 -4.11102
1149 1 0.640609 20.2138 18.667 3 0.000342001 -4.11299
1150 1 3.11339 20.2138 18.667 3 0.000342001 -4.11299
1151 1 2.15281 20.2283 16.3425 3 0.000309047 -4.11501
1152 1 4.62559 20.2283 16.3425 3 0.000309047 -4.11501
1153 1 3.67969 20.2367 14.014 3 0.000237836 -4.1162
1154 1 6.15247 20.2367 14.014 3 0.000237836 -4.1162
1155 1 5.21797 20.2403 11.6818 3 0.000154051 -4.11696
1156 1 7.69075 20.2403 11.6818 3 0.000154051 -4.11696
1157 1 6.764 20.2412 9.34714 3 9.97795e-05 -4.11749
1158 1 9.23678 20.2412 9.34714 3 9.97795e-05 -4.11749
1159 1 8.31503 20.2409 7.01111 3 7.05627e-05 -4.11786
1160 1 10.7878 20.2409 7.01111 3 7.05627e-05 -4.11786
1161 1 9.86921 20.2402 4.67436 3 5.54392e-05 -4.1181
1162 1 12.342 20.2402 4.67436 3 5.54392e-05 -4.1181
1163 1 11.4252 20.2396 2.33725 3 4.80558e-05 -4.11824
1164 1 13.898 20.2396 2.33725 3 4.80558e-05 -4.11824
1165 1 12.9821 20.2394 7.64577e-09 3 4.58252e-05 -4.11829
1166 1 15.4549 20.2394 7.64208e-09 3 4.58252e-05 -4.11829
1167 1 0.354591 18.1699 26.8079 3 0.000309455 -4.11207
1168 1 63.6742 18.1658 24.4793 3 0.000334306 -4.11174
1169 1 1.85459 18.1658 24.4793 3 0.000334306 -4.11174
1170 1 0.881802 18.1699 22.1507 3 0.000309455 -4.11207
1171 1 3.35459 18.1699 22.1507 3 0.000309455 -4.11207
1172 1 2.38513 18.1808 19.8236 3 0.000239462 -4.11297
1173 1 4.85792 18.1808 19.8236 3 0.000239462 -4.11297
1174 1 3.89518 18.1942 17.4978 3 0.000165317 -4.11428
1175 1 6.36796 18.1942 17.4978 3 0.000165317 -4.11428
1176 1 5.4148 18.2056 15.171 3 0.000151781 -4.11557
1177 1 7.88758 18.2056 15.171 3 0.000151781 -4.11557
1178 1 6.94466 18.2126 12.8417 3 0.000127292 -4.11643
1179 1 9.41744 18.2126 12.8417 3 0.000127292 -4.11643
1180 1 8.48291 18.216 10.5097 3 9.22624e-05 -4.11701
1181 1 10.9557 18.216 10.5097 3 9.22624e-05 -4.11701
1182 1 10.0272 18.2172 8.17577 3 6.57171e-05 -4.11742
1183 1 12.5 18.2172 8.17577 3 6.57171e-05 -4.11742
1184 1 11.5755 18.2172 5.84054 3 4.99255e-05 -4.1177
1185 1 14.0483 18.2172 5.84054 3 4.99255e-05 -4.1177
1186 1 13.1263 18.2169 3.50458 3 4.16723e-05 -4.11787
1187 1 15.5991 18.2169 3.50458 3 4.16723e-05 -4.11787
1188 1 14.6786 18.2167 1.16823 3 3.80993e-05 -4.11796
1189 1 17.1514 18.2167 1.16823 3 3.80993e-05 -4.11796
1190 1 0.551348 16.1633 30.3028 3 0.000119747 -4.11412
1191 1 63.8833 16.1536 27.9744 3 0.000151325 -4.1134
1192 1 2.0637 16.1536 27.9744 3 0.000151325 -4.1134
1193 1 1.10034 16.1478 25.6446 3 0.000163251 -4.11301
1194 1 3.57312 16.1478 25.6446 3 0.000163251 -4.11301
1195 1 2.60884 16.1478 23.3141 3 0.000163251 -4.11301
1196 1 5.08162 16.1478 23.3141 3 0.000163251 -4.11301
1197 1 4.11826 16.1536 20.9843 3 0.000151325 -4.1134
1198 1 6.59105 16.1536 20.9843 3 0.000151325 -4.1134
1199 1 5.63061 16.1633 18.6558 3 0.000119747 -4.11412
1200 1 8.1034 16.1633 18.6558 3 0.000119747 -4.11412
1201 1 7.14811 16.174 16.3282 3 8.87972e-05 -4.11504
1202 1 9.6209 16.174 16.3282 3 8.87972e-05 -4.11504
1203 1 8.67259 16.1827 14 3 8.10424e-05 -4.11593
1204 1 11.1454 16.1827 14 3 8.10424e-05 -4.11593
1205 1 10.2044 16.1884 11.6701 3 7.1413e-05 -4.11657
1206 1 12.6772 16.1884 11.6701 3 7.1413e-05 -4.11657
1207 1 11.7425 16.1913 9.33825 3 5.67156e-05 -4.11702
1208 1 14.2153 16.1913 9.33825 3 5.67156e-05 -4.11702
1209 1 13.2852 16.1925 7.00489 3 4.43745e-05 -4.11733
1210 1 15.758 16.1925 7.00489 3 4.43745e-05 -4.11733
1211 1 14.8311 16.1928 4.67046 3 3.6577e-05 -4.11754
1212 1 17.3039 16.1928 4.67046 3 3.6577e-05 -4.11754
1213 1 16.379 16.1927 2.33538 3 3.25865e-05 -4.11766
1214 1 18.8517 16.1927 2.33538 3 3.25865e-05 -4.11766
1215 1 17.9277 16.1927 7.35167e-09 3 3.13416e-05 -4.1177
1216 1 20.4005 16.1927 7.37394e-09 3 3.13416e-05 -4.1177
1217 1 0.728225 14.1528 33.7998 3 5.23261e-05 -4.11553
1218 1 64.0703 14.1447 31.471 3 6.74147e-05 -4.11484
1219 1 2.25074 14.1447 31.471 3 6.74147e-05 -4.11484
1220 1 1.29645 14.1367 29.1415 3 8.12689e-05 -4.11426
1221 1 3.76924 14.1367 29.1415 3 8.12689e-05 -4.11426
1222 1 2.81247 14.1309 26.8109 3 8.36351e-05 -4.11388
1223 1 5.28525 14.1309 26.8109 3 8.36351e-05 -4.11388
1224 1 4.32737 14.1288 24.4793 3 8.17937e-05 -4.11375
1225 1 6.80016 14.1288 24.4793 3 8.17936e-05 -4.11375
1226 1 5.84227 14.1309 22.1477 3 8.36351e-05 -4.11388
1227 1 8.31506 14.1309 22.1477 3 8.36351e-05 -4.11388
1228 1 7.35829 14.1367 19.8171 3 8.12689e-05 -4.11426
1229 1 9.83108 14.1367 19.8171 3 8.12689e-05 -4.11426
1230 1 8.87679 14.1447 17.4876 3 6.74147e-05 -4.11484
1231 1 11.3496 14.1447 17.4876 3 6.74147e-05 -4.11484
1232 1 10.3993 14.1528 15.1588 3 5.23261e-05 -4.11553
1233 1 12.8721 14.1528 15.1588 3 5.23261e-05 -4.11553
1234 1 11.927 14.1593 12.8297 3 4.62847e-05 -4.11616
1235 1 14.3998 14.1593 12.8297 3 4.62847e-05 -4.11616
1236 1 13.4601 14.1636 10.4994 3 4.15638e-05 -4.11665
1237 1 15.9329 14.1636 10.4994 3 4.15638e-05 -4.11665
1238 1 14.9978 14.166 8.16773 3 3.56115e-05 -4.11699
1239 1 17.4706 14.166 8.16773 3 3.56115e-05 -4.11699
1240 1 16.5391 14.167 5.83492 3 3.05818e-05 -4.11723
1241 1 19.0119 14.167 5.83492 3 3.05818e-05 -4.11723
1242 1 18.0828 14.1674 3.50127 3 2.74318e-05 -4.11738
1243 1 20.5555 14.1674 3.50127 3 2.74318e-05 -4.11738
1244 1 19.6278 14.1675 1.16714 3 2.60015e-05 -4.11745
1245 1 22.1005 14.1675 1.16714 3 2.60015e-05 -4.11745
1246 1 0.894468 12.1352 37.2983 3 2.80027e-05 -4.11632
1247 1 64.2439 12.1306 34.9685 3 3.3698e-05 -4.11585
1248 1 2.42432 12.1306 34.9685 3 3.3698e-05 -4.11585
1249 1 1.47749 12.1249 32.6389 3 4.29304e-05 -4.11534
1250 1 3.95028 12.1249 32.6389 3 4.29304e-05 -4.11534
1251 1 3.00029 12.1189 30.3088 3 4.8972e-05 -4.11486
1252 1 5.47308 12.1189 30.3088 3 4.8972e-05 -4.11486
1253 1 4.52098 12.114 27.9776 3 4.63183e-05 -4.1145
1254 1 6.99376 12.114 27.9776 3 4.63183e-05 -4.1145
1255 1 6.04054 12.1112 25.6455 3 4.04781e-05 -4.11431
1256 1 8.51333 12.1112 25.6455 3 4.04781e-05 -4.11431
1257 1 7.55977 12.1112 23.3131 3 4.04781e-05 -4.11431
1258 1 10.0326 12.1112 23.3131 3 4.04781e-05 -4.11431
1259 1 9.07934 12.114 20.981 3 4.63182e-05 -4.1145
1260 1 11.5521 12.114 20.981 3 4.63182e-05 -4.1145
1261 1 10.6 12.1189 18.6499 3 4.8972e-05 -4.11486
1262 1 13.0728 12.1189 18.6499 3 4.8972e-05 -4.11486
1263 1 12.1228 12.1249 16.3197 3 4.29304e-05 -4.11534
1264 1 14.5956 12.1249 16.3197 3 4.29304e-05 -4.11534
1265 1 13.6488 12.1306 13.9902 3 3.36981e-05 -4.11585
1266 1 16.1216 12.1306 13.9902 3 3.36981e-05 -4.11585
1267 1 15.1786 12.1352 11.6604 3 2.80028e-05 -4.11632
1268 1 17.6514 12.1352 11.6604 3 2.80028e-05 -4.11632
1269 1 16.7124 12.1382 9.32983 3 2.48705e-05 -4.11668
1270 1 19.1852 12.1382 9.32983 3 2.48705e-05 -4.11668
1271 1 18.2497 12.1399 6.99836 3 2.27765e-05 -4.11694
1272 1 20.7225 12.1399 6.99836 3 2.27765e-05 -4.11694
1273 1 19.7895 12.1407 4.66607 3 2.14783e-05 -4.11711
1274 1 22.2623 12.1407 4.66607 3 2.14783e-05 -4.11711
1275 1 21.331 12.1411 2.33318 3 2.08718e-05 -4.11721
1276 1 23.8037 12.1411 2.33318 3 2.08718e-05 -4.11721
1277 1 22.8733 12.1412 6.3199e-09 3 2.06877e-05 -4.11724
1278 1 25.346 12.1412 6.13084e-09 3 2.06877e-05 -4.11724
1279 1 1.05658 10.1119 40.7971 3 1.53535e-05 -4.11667
1280 1 0.117921 10.1101 38.4664 3 1.79658e-05 -4.11641
1281 1 2.5907 10.1101 38.4664 3 1.79658e-05 -4.11641
1282 1 1.6492 10.1072 36.1361 3 2.37569e-05 -4.11607
1283 1 4.12198 10.1072 36.1361 3 2.37569e-05 -4.11607
1284 1 3.17758 10.1037 33.806 3 3.09937e-05 -4.11568
1285 1 5.65037 10.1037 33.806 3 3.09937e-05 -4.11568
1286 1 4.70347 10.0998 31.4755 3 3.39978e-05 -4.11529
1287 1 7.17626 10.0998 31.4755 3 3.39978e-05 -4.11529
1288 1 6.22754 10.0963 29.1441 3 2.94958e-05 -4.11497
1289 1 8.70032 10.0963 29.1441 3 2.94958e-05 -4.11497
1290 1 7.75049 10.0939 26.812 3 2.15714e-05 -4.11475
1291 1 10.2233 10.0939 26.812 3 2.15714e-05 -4.11475
1292 1 9.27294 10.0931 24.4793 3 1.77539e-05 -4.11468
1293 1 11.7457 10.0931 24.4793 3 1.77539e-05 -4.11468
1294 1 10.7954 10.0939 22.1466 3 2.15714e-05 -4.11475
1295 1 13.2682 10.0939 22.1466 3 2.15714e-05 -4.11475
1296 1 12.3183 10.0963 19.8145 3 2.94958e-05 -4.11497
1297 1 14.7911 10.0963 19.8145 3 2.94958e-05 -4.11497
1298 1 13.8424 10.0998 17.4832 3 3.39978e-05 -4.11529
1299 1 16.3152 10.0998 17.4832 3 3.39978e-05 -4.11529
1300 1 15.3683 10.1037 15.1526 3 3.09937e-05 -4.11568
1301 1 17.8411 10.1037 15.1526 3 3.09937e-05 -4.11568
1302 1 16.8967 10.1072 12.8225 3 2.37569e-05 -4.11607
1303 1 19.3695 10.1072 12.8225 3 2.37569e-05 -4.11607
1304 1 18.428 10.1101 10.4922 3 1.79658e-05 -4.11641
1305 1 20.9007 10.1101 10.4922 3 1.79658e-05 -4.11641
1306 1 19.9621 10.1119 8.16153 3 1.53536e-05 -4.11667
1307 1 22.4349 10.1119 8.16153 3 1.53536e-05 -4.11667
1308 1 21.4986 10.1131 5.83022 3 1.49876e-05 -4.11685
1309 1 23.9714 10.1131 5.83022 3 1.49876e-05 -4.11685
1310 1 23.0369 10.1136 3.49837 3 1.54783e-05 -4.11697
1311 1 25.5097 10.1136 3.49837 3 1.54783e-05 -4.11697
1312 1 24.5762 10.1138 1.16616 3 1.59529e-05 -4.11702
1313 1 27.049 10.1138 1.16616 3 1.59529e-05 -4.11702
1314 1 1.21919 8.08542 44.2954 3 1.05633e-05 -4.11722
1315 1 0.281979 8.08489 41.9642 3 1.03533e-05 -4.11706
1316 1 2.75476 8.08489 41.9642 3 1.03532e-05 -4.11706
1317 1 1.81603 8.084 39.6332 3 1.28943e-05 -4.11683
1318 1 4.28881 8.084 39.6332 3 1.28943e-05 -4.11683
1319 1 3.34819 8.0827 37.3025 3 1.88848e-05 -4.11652
1320 1 5.82097 8.0827 37.3025 3 1.88848e-05 -4.11652
1321 1 4.8783 8.08102 34.9719 3 2.55864e-05 -4.11616
1322 1 7.35108 8.08102 34.9719 3 2.55864e-05 -4.11616
1323 1 6.40649 8.07917 32.641 3 2.77711e-05 -4.11577
1324 1 8.87927 8.07917 32.641 3 2.77711e-05 -4.11577
1325 1 7.9331 8.07741 30.3097 3 2.32112e-05 -4.11542
1326 1 10.4059 8.07741 30.3097 3 2.32113e-05 -4.11542
1327 1 9.45859 8.07606 27.9778 3 1.53105e-05 -4.11515
1328 1 11.9314 8.07606 27.9778 3 1.53105e-05 -4.11515
1329 1 10.9834 8.07532 25.6455 3 9.6003e-06 -4.115
1330 1 13.4562 8.07532 25.6455 3 9.6003e-06 -4.115
1331 1 12.508 8.07532 23.3131 3 9.6003e-06 -4.115
1332 1 14.9808 8.07532 23.3131 3 9.60026e-06 -4.115
1333 1 14.0329 8.07606 20.9808 3 1.53104e-05 -4.11515
1334 1 16.5056 8.07606 20.9808 3 1.53105e-05 -4.11515
1335 1 15.5583 8.07741 18.6489 3 2.32112e-05 -4.11542
1336 1 18.0311 8.07741 18.6489 3 2.32112e-05 -4.11542
1337 1 17.085 8.07917 16.3176 3 2.77711e-05 -4.11577
1338 1 19.5577 8.07917 16.3176 3 2.7771e-05 -4.11577
1339 1 18.6132 8.08102 13.9867 3 2.55864e-05 -4.11616
1340 1 21.0859 8.08102 13.9867 3 2.55865e-05 -4.11616
1341 1 20.1433 8.0827 11.6561 3 1.88849e-05 -4.11652
1342 1 22.616 8.0827 11.6561 3 1.88849e-05 -4.11652
1343 1 21.6754 8.084 9.3254 3 1.28943e-05 -4.11683
1344 1 24.1482 8.084 9.3254 3 1.28943e-05 -4.11683
1345 1 23.2095 8.08489 6.99446 3 1.03533e-05 -4.11706
1346 1 25.6823 8.08489 6.99446 3 1.03533e-05 -4.11706
1347 1 24.745 8.08542 4.66319 3 1.05633e-05 -4.11722
1348 1 27.2178 8.08542 4.66319 3 1.05633e-05 -4.11722
1349 1 26.2817 8.0857 2.33167 3 1.16e-05 -4.11731
1350 1 28.7545 8.0857 2.33167 3 1.16e-05 -4.11731
1351 1 27.8188 8.08578 3.18066e-09 3 1.20963e-05 -4.11734
1352 1 30.2916 8.08578 3.22599e-09 3 1.20964e-05 -4.11734
1353 1 1.38571 6.05706 47.7929 3 0.000192152 -4.11661
1354 1 0.447771 6.05706 45.4616 3 0.000190055 -4.11656
1355 1 2.92055 6.05706 45.4616 3 0.000190055 -4.11656
1356 1 1.98212 6.05706 43.1302 3 0.000182136 -4.11648
1357 1 4.4549 6.05706 43.1302 3 0.000182135 -4.11648
1358 1 3.51567 6.05706 40.7989 3 0.000163309 -4.11634
1359 1 5.98845 6.05706 40.7989 3 0.000163309 -4.11634
1360 1 5.04816 6.05706 38.4675 3 0.000131568 -4.11616
1361 1 7.52095 6.05706 38.4675 3 0.000131568 -4.11616
1362 1 6.57942 6.05706 36.1361 3 9.19266e-05 -4.11595
1363 1 9.05221 6.05706 36.1361 3 9.19266e-05 -4.11595
1364 1 8.10937 6.05706 33.8048 3 5.47059e-05 -4.11573
1365 1 10.5821 6.05706 33.8048 3 5.47059e-05 -4.11573
1366 1 9.63802 6.05706 31.4734 3 2.81608e-05 -4.11553
1367 1 12.1108 6.05706 31.4734 3 2.81608e-05 -4.11553
1368 1 11.1656 6.05706 29.142 3 1.34712e-05 -4.11537
1369 1 13.6383 6.05706 29.142 3 1.34713e-05 -4.11537
1370 1 12.6923 6.05706 26.8107 3 7.01602e-06 -4.11526
1371 1 15.165 6.05706 26.8107 3 7.01598e-06 -4.11526
1372 1 14.2185 6.05706 24.4793 3 5.26906e-06 -4.11523
1373 1 16.6913 6.05706 24.4793 3 5.26909e-06 -4.11523
1374 1 15.7448 6.05706 22.1479 3 7.0161e-06 -4.11526
1375 1 18.2175 6.05706 22.1479 3 7.01611e-06 -4.11526
1376 1 17.2715 6.05706 19.8166 3 1.34715e-05 -4.11537
1377 1 19.7442 6.05706 19.8166 3 1.34715e-05 -4.11537
1378 1 18.799 6.05706 17.4852 3 2.81613e-05 -4.11553
1379 1 21.2718 6.05706 17.4852 3 2.81612e-05 -4.11553
1380 1 20.3277 6.05706 15.1539 3 5.47064e-05 -4.11573
1381 1 22.8004 6.05706 15.1539 3 5.47065e-05 -4.11573
1382 1 21.8576 6.05706 12.8225 3 9.19273e-05 -4.11595
1383 1 24.3304 6.05706 12.8225 3 9.19273e-05 -4.11595
1384 1 23.3889 6.05706 10.4911 3 0.000131568 -4.11616
1385 1 25.8616 6.05706 10.4911 3 0.000131569 -4.11616
1386 1 24.9213 6.05706 8.15977 3 0.000163309 -4.11634
1387 1 27.3941 6.05706 8.15977 3 0.000163309 -4.11634
1388 1 26.4549 6.05706 5.82841 3 0.000182136 -4.11648
1389 1 28.9277 6.05706 5.82841 3 0.000182136 -4.11648
1390 1 27.9892 6.05706 3.49704 3 0.000190055 -4.11656
1391 1 30.462 6.05706 3.49704 3 0.000190055 -4.11656
1392 1 29.5241 6.05706 1.16568 3 0.000192152 -4.11661
1393 1 31.9969 6.05706 1.16568 3 0.000192152 -4.11661
1394 1 2.15224 4.03804 46.6273 3 1.41686e-06 -4.11576
1395 1 4.62502 4.03804 46.6273 3 1.41686e-06 -4.11576
1396 1 3.68601 4.03804 44.2959 3 1.43103e-06 -4.11573
1397 1 6.1588 4.03804 44.2959 3 1.43101e-06 -4.11573
1398 1 5.21927 4.03804 41.9645 3 1.45409e-06 -4.11568
1399 1 7.69205 4.03804 41.9645 3 1.45409e-06 -4.11568
1400 1 6.75178 4.03804 39.6332 3 1.48585e-06 -4.11564
1401 1 9.22457 4.03804 39.6332 3 1.48585e-06 -4.11564
1402 1 8.2834 4.03804 37.3018 3 1.52674e-06 -4.11559
1403 1 10.7562 4.03804 37.3018 3 1.52673e-06 -4.11559
1404 1 9.81401 4.03804 34.9704 3 1.57732e-06 -4.11556
1405 1 12.2868 4.03804 34.9704 3 1.57732e-06 -4.11556
1406 1 11.3436 4.03804 32.6391 3 1.63656e-06 -4.11554
1407 1 13.8164 4.03804 32.6391 3 1.63654e-06 -4.11554
1408 1 12.8723 4.03804 30.3077 3 1.69894e-06 -4.11552
1409 1 15.3451 4.03804 30.3077 3 1.69892e-06 -4.11552
1410 1 14.4002 4.03804 27.9764 3 1.75327e-06 -4.11552
1411 1 16.873 4.03804 27.9764 3 1.75327e-06 -4.11552
1412 1 15.9277 4.03804 25.645 3 1.78548e-06 -4.11551
1413 1 18.4004 4.03804 25.645 3 1.78548e-06 -4.11551
1414 1 17.4549 4.03804 23.3136 3 1.78548e-06 -4.11551
1415 1 19.9277 4.03804 23.3136 3 1.78548e-06 -4.11551
1416 1 18.9824 4.03804 20.9823 3 1.75326e-06 -4.11552
1417 1 21.4552 4.03804 20.9823 3 1.75329e-06 -4.11552
1418 1 20.5103 4.03804 18.6509 3 1.69894e-06 -4.11552
1419 1 22.9831 4.03804 18.6509 3 1.69892e-06 -4.11552
1420 1 22.039 4.03804 16.3195 3 1.63656e-06 -4.11554
1421 1 24.5118 4.03804 16.3195 3 1.63654e-06 -4.11554
1422 1 23.5686 4.03804 13.9882 3 1.57729e-06 -4.11556
1423 1 26.0414 4.03804 13.9882 3 1.57733e-06 -4.11556
1424 1 25.0992 4.03804 11.6568 3 1.52672e-06 -4.11559
1425 1 27.572 4.03804 11.6568 3 1.52672e-06 -4.11559
1426 1 26.6308 4.03804 9.32545 3 1.48587e-06 -4.11564
1427 1 29.1036 4.03804 9.32545 3 1.48585e-06 -4.11564
1428 1 28.1633 4.03804 6.99409 3 1.4541e-06 -4.11568
1429 1 30.6361 4.03804 6.99409 3 1.4541e-06 -4.11568
1430 1 29.6966 4.03804 4.66273 3 1.43101e-06 -4.11573
1431 1 32.1694 4.03804 4.66273 3 1.43103e-06 -4.11573
1432 1 31.2303 4.03804 2.33136 3 1.41684e-06 -4.11576
1433 1 33.7031 4.03804 2.33136 3 1.41686e-06 -4.11576
1434 1 32.7644 4.03804 0 3 1.41207e-06 -4.11577
1435 1 35.2372 4.03804 0 3 1.41206e-06 -4.11577
1436 1 3.85765 2.01902 47.7929 3 8.63883e-07 -4.10005
1437 1 6.33043 2.01902 47.7929 3 8.63869e-07 -4.10005
1438 1 5.39088 2.01902 45.4616 3 8.67515e-07 -4.10002
1439 1 7.86366 2.01902 45.4616 3 8.67536e-07 -4.10002
1440 1 6.9238 2.01902 43.1302 3 8.74829e-07 -4.09998
1441 1 9.39658 2.01902 43.1302 3 8.74814e-07 -4.09998
1442 1 8.45622 2.01902 40.7989 3 8.86011e-07 -4.09991
1443 1 10.929 2.01902 40.7989 3 8.85999e-07 -4.09991
1444 1 9.98799 2.01902 38.4675 3 9.01604e-07 -4.09983
1445 1 12.4608 2.01902 38.4675 3 9.01619e-07 -4.09983
1446 1 11.519 2.01902 36.1361 3 9.22398e-07 -4.09974
1447 1 13.9918 2.01902 36.1361 3 9.22391e-07 -4.09974
1448 1 13.0493 2.01902 33.8048 3 9.48463e-07 -4.09964
1449 1 15.522 2.01902 33.8048 3 9.48481e-07 -4.09964
1450 1 14.5787 2.01902 31.4734 3 9.78191e-07 -4.09956
1451 1 17.0515 2.01902 31.4734 3 9.78204e-07 -4.09956
1452 1 16.1076 2.01902 29.142 3 1.00711e-06 -4.09949
1453 1 18.5804 2.01902 29.142 3 1.00713e-06 -4.09949
1454 1 17.636 2.01902 26.8107 3 1.02868e-06 -4.09945
1455 1 20.1087 2.01902 26.8107 3 1.02868e-06 -4.09945
1456 1 19.1641 2.01902 24.4793 3 1.03671e-06 -4.09944
1457 1 21.6369 2.01902 24.4793 3 1.03671e-06 -4.09944
1458 1 20.6922 2.01902 22.1479 3 1.02869e-06 -4.09945
1459 1 23.165 2.01902 22.1479 3 1.02869e-06 -4.09945
1460 1 22.2206 2.01902 19.8166 3 1.00711e-06 -4.09949
1461 1 24.6934 2.01902 19.8166 3 1.00712e-06 -4.09949
1462 1 23.7494 2.01902 17.4852 3 9.78191e-07 -4.09956
1463 1 26.2222 2.01902 17.4852 3 9.78189e-07 -4.09956
1464 1 25.2789 2.01902 15.1539 3 9.48475e-07 -4.09964
1465 1 27.7517 2.01902 15.1539 3 9.48475e-07 -4.09964
1466 1 26.8091 2.01902 12.8225 3 9.22383e-07 -4.09974
1467 1 29.2819 2.01902 12.8225 3 9.22391e-07 -4.09974
1468 1 28.3402 2.01902 10.4911 3 9.01608e-07 -4.09983
1469 1 30.813 2.01902 10.4911 3 9.01619e-07 -4.09983
1470 1 29.8719 2.01902 8.15977 3 8.85998e-07 -4.09991
1471 1 32.3447 2.01902 8.15977 3 8.86011e-07 -4.09991
1472 1 31.4044 2.01902 5.82841 3 8.74829e-07 -4.09998
1473 1 33.8771 2.01902 5.82841 3 8.74814e-07 -4.09998
1474 1 32.9373 2.01902 3.49704 3 8.67521e-07 -4.10002
1475 1 35.4101 2.01902 3.49704 3 8.67515e-07 -4.10002
1476 1 34.4705 2.01902 1.16568 3 8.63883e-07 -4.10005
1477 1 36.9433 2.01902 1.16568 3 8.63869e-07 -4.10005
1478 1 7.09651 0 46.6273 5 6.02137 -3.54885
1479 1 9.56929 0 46.6273 5 6.02137 -3.54885
1480 1 8.62908 0 44.2959 5 6.02059 -3.54884
1481 1 11.1019 0 44.2959 5 6.02059 -3.54884
1482 1 10.1613 0 41.9645 5 6.01984 -3.54882
1483 1 12.6341 0 41.9645 5 6.01984 -3.54882
1484 1 11.6931 0 39.6332 5 6.0192 -3.5488
1485 1 14.1659 0 39.6332 5 6.0192 -3.5488
1486 1 13.2244 0 37.3018 5 6.01871 -3.54878
1487 1 15.6972 0 37.3018 5 6.01871 -3.54878
1488 1 14.755 0 34.9704 5 6.01843 -3.54876
1489 1 17.2278 0 34.9704 5 6.01843 -3.54876
1490 1 16.2851 0 32.6391 5 6.01838 -3.54873
1491 1 18.7579 0 32.6391 5 6.01838 -3.54873
1492 1 17.8146 0 30.3077 5 6.01858 -3.54871
1493 1 20.2874 0 30.3077 5 6.01858 -3.54871
1494 1 19.3437 0 27.9764 5 6.01902 -3.5487
1495 1 21.8165 0 27.9764 5 6.01902 -3.5487
1496 1 20.8725 0 25.645 5 6.01964 -3.54869
1497 1 23.3453 0 25.645 5 6.01964 -3.54869
1498 1 22.4012 0 23.3136 5 6.01964 -3.54869
1499 1 24.874 0 23.3136 5 6.01964 -3.54869
1500 1 23.93 0 20.9823 5 6.01902 -3.5487
1501 1 26.4028 0 20.9823 5 6.01902 -3.5487
1502 1 25.4591 0 18.6509 5 6.01858 -3.54871
1503 1 27.9319 0 18.6509 5 6.01858 -3.54871
1504 1 26.9886 0 16.3195 5 6.01838 -3.54873
1505 1 29.4614 0 16.3195 5 6.01838 -3.54873
1506 1 28.5187 0 13.9882 5 6.01843 -3.54876
1507 1 30.9915 0 13.9882 5 6.01843 -3.54876
1508 1 30.0493 0 11.6568 5 6.01871 -3.54878
1509 1 32.5221 0 11.6568 5 6.01871 -3.54878
1510 1 31.5806 0 9.32545 5 6.0192 -3.5488
1511 1 34.0534 0 9.32545 5 6.0192 -3.5488
1512 1 33.1124 0 6.99409 5 6.01984 -3.54882
1513 1 35.5852 0 6.99409 5 6.01984 -3.54882
1514 1 34.6446 0 4.66273 5 6.02059 -3.54884
1515 1 37.1174 0 4.66273 5 6.02059 -3.54884
1516 1 36.1772 0 2.33136 5 6.02137 -3.54885
1517 1 38.65 0 2.33136 5 6.02137 -3.54885
1518 1 37.71 0 0 5 6.02212 -3.54885
1519 1 40.1827 0 0 5 6.02212 -3.54885
1520 1 1.47899 36.3986 2.32633 3 9.18568e-05 -4.12168
1521 1 0.618196 36.3984 2.297e-09 3 8.69562e-05 -4.12169
1522 1 3.09098 36.3984 2.2992e-09 3 8.69562e-05 -4.12169
1523 1 1.54971 34.3803 5.81895 3 0.000158073 -4.12129
1524 1 0.683244 34.3796 3.49149 3 0.000127924 -4.12141
1525 1 3.15603 34.3796 3.49149 3 0.000127924 -4.12141
1526 1 2.28851 34.3792 1.16385 3 0.000115414 -4.12147
1527 1 4.7613 34.3792 1.16385 3 0.000115414 -4.12147
1528 1 1.64328 32.3628 9.31858 3 0.00030275 -4.12045
1529 1 0.770401 32.3615 6.98921 3 0.000209208 -4.12082
1530 1 3.24318 32.3615 6.98921 3 0.000209208 -4.12082
1531 1 2.36886 32.3605 4.65959 3 0.000163749 -4.12102
1532 1 4.84164 32.3605 4.65959 3 0.000163749 -4.12102
1533 1 3.9665 32.3599 2.32983 3 0.000142377 -4.12113
1534 1 6.43928 32.3599 2.32983 3 0.000142377 -4.12113
1535 1 5.56376 32.3597 2.8824e-09 3 0.00013603 -4.12116
1536 1 8.03655 32.3597 2.88778e-09 3 0.00013603 -4.12116
1537 1 63.589 30.3469 12.8307 3 0.000661326 -4.11905
1538 1 62.7051 30.3448 10.497 3 0.000372786 -4.11979
1539 1 0.885507 30.3448 10.497 3 0.000372786 -4.11979
1540 1 0.00179513 30.343 8.16388 3 0.000246692 -4.12024
1541 1 2.47458 30.343 8.16388 3 0.000246692 -4.12024
1542 1 1.59092 30.3417 5.83113 3 0.00018524 -4.12051
1543 1 4.06371 30.3417 5.83113 3 0.00018524 -4.12051
1544 1 3.18006 30.3408 3.4986 3 0.000154623 -4.12067
1545 1 5.65285 30.3408 3.4986 3 0.000154623 -4.12067
1546 1 4.7692 30.3403 1.16619 3 0.000141586 -4.12074
1547 1 7.24198 30.3403 1.16619 3 0.000141586 -4.12074
1548 1 63.7653 28.3332 16.3548 3 0.00219322 -4.11591
1549 1 62.8582 28.3302 14.0157 3 0.000890241 -4.11774
1550 1 1.03859 28.3302 14.0157 3 0.000890241 -4.11774
1551 1 0.138712 28.3274 11.6777 3 0.000456136 -4.11879
1552 1 2.6115 28.3274 11.6777 3 0.000456136 -4.11879
1553 1 1.71542 28.3251 9.34094 3 0.000275951 -4.11942
1554 1 4.18821 28.3251 9.34094 3 0.000275951 -4.11942
1555 1 3.29431 28.3233 7.00503 3 0.000191447 -4.11982
1556 1 5.7671 28.3233 7.00503 3 0.000191447 -4.11982
1557 1 4.87448 28.3219 4.66972 3 0.000149472 -4.12007
1558 1 7.34726 28.3219 4.66972 3 0.000149472 -4.12007
1559 1 6.45535 28.3211 2.33477 3 0.000129519 -4.1202
1560 1 8.92813 28.3211 2.33477 3 0.000129519 -4.1202
1561 1 8.03655 28.3209 4.61086e-09 3 0.000123538 -4.12024
1562 1 10.5093 28.3209 4.60442e-09 3 0.000123538 -4.12024
1563 1 64.0311 26.3002 19.8559 3 0.00637848 -4.10946
1564 1 63.0672 26.3104 17.5287 3 0.00245828 -4.11406
1565 1 1.24764 26.3104 17.5287 3 0.00245828 -4.11406
1566 1 0.31585 26.3112 15.193 3 0.000951108 -4.11627
1567 1 2.78863 26.3112 15.193 3 0.000951108 -4.11627
1568 1 1.87199 26.3093 12.8549 3 0.000464591 -4.11763
1569 1 4.34477 26.3093 12.8549 3 0.000464591 -4.11763
1570 1 3.43601 26.307 10.5167 3 0.000271562 -4.11847
1571 1 5.90879 26.307 10.5167 3 0.000271562 -4.11847
1572 1 5.00454 26.3049 8.17893 3 0.000180367 -4.11901
1573 1 7.47732 26.3049 8.17893 3 0.000180367 -4.11901
1574 1 6.57578 26.3032 5.84167 3 0.000133537 -4.11936
1575 1 9.04857 26.3032 5.84167 3 0.000133537 -4.11936
1576 1 8.14863 26.3021 3.50483 3 0.000109496 -4.11957
1577 1 10.6214 26.3021 3.50483 3 0.000109496 -4.11957
1578 1 9.72234 26.3015 1.16825 3 9.91672e-05 -4.11967
1579 1 12.1951 26.3015 1.16825 3 9.91672e-05 -4.11967
1580 1 0.0987565 24.2286 23.3186 3 0.0045529 -4.09981
1581 1 63.3665 24.2507 21.0019 3 0.00236274 -4.10559
1582 1 1.54685 24.2507 21.0019 3 0.00236274 -4.10559
1583 1 0.555179 24.275 18.6853 3 0.00186199 -4.11259
1584 1 3.02796 24.275 18.6853 3 0.00186199 -4.11259
1585 1 2.07176 24.2854 16.3584 3 0.00101185 -4.11517
1586 1 4.54454 24.2854 16.3584 3 0.00101185 -4.11517
1587 1 3.6105 24.2879 14.0248 3 0.000482604 -4.11663
1588 1 6.08328 24.2879 14.0248 3 0.000482604 -4.11663
1589 1 5.1617 24.2874 11.6882 3 0.000260539 -4.11759
1590 1 7.63449 24.2874 11.6882 3 0.000260539 -4.11759
1591 1 6.72004 24.2858 9.35054 3 0.000164011 -4.11823
1592 1 9.19283 24.2858 9.35054 3 0.000164011 -4.11823
1593 1 8.28267 24.2841 7.01272 3 0.000116216 -4.11866
1594 1 10.7555 24.2841 7.01272 3 0.000116216 -4.11866
1595 1 9.84791 24.2827 4.67502 3 9.09683e-05 -4.11894
1596 1 12.3207 24.2827 4.67502 3 9.09683e-05 -4.11894
1597 1 11.4147 24.2818 2.33746 3 7.83887e-05 -4.11909
1598 1 13.8874 24.2818 2.33746 3 7.83887e-05 -4.11909
1599 1 12.9821 24.2815 7.93651e-09 3 7.45992e-05 -4.11914
1600 1 15.4549 24.2815 7.93296e-09 3 7.45992e-05 -4.11914
1601 1 0.386337 22.2131 26.8028 3 0.00142287 -4.10738
1602 1 63.6742 22.2049 24.4793 3 0.00172072 -4.10623
1603 1 1.85459 22.2049 24.4793 3 0.00172072 -4.10623
1604 1 0.850056 22.2131 22.1558 3 0.00142287 -4.10738
1605 1 3.32284 22.2131 22.1558 3 0.00142287 -4.10738
1606 1 2.3303 22.2327 19.8354 3 0.000811247 -4.11062
1607 1 4.80309 22.2327 19.8354 3 0.000811247 -4.11062
1608 1 3.83083 22.2512 17.514 3 0.000701874 -4.11412
1609 1 6.30361 22.2512 17.514 3 0.000701874 -4.11412
1610 1 5.3534 22.2608 15.1864 3 0.000471623 -4.11582
1611 1 7.82618 22.2608 15.1864 3 0.000471623 -4.11582
1612 1 6.89169 22.2642 12.8538 3 0.000266141 -4.11685
1613 1 9.36447 22.2642 12.8538 3 0.000266141 -4.11685
1614 1 8.43988 22.2646 10.5183 3 0.000157093 -4.11755
1615 1 10.9127 22.2646 10.5183 3 0.000157093 -4.11755
1616 1 9.99413 22.2637 8.18147 3 0.000104555 -4.11804
1617 1 12.4669 22.2637 8.18147 3 0.000104555 -4.11804
1618 1 11.5521 22.2625 5.84407 3 7.79181e-05 -4.11836
1619 1 14.0249 22.2625 5.84407 3 7.79181e-05 -4.11836
1620 1 13.1124 22.2615 3.50648 3 6.41046e-05 -4.11857
1621 1 15.5852 22.2615 3.50648 3 6.41046e-05 -4.11857
1622 1 14.6739 22.261 1.16883 3 5.81635e-05 -4.11867
1623 1 17.1467 22.261 1.16883 3 5.81635e-05 -4.11867
1624 1 0.595784 20.2138 30.2916 3 0.000342001 -4.11299
1625 1 63.914 20.1974 27.9681 3 0.000541395 -4.11102
1626 1 2.0944 20.1974 27.9681 3 0.000541395 -4.11102
1627 1 1.11132 20.1865 25.6426 3 0.000695882 -4.1099
1628 1 3.5841 20.1865 25.6426 3 0.000695882 -4.1099
1629 1 2.59786 20.1865 23.316 3 0.000695882 -4.1099
1630 1 5.07064 20.1865 23.316 3 0.000695882 -4.1099
1631 1 4.08756 20.1974 20.9906 3 0.000541395 -4.11102
1632 1 6.56034 20.1974 20.9906 3 0.000541395 -4.11102
1633 1 5.58618 20.2138 18.667 3 0.000342001 -4.11299
1634 1 8.05896 20.2138 18.667 3 0.000342001 -4.11299
1635 1 7.09838 20.2283 16.3425 3 0.000309047 -4.11501
1636 1 9.57116 20.2283 16.3425 3 0.000309047 -4.11501
1637 1 8.62526 20.2367 14.014 3 0.000237836 -4.1162
1638 1 11.098 20.2367 14.014 3 0.000237836 -4.1162
1639 1 10.1635 20.2403 11.6818 3 0.000154051 -4.11696
1640 1 12.6363 20.2403 11.6818 3 0.000154051 -4.11696
1641 1 11.7096 20.2412 9.34714 3 9.97795e-05 -4.11749
1642 1 14.1823 20.2412 9.34714 3 9.97795e-05 -4.11749
1643 1 13.2606 20.2409 7.01111 3 7.05627e-05 -4.11786
1644 1 15.7334 20.2409 7.01111 3 7.05627e-05 -4.11786
1645 1 14.8148 20.2402 4.67436 3 5.54392e-05 -4.1181
1646 1 17.2876 20.2402 4.67436 3 5.54392e-05 -4.1181
1647 1 16.3708 20.2396 2.33725 3 4.80558e-05 -4.11824
1648 1 18.8436 20.2396 2.33725 3 4.80558e-05 -4.11824
1649 1 17.9277 20.2394 7.6402e-09 3 4.58252e-05 -4.11829
1650 1 20.4005 20.2394 7.63999e-09 3 4.58252e-05 -4.11829
1651 1 0.767164 18.2056 33.7876 3 0.000151781 -4.11557
1652 1 64.1064 18.1942 31.4609 3 0.000165317 -4.11428
1653 1 2.28678 18.1942 31.4609 3 0.000165317 -4.11428
1654 1 1.32404 18.1808 29.135 3 0.000239462 -4.11297
1655 1 3.79683 18.1808 29.135 3 0.000239462 -4.11297
1656 1 2.82737 18.1699 26.8079 3 0.000309455 -4.11207
1657 1 5.30016 18.1699 26.8079 3 0.000309455 -4.11207
1658 1 4.32737 18.1658 24.4793 3 0.000334306 -4.11174
1659 1 6.80016 18.1658 24.4793 3 0.000334306 -4.11174
1660 1 5.82737 18.1699 22.1507 3 0.000309455 -4.11207
1661 1 8.30015 18.1699 22.1507 3 0.000309455 -4.11207
1662 1 7.3307 18.1808 19.8236 3 0.000239462 -4.11297
1663 1 9.80349 18.1808 19.8236 3 0.000239462 -4.11297
1664 1 8.84075 18.1942 17.4978 3 0.000165317 -4.11428
1665 1 11.3135 18.1942 17.4978 3 0.000165317 -4.11428
1666 1 10.3604 18.2056 15.171 3 0.000151781 -4.11557
1667 1 12.8331 18.2056 15.171 3 0.000151781 -4.11557
1668 1 11.8902 18.2126 12.8417 3 0.000127292 -4.11643
1669 1 14.363 18.2126 12.8417 3 0.000127292 -4.11643
1670 1 13.4285 18.216 10.5097 3 9.22624e-05 -4.11701
1671 1 15.9013 18.216 10.5097 3 9.22624e-05 -4.11701
1672 1 14.9728 18.2172 8.17577 3 6.57171e-05 -4.11742
1673 1 17.4455 18.2172 8.17577 3 6.57171e-05 -4.11742
1674 1 16.5211 18.2172 5.84054 3 4.99255e-05 -4.1177
1675 1 18.9939 18.2172 5.84054 3 4.99255e-05 -4.1177
1676 1 18.0719 18.2169 3.50458 3 4.16723e-05 -4.11787
1677 1 20.5447 18.2169 3.50458 3 4.16723e-05 -4.11787
1678 1 19.6241 18.2167 1.16823 3 3.80993e-05 -4.11796
1679 1 22.0969 18.2167 1.16823 3 3.80993e-05 -4.11796
1680 1 0.923106 16.1884 37.2886 3 7.14129e-05 -4.11657
1681 1 64.2745 16.1827 34.9586 3 8.10424e-05 -4.11593
1682 1 2.45494 16.1827 34.9586 3 8.10424e-05 -4.11593
1683 1 1.50663 16.174 32.6304 3 8.87972e-05 -4.11504
1684 1 3.97942 16.174 32.6304 3 8.87972e-05 -4.11504
1685 1 3.02413 16.1633 30.3028 3 0.000119747 -4.11412
1686 1 5.49692 16.1633 30.3028 3 0.000119747 -4.11412
1687 1 4.53648 16.1536 27.9744 3 0.000151325 -4.1134
1688 1 7.00927 16.1536 27.9744 3 0.000151325 -4.1134
1689 1 6.0459 16.1478 25.6446 3 0.000163251 -4.11301
1690 1 8.51869 16.1478 25.6446 3 0.000163251 -4.11301
1691 1 7.55441 16.1478 23.3141 3 0.000163251 -4.11301
1692 1 10.0272 16.1478 23.3141 3 0.000163251 -4.11301
1693 1 9.06383 16.1536 20.9843 3 0.000151325 -4.1134
1694 1 11.5366 16.1536 20.9843 3 0.000151325 -4.1134
1695 1 10.5762 16.1633 18.6558 3 0.000119747 -4.11412
1696 1 13.049 16.1633 18.6558 3 0.000119747 -4.11412
1697 1 12.0937 16.174 16.3282 3 8.87972e-05 -4.11504
1698 1 14.5665 16.174 16.3282 3 8.87972e-05 -4.11504
1699 1 13.6182 16.1827 14 3 8.10424e-05 -4.11593
1700 1 16.0909 16.1827 14 3 8.10424e-05 -4.11593
1701 1 15.15 16.1884 11.6701 3 7.1413e-05 -4.11657
1702 1 17.6228 16.1884 11.6701 3 7.1413e-05 -4.11657
1703 1 16.6881 16.1913 9.33825 3 5.67156e-05 -4.11702
1704 1 19.1609 16.1913 9.33825 3 5.67156e-05 -4.11702
1705 1 18.2308 16.1925 7.00489 3 4.43745e-05 -4.11733
1706 1 20.7036 16.1925 7.00489 3 4.43745e-05 -4.11733
1707 1 19.7767 16.1928 4.67046 3 3.6577e-05 -4.11754
1708 1 22.2495 16.1928 4.67046 3 3.6577e-05 -4.11754
1709 1 21.3245 16.1927 2.33538 3 3.25865e-05 -4.11766
1710 1 23.7973 16.1927 2.33538 3 3.25865e-05 -4.11766
1711 1 22.8733 16.1927 7.37903e-09 3 3.13416e-05 -4.1177
1712 1 25.346 16.1927 7.37038e-09 3 3.13416e-05 -4.1177
1713 1 1.07526 14.166 40.7909 3 3.56115e-05 -4.11699
1714 1 0.140223 14.1636 38.4592 3 4.15637e-05 -4.11665
1715 1 2.61301 14.1636 38.4592 3 4.15637e-05 -4.11665
1716 1 1.67331 14.1593 36.1289 3 4.62847e-05 -4.11616
1717 1 4.1461 14.1593 36.1289 3 4.62847e-05 -4.11616
1718 1 3.20101 14.1528 33.7998 3 5.23261e-05 -4.11553
1719 1 5.67379 14.1528 33.7998 3 5.23261e-05 -4.11553
1720 1 4.72352 14.1447 31.471 3 6.74147e-05 -4.11484
1721 1 7.19631 14.1447 31.471 3 6.74147e-05 -4.11484
1722 1 6.24202 14.1367 29.1415 3 8.12689e-05 -4.11426
1723 1 8.71481 14.1367 29.1415 3 8.12689e-05 -4.11426
1724 1 7.75804 14.1309 26.8109 3 8.36351e-05 -4.11388
1725 1 10.2308 14.1309 26.8109 3 8.36351e-05 -4.11388
1726 1 9.27294 14.1288 24.4793 3 8.17936e-05 -4.11375
1727 1 11.7457 14.1288 24.4793 3 8.17936e-05 -4.11375
1728 1 10.7878 14.1309 22.1477 3 8.36351e-05 -4.11388
1729 1 13.2606 14.1309 22.1477 3 8.36351e-05 -4.11388
1730 1 12.3039 14.1367 19.8171 3 8.12689e-05 -4.11426
1731 1 14.7766 14.1367 19.8171 3 8.12689e-05 -4.11426
1732 1 13.8224 14.1447 17.4876 3 6.74147e-05 -4.11484
1733 1 16.2951 14.1447 17.4876 3 6.74147e-05 -4.11484
1734 1 15.3449 14.1528 15.1588 3 5.23261e-05 -4.11553
1735 1 17.8177 14.1528 15.1588 3 5.23261e-05 -4.11553
1736 1 16.8726 14.1593 12.8297 3 4.62847e-05 -4.11616
1737 1 19.3454 14.1593 12.8297 3 4.62847e-05 -4.11616
1738 1 18.4057 14.1636 10.4994 3 4.15638e-05 -4.11665
1739 1 20.8784 14.1636 10.4994 3 4.15638e-05 -4.11665
1740 1 19.9434 14.166 8.16773 3 3.56115e-05 -4.11699
1741 1 22.4162 14.166 8.16773 3 3.56115e-05 -4.11699
1742 1 21.4847 14.167 5.83492 3 3.05818e-05 -4.11723
1743 1 23.9575 14.167 5.83492 3 3.05818e-05 -4.11723
1744 1 23.0283 14.1674 3.50127 3 2.74318e-05 -4.11738
1745 1 25.5011 14.1674 3.50127 3 2.74318e-05 -4.11738
1746 1 24.5733 14.1675 1.16714 3 2.60015e-05 -4.11745
1747 1 27.0461 14.1675 1.16714 3 2.60015e-05 -4.11745
1748 1 1.22917 12.1407 44.2926 3 2.14783e-05 -4.11711
1749 1 0.296196 12.1399 41.9603 3 2.27765e-05 -4.11694
1750 1 2.76898 12.1399 41.9603 3 2.27765e-05 -4.11694
1751 1 1.83343 12.1382 39.6288 3 2.48704e-05 -4.11668
1752 1 4.30622 12.1382 39.6288 3 2.48704e-05 -4.11668
1753 1 3.36725 12.1352 37.2983 3 2.80027e-05 -4.11632
1754 1 5.84004 12.1352 37.2983 3 2.80027e-05 -4.11632
1755 1 4.8971 12.1306 34.9685 3 3.3698e-05 -4.11585
1756 1 7.36989 12.1306 34.9685 3 3.3698e-05 -4.11585
1757 1 6.42306 12.1249 32.6389 3 4.29304e-05 -4.11534
1758 1 8.89585 12.1249 32.6389 3 4.29304e-05 -4.11534
1759 1 7.94586 12.1189 30.3088 3 4.8972e-05 -4.11486
1760 1 10.4186 12.1189 30.3088 3 4.8972e-05 -4.11486
1761 1 9.46654 12.114 27.9776 3 4.63183e-05 -4.1145
1762 1 11.9393 12.114 27.9776 3 4.63183e-05 -4.1145
1763 1 10.9861 12.1112 25.6455 3 4.04781e-05 -4.11431
1764 1 13.4589 12.1112 25.6455 3 4.04781e-05 -4.11431
1765 1 12.5053 12.1112 23.3131 3 4.04781e-05 -4.11431
1766 1 14.9781 12.1112 23.3131 3 4.04781e-05 -4.11431
1767 1 14.0249 12.114 20.981 3 4.63183e-05 -4.1145
1768 1 16.4977 12.114 20.981 3 4.63183e-05 -4.1145
1769 1 15.5456 12.1189 18.6499 3 4.8972e-05 -4.11486
1770 1 18.0184 12.1189 18.6499 3 4.8972e-05 -4.11486
1771 1 17.0684 12.1249 16.3197 3 4.29304e-05 -4.11534
1772 1 19.5412 12.1249 16.3197 3 4.29304e-05 -4.11534
1773 1 18.5943 12.1306 13.9902 3 3.36981e-05 -4.11585
1774 1 21.0671 12.1306 13.9902 3 3.36981e-05 -4.11585
1775 1 20.1242 12.1352 11.6604 3 2.80028e-05 -4.11632
1776 1 22.597 12.1352 11.6604 3 2.80028e-05 -4.11632
1777 1 21.658 12.1382 9.32983 3 2.48705e-05 -4.11668
1778 1 24.1308 12.1382 9.32983 3 2.48705e-05 -4.11668
1779 1 23.1953 12.1399 6.99836 3 2.27765e-05 -4.11694
1780 1 25.668 12.1399 6.99836 3 2.27765e-05 -4.11694
1781 1 24.7351 12.1407 4.66607 3 2.14783e-05 -4.11711
1782 1 27.2078 12.1407 4.66607 3 2.14783e-05 -4.11711
1783 1 26.2765 12.1411 2.33318 3 2.08718e-05 -4.11721
1784 1 28.7493 12.1411 2.33318 3 2.08718e-05 -4.11721
1785 1 27.8188 12.1412 6.08035e-09 3 2.06877e-05 -4.11724
1786 1 30.2916 12.1412 6.20232e-09 3 2.06877e-05 -4.11724
1787 1 1.38803 10.1138 47.7925 3 1.59529e-05 -4.11702
1788 1 0.454559 10.1136 45.4603 3 1.54783e-05 -4.11697
1789 1 2.92734 10.1136 45.4603 3 1.54783e-05 -4.11697
1790 1 1.99283 10.1131 43.1284 3 1.49876e-05 -4.11685
1791 1 4.46562 10.1131 43.1284 3 1.49876e-05 -4.11685
1792 1 3.52936 10.1119 40.7971 3 1.53535e-05 -4.11667
1793 1 6.00214 10.1119 40.7971 3 1.53535e-05 -4.11667
1794 1 5.06349 10.1101 38.4664 3 1.79658e-05 -4.11641
1795 1 7.53627 10.1101 38.4664 3 1.79658e-05 -4.11641
1796 1 6.59477 10.1072 36.1361 3 2.37569e-05 -4.11607
1797 1 9.06755 10.1072 36.1361 3 2.37569e-05 -4.11607
1798 1 8.12315 10.1037 33.806 3 3.09937e-05 -4.11568
1799 1 10.5959 10.1037 33.806 3 3.09937e-05 -4.11568
1800 1 9.64904 10.0998 31.4755 3 3.39978e-05 -4.11529
1801 1 12.1218 10.0998 31.4755 3 3.39978e-05 -4.11529
1802 1 11.1731 10.0963 29.1441 3 2.94958e-05 -4.11497
1803 1 13.6459 10.0963 29.1441 3 2.94958e-05 -4.11497
1804 1 12.6961 10.0939 26.812 3 2.15714e-05 -4.11475
1805 1 15.1688 10.0939 26.812 3 2.15714e-05 -4.11475
1806 1 14.2185 10.0931 24.4793 3 1.77539e-05 -4.11468
1807 1 16.6913 10.0931 24.4793 3 1.77539e-05 -4.11468
1808 1 15.741 10.0939 22.1466 3 2.15714e-05 -4.11475
1809 1 18.2137 10.0939 22.1466 3 2.15714e-05 -4.11475
1810 1 17.2639 10.0963 19.8145 3 2.94958e-05 -4.11497
1811 1 19.7367 10.0963 19.8145 3 2.94958e-05 -4.11497
1812 1 18.788 10.0998 17.4832 3 3.39978e-05 -4.11529
1813 1 21.2608 10.0998 17.4832 3 3.39978e-05 -4.11529
1814 1 20.3139 10.1037 15.1526 3 3.09937e-05 -4.11568
1815 1 22.7866 10.1037 15.1526 3 3.09937e-05 -4.11568
1816 1 21.8422 10.1072 12.8225 3 2.37569e-05 -4.11607
1817 1 24.315 10.1072 12.8225 3 2.37569e-05 -4.11607
1818 1 23.3735 10.1101 10.4922 3 1.79658e-05 -4.11641
1819 1 25.8463 10.1101 10.4922 3 1.79658e-05 -4.11641
1820 1 24.9077 10.1119 8.16153 3 1.53536e-05 -4.11667
1821 1 27.3804 10.1119 8.16153 3 1.53536e-05 -4.11667
1822 1 26.4442 10.1131 5.83022 3 1.49876e-05 -4.11685
1823 1 28.917 10.1131 5.83022 3 1.49876e-05 -4.11685
1824 1 27.9825 10.1136 3.49837 3 1.54783e-05 -4.11697
1825 1 30.4552 10.1136 3.49837 3 1.54783e-05 -4.11697
1826 1 29.5218 10.1138 1.16616 3 1.59529e-05 -4.11702
1827 1 31.9946 10.1138 1.16616 3 1.59529e-05 -4.11702
1828 1 2.15535 8.0857 46.627 3 1.16e-05 -4.11731
1829 1 4.62813 8.0857 46.627 3 1.16e-05 -4.11731
1830 1 3.69197 8.08542 44.2954 3 1.05633e-05 -4.11722
1831 1 6.16475 8.08542 44.2954 3 1.05633e-05 -4.11722
1832 1 5.22755 8.08489 41.9642 3 1.03533e-05 -4.11706
1833 1 7.70033 8.08489 41.9642 3 1.03532e-05 -4.11706
1834 1 6.7616 8.084 39.6332 3 1.28943e-05 -4.11683
1835 1 9.23438 8.084 39.6332 3 1.28943e-05 -4.11683
1836 1 8.29375 8.0827 37.3025 3 1.88848e-05 -4.11652
1837 1 10.7665 8.0827 37.3025 3 1.88848e-05 -4.11652
1838 1 9.82387 8.08102 34.9719 3 2.55864e-05 -4.11616
1839 1 12.2966 8.08102 34.9719 3 2.55864e-05 -4.11616
1840 1 11.3521 8.07917 32.641 3 2.77711e-05 -4.11577
1841 1 13.8248 8.07917 32.641 3 2.77711e-05 -4.11577
1842 1 12.8787 8.07741 30.3097 3 2.32112e-05 -4.11542
1843 1 15.3515 8.07741 30.3097 3 2.32113e-05 -4.11542
1844 1 14.4042 8.07606 27.9778 3 1.53105e-05 -4.11515
1845 1 16.8769 8.07606 27.9778 3 1.53105e-05 -4.11515
1846 1 15.929 8.07532 25.6455 3 9.60026e-06 -4.115
1847 1 18.4018 8.07532 25.6455 3 9.6003e-06 -4.115
1848 1 17.4536 8.07532 23.3131 3 9.6003e-06 -4.115
1849 1 19.9264 8.07532 23.3131 3 9.6003e-06 -4.115
1850 1 18.9784 8.07606 20.9808 3 1.53105e-05 -4.11515
1851 1 21.4512 8.07606 20.9808 3 1.53104e-05 -4.11515
1852 1 20.5039 8.07741 18.6489 3 2.32112e-05 -4.11542
1853 1 22.9767 8.07741 18.6489 3 2.32112e-05 -4.11542
1854 1 22.0305 8.07917 16.3176 3 2.77711e-05 -4.11577
1855 1 24.5033 8.07917 16.3176 3 2.77711e-05 -4.11577
1856 1 23.5587 8.08102 13.9867 3 2.55864e-05 -4.11616
1857 1 26.0315 8.08102 13.9867 3 2.55864e-05 -4.11616
1858 1 25.0888 8.0827 11.6561 3 1.88849e-05 -4.11652
1859 1 27.5616 8.0827 11.6561 3 1.88849e-05 -4.11652
1860 1 26.621 8.084 9.3254 3 1.28943e-05 -4.11683
1861 1 29.0938 8.084 9.3254 3 1.28943e-05 -4.11683
1862 1 28.155 8.08489 6.99446 3 1.03533e-05 -4.11706
1863 1 30.6278 8.08489 6.99446 3 1.03533e-05 -4.11706
1864 1 29.6906 8.08542 4.66319 3 1.05633e-05 -4.11722
1865 1 32.1634 8.08542 4.66319 3 1.05633e-05 -4.11722
1866 1 31.2272 8.0857 2.33167 3 1.16e-05 -4.11731
1867 1 33.7 8.0857 2.33167 3 1.16e-05 -4.11731
1868 1 32.7644 8.08578 3.63424e-09 3 1.20963e-05 -4.11734
1869 1 35.2372 8.08578 3.07687e-09 3 1.20963e-05 -4.11734
1870 1 3.85849 6.05706 47.7929 3 0.000192152 -4.11661
1871 1 6.33127 6.05706 47.7929 3 0.000192152 -4.11661
1872 1 5.39334 6.05706 45.4616 3 0.000190055 -4.11656
1873 1 7.86612 6.05706 45.4616 3 0.000190055 -4.11656
1874 1 6.92769 6.05706 43.1302 3 0.000182136 -4.11648
1875 1 9.40047 6.05706 43.1302 3 0.000182136 -4.11648
1876 1 8.46124 6.05706 40.7989 3 0.000163309 -4.11634
1877 1 10.934 6.05706 40.7989 3 0.000163309 -4.11634
1878 1 9.99373 6.05706 38.4675 3 0.000131568 -4.11616
1879 1 12.4665 6.05706 38.4675 3 0.000131568 -4.11616
1880 1 11.525 6.05706 36.1361 3 9.19267e-05 -4.11595
1881 1 13.9978 6.05706 36.1361 3 9.19266e-05 -4.11595
1882 1 13.0549 6.05706 33.8048 3 5.4706e-05 -4.11573
1883 1 15.5277 6.05706 33.8048 3 5.4706e-05 -4.11573
1884 1 14.5836 6.05706 31.4734 3 2.81609e-05 -4.11553
1885 1 17.0564 6.05706 31.4734 3 2.81608e-05 -4.11553
1886 1 16.1111 6.05706 29.142 3 1.34712e-05 -4.11537
1887 1 18.5839 6.05706 29.142 3 1.34713e-05 -4.11537
1888 1 17.6378 6.05706 26.8107 3 7.01603e-06 -4.11526
1889 1 20.1106 6.05706 26.8107 3 7.01598e-06 -4.11526
1890 1 19.1641 6.05706 24.4793 3 5.26906e-06 -4.11523
1891 1 21.6369 6.05706 24.4793 3 5.26908e-06 -4.11523
1892 1 20.6903 6.05706 22.1479 3 7.01614e-06 -4.11526
1893 1 23.1631 6.05706 22.1479 3 7.01611e-06 -4.11526
1894 1 22.217 6.05706 19.8166 3 1.34715e-05 -4.11537
1895 1 24.6898 6.05706 19.8166 3 1.34715e-05 -4.11537
1896 1 23.7446 6.05706 17.4852 3 2.81612e-05 -4.11553
1897 1 26.2173 6.05706 17.4852 3 2.81612e-05 -4.11553
1898 1 25.2732 6.05706 15.1539 3 5.47065e-05 -4.11573
1899 1 27.746 6.05706 15.1539 3 5.47064e-05 -4.11573
1900 1 26.8032 6.05706 12.8225 3 9.19272e-05 -4.11595
1901 1 29.2759 6.05706 12.8225 3 9.19273e-05 -4.11595
1902 1 28.3344 6.05706 10.4911 3 0.000131569 -4.11616
1903 1 30.8072 6.05706 10.4911 3 0.000131569 -4.11616
1904 1 29.8669 6.05706 8.15977 3 0.000163309 -4.11634
1905 1 32.3397 6.05706 8.15977 3 0.000163309 -4.11634
1906 1 31.4005 6.05706 5.82841 3 0.000182136 -4.11648
1907 1 33.8732 6.05706 5.82841 3 0.000182136 -4.11648
1908 1 32.9348 6.05706 3.49704 3 0.000190055 -4.11656
1909 1 35.4076 6.05706 3.49704 3 0.000190055 -4.11656
1910 1 34.4697 6.05706 1.16568 3 0.000192152 -4.11661
1911 1 36.9424 6.05706 1.16568 3 0.000192152 -4.11661
1912 1 7.09781 4.03804 46.6273 3 1.41686e-06 -4.11576
1913 1 9.57059 4.03804 46.6273 3 1.41684e-06 -4.11576
1914 1 8.63158 4.03804 44.2959 3 1.43102e-06 -4.11573
1915 1 11.1044 4.03804 44.2959 3 1.43102e-06 -4.11573
1916 1 10.1648 4.03804 41.9645 3 1.45408e-06 -4.11568
1917 1 12.6376 4.03804 41.9645 3 1.45411e-06 -4.11568
1918 1 11.6974 4.03804 39.6332 3 1.48586e-06 -4.11564
1919 1 14.1701 4.03804 39.6332 3 1.48586e-06 -4.11564
1920 1 13.229 4.03804 37.3018 3 1.52672e-06 -4.11559
1921 1 15.7017 4.03804 37.3018 3 1.52672e-06 -4.11559
1922 1 14.7596 4.03804 34.9704 3 1.57734e-06 -4.11556
1923 1 17.2324 4.03804 34.9704 3 1.57729e-06 -4.11556
1924 1 16.2892 4.03804 32.6391 3 1.63656e-06 -4.11554
1925 1 18.762 4.03804 32.6391 3 1.63654e-06 -4.11554
1926 1 17.8179 4.03804 30.3077 3 1.69896e-06 -4.11552
1927 1 20.2906 4.03804 30.3077 3 1.69894e-06 -4.11552
1928 1 19.3458 4.03804 27.9764 3 1.75326e-06 -4.11552
1929 1 21.8186 4.03804 27.9764 3 1.75327e-06 -4.11552
1930 1 20.8732 4.03804 25.645 3 1.78549e-06 -4.11551
1931 1 23.346 4.03804 25.645 3 1.78548e-06 -4.11551
1932 1 22.4005 4.03804 23.3136 3 1.78548e-06 -4.11551
1933 1 24.8733 4.03804 23.3136 3 1.78548e-06 -4.11551
1934 1 23.9279 4.03804 20.9823 3 1.75327e-06 -4.11552
1935 1 26.4007 4.03804 20.9823 3 1.75326e-06 -4.11552
1936 1 25.4559 4.03804 18.6509 3 1.69894e-06 -4.11552
1937 1 27.9286 4.03804 18.6509 3 1.69894e-06 -4.11552
1938 1 26.9845 4.03804 16.3195 3 1.63656e-06 -4.11554
1939 1 29.4573 4.03804 16.3195 3 1.63654e-06 -4.11554
1940 1 28.5141 4.03804 13.9882 3 1.57732e-06 -4.11556
1941 1 30.9869 4.03804 13.9882 3 1.57733e-06 -4.11556
1942 1 30.0448 4.03804 11.6568 3 1.52672e-06 -4.11559
1943 1 32.5175 4.03804 11.6568 3 1.52674e-06 -4.11559
1944 1 31.5764 4.03804 9.32545 3 1.48587e-06 -4.11564
1945 1 34.0492 4.03804 9.32545 3 1.48585e-06 -4.11564
1946 1 33.1089 4.03804 6.99409 3 1.4541e-06 -4.11568
1947 1 35.5817 4.03804 6.99409 3 1.4541e-06 -4.11568
1948 1 34.6421 4.03804 4.66273 3 1.43101e-06 -4.11573
1949 1 37.1149 4.03804 4.66273 3 1.43103e-06 -4.11573
1950 1 36.1759 4.03804 2.33136 3 1.41686e-06 -4.11576
1951 1 38.6487 4.03804 2.33136 3 1.41684e-06 -4.11576
1952 1 37.71 4.03804 0 3 1.41204e-06 -4.11577
1953 1 40.1827 4.03804 0 3 1.41206e-06 -4.11577
1954 1 8.80322 2.01902 47.7929 3 8.63883e-07 -4.10005
1955 1 11.276 2.01902 47.7929 3 8.63855e-07 -4.10005
1956 1 10.3364 2.01902 45.4616 3 8.67506e-07 -4.10002
1957 1 12.8092 2.01902 45.4616 3 8.67524e-07 -4.10002
1958 1 11.8694 2.01902 43.1302 3 8.74834e-07 -4.09998
1959 1 14.3421 2.01902 43.1302 3 8.74814e-07 -4.09998
1960 1 13.4018 2.01902 40.7989 3 8.86011e-07 -4.09991
1961 1 15.8746 2.01902 40.7989 3 8.86012e-07 -4.09991
1962 1 14.9336 2.01902 38.4675 3 9.01604e-07 -4.09983
1963 1 17.4063 2.01902 38.4675 3 9.01634e-07 -4.09983
1964 1 16.4646 2.01902 36.1361 3 9.22367e-07 -4.09974
1965 1 18.9374 2.01902 36.1361 3 9.22391e-07 -4.09974
1966 1 17.9948 2.01902 33.8048 3 9.48475e-07 -4.09964
1967 1 20.4676 2.01902 33.8048 3 9.48466e-07 -4.09964
1968 1 19.5243 2.01902 31.4734 3 9.78176e-07 -4.09956
1969 1 21.9971 2.01902 31.4734 3 9.78204e-07 -4.09956
1970 1 21.0532 2.01902 29.142 3 1.00711e-06 -4.09949
1971 1 23.5259 2.01902 29.142 3 1.00712e-06 -4.09949
1972 1 22.5815 2.01902 26.8107 3 1.02867e-06 -4.09945
1973 1 25.0543 2.01902 26.8107 3 1.02868e-06 -4.09945
1974 1 24.1096 2.01902 24.4793 3 1.03673e-06 -4.09944
1975 1 26.5824 2.01902 24.4793 3 1.03671e-06 -4.09944
1976 1 25.6378 2.01902 22.1479 3 1.02868e-06 -4.09945
1977 1 28.1105 2.01902 22.1479 3 1.02869e-06 -4.09945
1978 1 27.1661 2.01902 19.8166 3 1.00712e-06 -4.09949
1979 1 29.6389 2.01902 19.8166 3 1.00712e-06 -4.09949
1980 1 28.695 2.01902 17.4852 3 9.78191e-07 -4.09956
1981 1 31.1678 2.01902 17.4852 3 9.78176e-07 -4.09956
1982 1 30.2245 2.01902 15.1539 3 9.48475e-07 -4.09964
1983 1 32.6973 2.01902 15.1539 3 9.48463e-07 -4.09964
1984 1 31.7547 2.01902 12.8225 3 9.22383e-07 -4.09974
1985 1 34.2275 2.01902 12.8225 3 9.22399e-07 -4.09974
1986 1 33.2857 2.01902 10.4911 3 9.01608e-07 -4.09983
1987 1 35.7585 2.01902 10.4911 3 9.0163e-07 -4.09983
1988 1 34.8175 2.01902 8.15977 3 8.85998e-07 -4.09991
1989 1 37.2903 2.01902 8.15977 3 8.86011e-07 -4.09991
1990 1 36.3499 2.01902 5.82841 3 8.74839e-07 -4.09998
1991 1 38.8227 2.01902 5.82841 3 8.74814e-07 -4.09998
1992 1 37.8828 2.01902 3.49704 3 8.67527e-07 -4.10002
1993 1 40.3556 2.01902 3.49704 3 8.67515e-07 -4.10002
1994 1 39.4161 2.01902 1.16568 3 8.63871e-07 -4.10005
1995 1 41.8889 2.01902 1.16568 3 8.63883e-07 -4.10005
1996 1 12.0421 0 46.6273 5 6.02137 -3.54885
1997 1 14.5149 0 46.6273 5 6.02137 -3.54885
1998 1 13.5746 0 44.2959 5 6.02059 -3.54884
1999 1 16.0474 0 44.2959 5 6.02059 -3.54884
2000 1 15.1069 0 41.9645 5 6.01984 -3.54882
2001 1 17.5797 0 41.9645 5 6.01984 -3.54882
2002 1 16.6387 0 39.6332 5 6.0192 -3.5488
2003 1 19.1115 0 39.6332 5 6.0192 -3.5488
2004 1 18.17 0 37.3018 5 6.01871 -3.54878
2005 1 20.6427 0 37.3018 5 6.01871 -3.54878
2006 1 19.7006 0 34.9704 5 6.01843 -3.54876
2007 1 22.1734 0 34.9704 5 6.01843 -3.54876
2008 1 21.2307 0 32.6391 5 6.01838 -3.54873
2009 1 23.7034 0 32.6391 5 6.01838 -3.54873
2010 1 22.7602 0 30.3077 5 6.01858 -3.54871
2011 1 25.233 0 30.3077 5 6.01858 -3.54871
2012 1 24.2893 0 27.9764 5 6.01902 -3.5487
2013 1 26.762 0 27.9764 5 6.01902 -3.5487
2014 1 25.8181 0 25.645 5 6.01964 -3.54869
2015 1 28.2909 0 25.645 5 6.01964 -3.54869
2016 1 27.3468 0 23.3136 5 6.01964 -3.54869
2017 1 29.8196 0 23.3136 5 6.01964 -3.54869
2018 1 28.8756 0 20.9823 5 6.01902 -3.5487
2019 1 31.3484 0 20.9823 5 6.01902 -3.5487
2020 1 30.4047 0 18.6509 5 6.01858 -3.54871
2021 1 32.8775 0 18.6509 5 6.01858 -3.54871
2022 1 31.9342 0 16.3195 5 6.01838 -3.54873
2023 1 34.407 0 16.3195 5 6.01838 -3.54873
2024 1 33.4643 0 13.9882 5 6.01843 -3.54876
2025 1 35.937 0 13.9882 5 6.01843 -3.54876
2026 1 34.9949 0 11.6568 5 6.01871 -3.54878
2027 1 37.4677 0 11.6568 5 6.01871 -3.54878
2028 1 36.5262 0 9.32545 5 6.0192 -3.5488
2029 1 38.9989 0 9.32545 5 6.0192 -3.5488
2030 1 38.058 0 6.99409 5 6.01984 -3.54882
2031 1 40.5307 0 6.99409 5 6.01984 -3.54882
2032 1 39.5902 0 4.66273 5 6.02059 -3.54884
2033 1 42.063 0 4.66273 5 6.02059 -3.54884
2034 1 41.1228 0 2.33136 5 6.02137 -3.54885
2035 1 43.5956 0 2.33136 5 6.02137 -3.54885
2036 1 42.6555 0 0 5 6.02212 -3.54885
2037 1 45.1283 0 0 5 6.02212 -3.54885
2038 1 1.46773 40.4348 2.326 3 5.18024e-05 -4.12196
2039 1 0.618196 40.4348 48.9586 3 4.90573e-05 -4.12197
2040 1 3.09098 40.4348 48.9586 3 4.90573e-05 -4.12197
2041 1 1.51648 38.4176 5.81463 3 9.07642e-05 -4.12177
2042 1 0.6636 38.4173 3.48873 3 7.3238e-05 -4.12182
2043 1 3.13638 38.4173 3.48873 3 7.3238e-05 -4.12182
2044 1 2.28201 38.4171 1.16291 3 6.55492e-05 -4.12185
2045 1 4.75479 38.4171 1.16291 3 6.55492e-05 -4.12185
2046 1 1.57905 36.4003 9.30478 3 0.000206702 -4.12131
2047 1 0.724186 36.3997 6.97872 3 0.000142159 -4.1215
2048 1 3.19697 36.3997 6.97872 3 0.000142159 -4.1215
2049 1 2.33891 36.399 4.65258 3 0.000108355 -4.12161
2050 1 4.8117 36.399 4.65258 3 0.000108355 -4.12161
2051 1 3.95177 36.3986 2.32633 3 9.18568e-05 -4.12168
2052 1 6.42455 36.3986 2.32633 3 9.18568e-05 -4.12168
2053 1 5.56376 36.3984 2.29525e-09 3 8.69562e-05 -4.12169
2054 1 8.03655 36.3984 2.2995e-09 3 8.69562e-05 -4.12169
2055 1 1.6583 34.3831 12.7991 3 0.000630913 -4.12007
2056 1 0.802623 34.3823 10.4728 3 0.00034635 -4.12071
2057 1 3.27541 34.3823 10.4728 3 0.00034635 -4.12071
2058 1 2.41421 34.3813 8.14609 3 0.000219406 -4.12107
2059 1 4.887 34.3813 8.14609 3 0.000219406 -4.12107
2060 1 4.02249 34.3803 5.81895 3 0.000158073 -4.12129
2061 1 6.49528 34.3803 5.81895 3 0.000158073 -4.12129
2062 1 5.62881 34.3796 3.49149 3 0.000127924 -4.12141
2063 1 8.1016 34.3796 3.49149 3 0.000127924 -4.12141
2064 1 7.23408 34.3792 1.16385 3 0.000115414 -4.12147
2065 1 9.70686 34.3792 1.16385 3 0.000115414 -4.12147
2066 1 1.76473 32.3668 16.3031 3 0.00296101 -4.11528
2067 1 0.907011 32.3657 13.9758 3 0.00106837 -4.11841
2068 1 3.3798 32.3657 13.9758 3 0.00106837 -4.11841
2069 1 2.51369 32.3642 11.6475 3 0.00051239 -4.11977
2070 1 4.98648 32.3642 11.6475 3 0.00051239 -4.11977
2071 1 4.11606 32.3628 9.31858 3 0.00030275 -4.12045
2072 1 6.58885 32.3628 9.31858 3 0.00030275 -4.12045
2073 1 5.71597 32.3615 6.98921 3 0.000209208 -4.12082
2074 1 8.18875 32.3615 6.98921 3 0.000209208 -4.12082
2075 1 7.31443 32.3605 4.65959 3 0.000163749 -4.12102
2076 1 9.78721 32.3605 4.65959 3 0.000163749 -4.12102
2077 1 8.91207 32.3599 2.32983 3 0.000142377 -4.12113
2078 1 11.3849 32.3599 2.32983 3 0.000142377 -4.12113
2079 1 10.5093 32.3597 2.88129e-09 3 0.00013603 -4.12116
2080 1 12.9821 32.3597 2.88694e-09 3 0.00013603 -4.12116
2081 1 63.7749 30.3548 19.8412 3 0.0254563 -4.10472
2082 1 62.8858 30.3523 17.5021 3 0.00450872 -4.11471
2083 1 1.06622 30.3523 17.5021 3 0.00450872 -4.11471
2084 1 0.180921 30.3494 15.1655 3 0.00146478 -4.1177
2085 1 2.6537 30.3494 15.1655 3 0.00146478 -4.1177
2086 1 1.76939 30.3469 12.8307 3 0.000661326 -4.11905
2087 1 4.24217 30.3469 12.8307 3 0.000661326 -4.11905
2088 1 3.35829 30.3448 10.497 3 0.000372786 -4.11979
2089 1 5.83107 30.3448 10.497 3 0.000372786 -4.11979
2090 1 4.94736 30.343 8.16388 3 0.000246692 -4.12024
2091 1 7.42015 30.343 8.16388 3 0.000246692 -4.12024
2092 1 6.53649 30.3417 5.83113 3 0.00018524 -4.12051
2093 1 9.00928 30.3417 5.83113 3 0.00018524 -4.12051
2094 1 8.12563 30.3408 3.4986 3 0.000154623 -4.12067
2095 1 10.5984 30.3408 3.4986 3 0.000154623 -4.12067
2096 1 9.71477 30.3403 1.16619 3 0.000141586 -4.12074
2097 1 12.1876 30.3403 1.16619 3 0.000141586 -4.12074
2098 1 0.0148422 28.2786 23.3294 3 0.0799124 -4.03666
2099 1 63.1851 28.3262 21.0255 3 0.04025 -4.10128
2100 1 1.36555 28.3262 21.0255 3 0.04025 -4.10128
2101 1 0.396053 28.3349 18.694 3 0.00787771 -4.1127
2102 1 2.86884 28.3349 18.694 3 0.00787771 -4.1127
2103 1 1.94568 28.3332 16.3548 3 0.00219322 -4.11591
2104 1 4.41846 28.3332 16.3548 3 0.00219322 -4.11591
2105 1 3.51137 28.3302 14.0157 3 0.000890241 -4.11774
2106 1 5.98416 28.3302 14.0157 3 0.000890241 -4.11774
2107 1 5.08428 28.3274 11.6777 3 0.000456136 -4.11879
2108 1 7.55706 28.3274 11.6777 3 0.000456136 -4.11879
2109 1 6.66099 28.3251 9.34094 3 0.000275951 -4.11942
2110 1 9.13378 28.3251 9.34094 3 0.000275951 -4.11942
2111 1 8.23988 28.3233 7.00503 3 0.000191447 -4.11982
2112 1 10.7127 28.3233 7.00503 3 0.000191447 -4.11982
2113 1 9.82004 28.3219 4.66972 3 0.000149472 -4.12007
2114 1 12.2928 28.3219 4.66972 3 0.000149472 -4.12007
2115 1 11.4009 28.3211 2.33477 3 0.000129519 -4.1202
2116 1 13.8737 28.3211 2.33477 3 0.000129519 -4.1202
2117 1 12.9821 28.3209 4.61118e-09 3 0.000123538 -4.12024
2118 1 15.4549 28.3209 4.60288e-09 3 0.000123538 -4.12024
2119 1 0.469578 26.2669 26.7934 3 0.00997197 -4.09174
2120 1 63.6742 26.2457 24.4793 3 0.0166214 -4.08223
2121 1 1.85459 26.2457 24.4793 3 0.0166214 -4.08223
2122 1 0.766815 26.2669 22.1652 3 0.00997198 -4.09174
2123 1 3.2396 26.2669 22.1652 3 0.00997198 -4.09174
2124 1 2.21147 26.3002 19.8559 3 0.00637848 -4.10946
2125 1 4.68425 26.3002 19.8559 3 0.00637848 -4.10946
2126 1 3.72042 26.3104 17.5287 3 0.00245828 -4.11406
2127 1 6.1932 26.3104 17.5287 3 0.00245828 -4.11406
2128 1 5.26142 26.3112 15.193 3 0.000951108 -4.11627
2129 1 7.7342 26.3112 15.193 3 0.000951108 -4.11627
2130 1 6.81756 26.3093 12.8549 3 0.000464591 -4.11763
2131 1 9.29034 26.3093 12.8549 3 0.000464591 -4.11763
2132 1 8.38157 26.307 10.5167 3 0.000271562 -4.11847
2133 1 10.8544 26.307 10.5167 3 0.000271562 -4.11847
2134 1 9.95011 26.3049 8.17893 3 0.000180367 -4.11901
2135 1 12.4229 26.3049 8.17893 3 0.000180367 -4.11901
2136 1 11.5213 26.3032 5.84167 3 0.000133537 -4.11936
2137 1 13.9941 26.3032 5.84167 3 0.000133537 -4.11936
2138 1 13.0942 26.3021 3.50483 3 0.000109496 -4.11957
2139 1 15.567 26.3021 3.50483 3 0.000109496 -4.11957
2140 1 14.6679 26.3015 1.16825 3 9.91672e-05 -4.11967
2141 1 17.1407 26.3015 1.16825 3 9.91672e-05 -4.11967
2142 1 0.681214 24.275 30.2733 3 0.00186199 -4.11259
2143 1 63.9819 24.2507 27.9568 3 0.00236274 -4.10559
2144 1 2.16232 24.2507 27.9568 3 0.00236274 -4.10559
2145 1 1.13764 24.2286 25.64 3 0.0045529 -4.09981
2146 1 3.61042 24.2286 25.64 3 0.0045529 -4.09981
2147 1 2.57154 24.2286 23.3186 3 0.0045529 -4.09981
2148 1 5.04432 24.2286 23.3186 3 0.0045529 -4.09981
2149 1 4.01964 24.2507 21.0019 3 0.00236274 -4.10559
2150 1 6.49242 24.2507 21.0019 3 0.00236274 -4.10559
2151 1 5.50075 24.275 18.6853 3 0.00186199 -4.11259
2152 1 7.97353 24.275 18.6853 3 0.00186199 -4.11259
2153 1 7.01732 24.2854 16.3584 3 0.00101185 -4.11517
2154 1 9.49011 24.2854 16.3584 3 0.00101185 -4.11517
2155 1 8.55607 24.2879 14.0248 3 0.000482604 -4.11663
2156 1 11.0289 24.2879 14.0248 3 0.000482604 -4.11663
2157 1 10.1073 24.2874 11.6882 3 0.000260539 -4.11759
2158 1 12.5801 24.2874 11.6882 3 0.000260539 -4.11759
2159 1 11.6656 24.2858 9.35054 3 0.000164011 -4.11823
2160 1 14.1384 24.2858 9.35054 3 0.000164011 -4.11823
2161 1 13.2282 24.2841 7.01272 3 0.000116216 -4.11866
2162 1 15.701 24.2841 7.01272 3 0.000116216 -4.11866
2163 1 14.7935 24.2827 4.67502 3 9.09683e-05 -4.11894
2164 1 17.2663 24.2827 4.67502 3 9.09683e-05 -4.11894
2165 1 16.3602 24.2818 2.33746 3 7.83887e-05 -4.11909
2166 1 18.833 24.2818 2.33746 3 7.83887e-05 -4.11909
2167 1 17.9277 24.2815 7.93643e-09 3 7.45992e-05 -4.11914
2168 1 20.4005 24.2815 7.93074e-09 3 7.45992e-05 -4.11914
2169 1 0.828566 22.2608 33.7722 3 0.000471623 -4.11582
2170 1 64.1707 22.2512 31.4446 3 0.000701874 -4.11412
2171 1 2.35113 22.2512 31.4446 3 0.000701874 -4.11412
2172 1 1.37887 22.2327 29.1232 3 0.000811247 -4.11062
2173 1 3.85166 22.2327 29.1232 3 0.000811247 -4.11062
2174 1 2.85912 22.2131 26.8028 3 0.00142287 -4.10738
2175 1 5.3319 22.2131 26.8028 3 0.00142287 -4.10738
2176 1 4.32737 22.2049 24.4793 3 0.00172072 -4.10623
2177 1 6.80016 22.2049 24.4793 3 0.00172072 -4.10623
2178 1 5.79562 22.2131 22.1558 3 0.00142287 -4.10738
2179 1 8.26841 22.2131 22.1558 3 0.00142287 -4.10738
2180 1 7.27587 22.2327 19.8354 3 0.000811247 -4.11062
2181 1 9.74865 22.2327 19.8354 3 0.000811247 -4.11062
2182 1 8.7764 22.2512 17.514 3 0.000701874 -4.11412
2183 1 11.2492 22.2512 17.514 3 0.000701874 -4.11412
2184 1 10.299 22.2608 15.1864 3 0.000471623 -4.11582
2185 1 12.7717 22.2608 15.1864 3 0.000471623 -4.11582
2186 1 11.8373 22.2642 12.8538 3 0.000266141 -4.11685
2187 1 14.31 22.2642 12.8538 3 0.000266141 -4.11685
2188 1 13.3854 22.2646 10.5183 3 0.000157093 -4.11755
2189 1 15.8582 22.2646 10.5183 3 0.000157093 -4.11755
2190 1 14.9397 22.2637 8.18147 3 0.000104555 -4.11804
2191 1 17.4125 22.2637 8.18147 3 0.000104555 -4.11804
2192 1 16.4977 22.2625 5.84407 3 7.79181e-05 -4.11836
2193 1 18.9705 22.2625 5.84407 3 7.79181e-05 -4.11836
2194 1 18.058 22.2615 3.50648 3 6.41046e-05 -4.11857
2195 1 20.5308 22.2615 3.50648 3 6.41046e-05 -4.11857
2196 1 19.6195 22.261 1.16883 3 5.81635e-05 -4.11867
2197 1 22.0923 22.261 1.16883 3 5.81635e-05 -4.11867
2198 1 0.963994 20.2403 37.2769 3 0.000154051 -4.11696
2199 1 0.0294873 20.2367 34.9447 3 0.000237837 -4.1162
2200 1 2.50227 20.2367 34.9447 3 0.000237837 -4.1162
2201 1 1.55637 20.2283 32.6161 3 0.000309047 -4.11501
2202 1 4.02915 20.2283 32.6161 3 0.000309047 -4.11501
2203 1 3.06857 20.2138 30.2916 3 0.000342001 -4.11299
2204 1 5.54135 20.2138 30.2916 3 0.000342001 -4.11299
2205 1 4.56719 20.1974 27.9681 3 0.000541395 -4.11102
2206 1 7.03997 20.1974 27.9681 3 0.000541395 -4.11102
2207 1 6.05689 20.1865 25.6426 3 0.000695882 -4.1099
2208 1 8.52967 20.1865 25.6426 3 0.000695882 -4.1099
2209 1 7.54342 20.1865 23.316 3 0.000695882 -4.1099
2210 1 10.0162 20.1865 23.316 3 0.000695882 -4.1099
2211 1 9.03312 20.1974 20.9906 3 0.000541395 -4.11102
2212 1 11.5059 20.1974 20.9906 3 0.000541395 -4.11102
2213 1 10.5317 20.2138 18.667 3 0.000342001 -4.11299
2214 1 13.0045 20.2138 18.667 3 0.000342001 -4.11299
2215 1 12.0439 20.2283 16.3425 3 0.000309047 -4.11501
2216 1 14.5167 20.2283 16.3425 3 0.000309047 -4.11501
2217 1 13.5708 20.2367 14.014 3 0.000237836 -4.1162
2218 1 16.0436 20.2367 14.014 3 0.000237836 -4.1162
2219 1 15.1091 20.2403 11.6818 3 0.000154051 -4.11696
2220 1 17.5819 20.2403 11.6818 3 0.000154051 -4.11696
2221 1 16.6551 20.2412 9.34714 3 9.97795e-05 -4.11749
2222 1 19.1279 20.2412 9.34714 3 9.97795e-05 -4.11749
2223 1 18.2062 20.2409 7.01111 3 7.05627e-05 -4.11786
2224 1 20.679 20.2409 7.01111 3 7.05627e-05 -4.11786
2225 1 19.7603 20.2402 4.67436 3 5.54392e-05 -4.1181
2226 1 22.2331 20.2402 4.67436 3 5.54392e-05 -4.1181
2227 1 21.3164 20.2396 2.33725 3 4.80558e-05 -4.11824
2228 1 23.7892 20.2396 2.33725 3 4.80558e-05 -4.11824
2229 1 22.8733 20.2394 7.64768e-09 3 4.58252e-05 -4.11829
2230 1 25.346 20.2394 7.65434e-09 3 4.58252e-05 -4.11829
2231 1 1.10034 18.2172 40.7829 3 6.57171e-05 -4.11742
2232 1 0.171837 18.216 38.4489 3 9.22624e-05 -4.11701
2233 1 2.64462 18.216 38.4489 3 9.22624e-05 -4.11701
2234 1 1.71009 18.2126 36.1169 3 0.000127291 -4.11643
2235 1 4.18287 18.2126 36.1169 3 0.000127291 -4.11643
2236 1 3.23995 18.2056 33.7876 3 0.000151781 -4.11557
2237 1 5.71273 18.2056 33.7876 3 0.000151781 -4.11557
2238 1 4.75957 18.1942 31.4609 3 0.000165317 -4.11428
2239 1 7.23235 18.1942 31.4609 3 0.000165317 -4.11428
2240 1 6.26961 18.1808 29.135 3 0.000239462 -4.11297
2241 1 8.74239 18.1808 29.135 3 0.000239462 -4.11297
2242 1 7.77294 18.1699 26.8079 3 0.000309455 -4.11207
2243 1 10.2457 18.1699 26.8079 3 0.000309455 -4.11207
2244 1 9.27294 18.1658 24.4793 3 0.000334306 -4.11174
2245 1 11.7457 18.1658 24.4793 3 0.000334306 -4.11174
2246 1 10.7729 18.1699 22.1507 3 0.000309455 -4.11207
2247 1 13.2457 18.1699 22.1507 3 0.000309455 -4.11207
2248 1 12.2763 18.1808 19.8236 3 0.000239462 -4.11297
2249 1 14.7491 18.1808 19.8236 3 0.000239462 -4.11297
2250 1 13.7863 18.1942 17.4978 3 0.000165317 -4.11428
2251 1 16.2591 18.1942 17.4978 3 0.000165317 -4.11428
2252 1 15.3059 18.2056 15.171 3 0.000151781 -4.11557
2253 1 17.7787 18.2056 15.171 3 0.000151781 -4.11557
2254 1 16.8358 18.2126 12.8417 3 0.000127292 -4.11643
2255 1 19.3086 18.2126 12.8417 3 0.000127292 -4.11643
2256 1 18.374 18.216 10.5097 3 9.22624e-05 -4.11701
2257 1 20.8468 18.216 10.5097 3 9.22624e-05 -4.11701
2258 1 19.9183 18.2172 8.17577 3 6.57171e-05 -4.11742
2259 1 22.3911 18.2172 8.17577 3 6.57171e-05 -4.11742
2260 1 21.4666 18.2172 5.84054 3 4.99255e-05 -4.1177
2261 1 23.9394 18.2172 5.84054 3 4.99255e-05 -4.1177
2262 1 23.0175 18.2169 3.50458 3 4.16723e-05 -4.11787
2263 1 25.4903 18.2169 3.50458 3 4.16723e-05 -4.11787
2264 1 24.5697 18.2167 1.16823 3 3.80993e-05 -4.11796
2265 1 27.0425 18.2167 1.16823 3 3.80993e-05 -4.11796
2266 1 1.24196 16.1928 44.2882 3 3.6577e-05 -4.11754
2267 1 0.315071 16.1925 41.9537 3 4.43745e-05 -4.11733
2268 1 2.78786 16.1925 41.9537 3 4.43745e-05 -4.11733
2269 1 1.85781 16.1913 39.6204 3 5.67156e-05 -4.11702
2270 1 4.33059 16.1913 39.6204 3 5.67156e-05 -4.11702
2271 1 3.39589 16.1884 37.2886 3 7.14129e-05 -4.11657
2272 1 5.86867 16.1884 37.2886 3 7.14129e-05 -4.11657
2273 1 4.92773 16.1827 34.9586 3 8.10424e-05 -4.11593
2274 1 7.40051 16.1827 34.9586 3 8.10424e-05 -4.11593
2275 1 6.4522 16.174 32.6304 3 8.87972e-05 -4.11504
2276 1 8.92498 16.174 32.6304 3 8.87972e-05 -4.11504
2277 1 7.9697 16.1633 30.3028 3 0.000119747 -4.11412
2278 1 10.4425 16.1633 30.3028 3 0.000119747 -4.11412
2279 1 9.48205 16.1536 27.9744 3 0.000151325 -4.1134
2280 1 11.9548 16.1536 27.9744 3 0.000151325 -4.1134
2281 1 10.9915 16.1478 25.6446 3 0.000163251 -4.11301
2282 1 13.4643 16.1478 25.6446 3 0.000163251 -4.11301
2283 1 12.5 16.1478 23.3141 3 0.000163251 -4.11301
2284 1 14.9728 16.1478 23.3141 3 0.000163251 -4.11301
2285 1 14.0094 16.1536 20.9843 3 0.000151325 -4.1134
2286 1 16.4822 16.1536 20.9843 3 0.000151325 -4.1134
2287 1 15.5217 16.1633 18.6558 3 0.000119747 -4.11412
2288 1 17.9945 16.1633 18.6558 3 0.000119747 -4.11412
2289 1 17.0392 16.174 16.3282 3 8.87972e-05 -4.11504
2290 1 19.512 16.174 16.3282 3 8.87972e-05 -4.11504
2291 1 18.5637 16.1827 14 3 8.10424e-05 -4.11593
2292 1 21.0365 16.1827 14 3 8.10424e-05 -4.11593
2293 1 20.0956 16.1884 11.6701 3 7.1413e-05 -4.11657
2294 1 22.5683 16.1884 11.6701 3 7.1413e-05 -4.11657
2295 1 21.6336 16.1913 9.33825 3 5.67156e-05 -4.11702
2296 1 24.1064 16.1913 9.33825 3 5.67156e-05 -4.11702
2297 1 23.1764 16.1925 7.00489 3 4.43745e-05 -4.11733
2298 1 25.6492 16.1925 7.00489 3 4.43745e-05 -4.11733
2299 1 24.7223 16.1928 4.67046 3 3.6577e-05 -4.11754
2300 1 27.1951 16.1928 4.67046 3 3.6577e-05 -4.11754
2301 1 26.2701 16.1927 2.33538 3 3.25865e-05 -4.11766
2302 1 28.7429 16.1927 2.33538 3 3.25865e-05 -4.11766
2303 1 27.8188 16.1927 7.36457e-09 3 3.13416e-05 -4.1177
2304 1 30.2916 16.1927 7.35824e-09 3 3.13416e-05 -4.1177
2305 1 1.39091 14.1675 47.7915 3 2.60015e-05 -4.11745
2306 1 0.463126 14.1674 45.4574 3 2.74318e-05 -4.11738
2307 1 2.93591 14.1674 45.4574 3 2.74318e-05 -4.11738
2308 1 2.00677 14.167 43.1237 3 3.05819e-05 -4.11723
2309 1 4.47955 14.167 43.1237 3 3.05819e-05 -4.11723
2310 1 3.54804 14.166 40.7909 3 3.56114e-05 -4.11699
2311 1 6.02082 14.166 40.7909 3 3.56114e-05 -4.11699
2312 1 5.08579 14.1636 38.4592 3 4.15637e-05 -4.11665
2313 1 7.55857 14.1636 38.4592 3 4.15637e-05 -4.11665
2314 1 6.61888 14.1593 36.1289 3 4.62847e-05 -4.11616
2315 1 9.09167 14.1593 36.1289 3 4.62847e-05 -4.11616
2316 1 8.14658 14.1528 33.7998 3 5.23261e-05 -4.11553
2317 1 10.6194 14.1528 33.7998 3 5.23261e-05 -4.11553
2318 1 9.66909 14.1447 31.471 3 6.74147e-05 -4.11484
2319 1 12.1419 14.1447 31.471 3 6.74147e-05 -4.11484
2320 1 11.1876 14.1367 29.1415 3 8.12689e-05 -4.11426
2321 1 13.6604 14.1367 29.1415 3 8.12689e-05 -4.11426
2322 1 12.7036 14.1309 26.8109 3 8.36351e-05 -4.11388
2323 1 15.1764 14.1309 26.8109 3 8.36351e-05 -4.11388
2324 1 14.2185 14.1288 24.4793 3 8.17936e-05 -4.11375
2325 1 16.6913 14.1288 24.4793 3 8.17937e-05 -4.11375
2326 1 15.7334 14.1309 22.1477 3 8.36351e-05 -4.11388
2327 1 18.2062 14.1309 22.1477 3 8.36351e-05 -4.11388
2328 1 17.2494 14.1367 19.8171 3 8.12689e-05 -4.11426
2329 1 19.7222 14.1367 19.8171 3 8.12689e-05 -4.11426
2330 1 18.7679 14.1447 17.4876 3 6.74147e-05 -4.11484
2331 1 21.2407 14.1447 17.4876 3 6.74147e-05 -4.11484
2332 1 20.2904 14.1528 15.1588 3 5.23261e-05 -4.11553
2333 1 22.7632 14.1528 15.1588 3 5.23261e-05 -4.11553
2334 1 21.8181 14.1593 12.8297 3 4.62847e-05 -4.11616
2335 1 24.2909 14.1593 12.8297 3 4.62847e-05 -4.11616
2336 1 23.3512 14.1636 10.4994 3 4.15638e-05 -4.11665
2337 1 25.824 14.1636 10.4994 3 4.15638e-05 -4.11665
2338 1 24.889 14.166 8.16773 3 3.56115e-05 -4.11699
2339 1 27.3618 14.166 8.16773 3 3.56115e-05 -4.11699
2340 1 26.4302 14.167 5.83492 3 3.05818e-05 -4.11723
2341 1 28.903 14.167 5.83492 3 3.05818e-05 -4.11723
2342 1 27.9739 14.1674 3.50127 3 2.74318e-05 -4.11738
2343 1 30.4467 14.1674 3.50127 3 2.74318e-05 -4.11738
2344 1 29.5189 14.1675 1.16714 3 2.60015e-05 -4.11745
2345 1 31.9917 14.1675 1.16714 3 2.60015e-05 -4.11745
2346 1 2.16048 12.1411 46.6254 3 2.08718e-05 -4.11721
2347 1 4.63327 12.1411 46.6254 3 2.08718e-05 -4.11721
2348 1 3.70196 12.1407 44.2926 3 2.14783e-05 -4.11711
2349 1 6.17474 12.1407 44.2926 3 2.14783e-05 -4.11711
2350 1 5.24176 12.1399 41.9603 3 2.27765e-05 -4.11694
2351 1 7.71455 12.1399 41.9603 3 2.27765e-05 -4.11694
2352 1 6.779 12.1382 39.6288 3 2.48704e-05 -4.11668
2353 1 9.25179 12.1382 39.6288 3 2.48704e-05 -4.11668
2354 1 8.31282 12.1352 37.2983 3 2.80027e-05 -4.11632
2355 1 10.7856 12.1352 37.2983 3 2.80027e-05 -4.11632
2356 1 9.84267 12.1306 34.9685 3 3.3698e-05 -4.11585
2357 1 12.3155 12.1306 34.9685 3 3.3698e-05 -4.11585
2358 1 11.3686 12.1249 32.6389 3 4.29304e-05 -4.11534
2359 1 13.8414 12.1249 32.6389 3 4.29304e-05 -4.11534
2360 1 12.8914 12.1189 30.3088 3 4.8972e-05 -4.11486
2361 1 15.3642 12.1189 30.3088 3 4.8972e-05 -4.11486
2362 1 14.4121 12.114 27.9776 3 4.63183e-05 -4.1145
2363 1 16.8849 12.114 27.9776 3 4.63183e-05 -4.1145
2364 1 15.9317 12.1112 25.6455 3 4.04781e-05 -4.11431
2365 1 18.4045 12.1112 25.6455 3 4.04781e-05 -4.11431
2366 1 17.4509 12.1112 23.3131 3 4.04781e-05 -4.11431
2367 1 19.9237 12.1112 23.3131 3 4.04781e-05 -4.11431
2368 1 18.9705 12.114 20.981 3 4.63182e-05 -4.1145
2369 1 21.4433 12.114 20.981 3 4.63183e-05 -4.1145
2370 1 20.4912 12.1189 18.6499 3 4.8972e-05 -4.11486
2371 1 22.9639 12.1189 18.6499 3 4.8972e-05 -4.11486
2372 1 22.014 12.1249 16.3197 3 4.29304e-05 -4.11534
2373 1 24.4867 12.1249 16.3197 3 4.29304e-05 -4.11534
2374 1 23.5399 12.1306 13.9902 3 3.36981e-05 -4.11585
2375 1 26.0127 12.1306 13.9902 3 3.36981e-05 -4.11585
2376 1 25.0698 12.1352 11.6604 3 2.80028e-05 -4.11632
2377 1 27.5425 12.1352 11.6604 3 2.80028e-05 -4.11632
2378 1 26.6036 12.1382 9.32983 3 2.48705e-05 -4.11668
2379 1 29.0764 12.1382 9.32983 3 2.48705e-05 -4.11668
2380 1 28.1408 12.1399 6.99836 3 2.27765e-05 -4.11694
2381 1 30.6136 12.1399 6.99836 3 2.27765e-05 -4.11694
2382 1 29.6806 12.1407 4.66607 3 2.14783e-05 -4.11711
2383 1 32.1534 12.1407 4.66607 3 2.14783e-05 -4.11711
2384 1 31.2221 12.1411 2.33318 3 2.08718e-05 -4.11721
2385 1 33.6949 12.1411 2.33318 3 2.08718e-05 -4.11721
2386 1 32.7644 12.1412 6.12757e-09 3 2.06877e-05 -4.11724
2387 1 35.2372 12.1412 6.36194e-09 3 2.06877e-05 -4.11724
2388 1 3.86081 10.1138 47.7925 3 1.59529e-05 -4.11702
2389 1 6.33359 10.1138 47.7925 3 1.59529e-05 -4.11702
2390 1 5.40013 10.1136 45.4603 3 1.54783e-05 -4.11697
2391 1 7.87291 10.1136 45.4603 3 1.54783e-05 -4.11697
2392 1 6.9384 10.1131 43.1284 3 1.49876e-05 -4.11685
2393 1 9.41119 10.1131 43.1284 3 1.49876e-05 -4.11685
2394 1 8.47493 10.1119 40.7971 3 1.53535e-05 -4.11667
2395 1 10.9477 10.1119 40.7971 3 1.53535e-05 -4.11667
2396 1 10.0091 10.1101 38.4664 3 1.79658e-05 -4.11641
2397 1 12.4818 10.1101 38.4664 3 1.79658e-05 -4.11641
2398 1 11.5403 10.1072 36.1361 3 2.37569e-05 -4.11607
2399 1 14.0131 10.1072 36.1361 3 2.37569e-05 -4.11607
2400 1 13.0687 10.1037 33.806 3 3.09937e-05 -4.11568
2401 1 15.5415 10.1037 33.806 3 3.09937e-05 -4.11568
2402 1 14.5946 10.0998 31.4755 3 3.39978e-05 -4.11529
2403 1 17.0674 10.0998 31.4755 3 3.39978e-05 -4.11529
2404 1 16.1187 10.0963 29.1441 3 2.94959e-05 -4.11497
2405 1 18.5915 10.0963 29.1441 3 2.94958e-05 -4.11497
2406 1 17.6416 10.0939 26.812 3 2.15714e-05 -4.11475
2407 1 20.1144 10.0939 26.812 3 2.15714e-05 -4.11475
2408 1 19.1641 10.0931 24.4793 3 1.77539e-05 -4.11468
2409 1 21.6369 10.0931 24.4793 3 1.77539e-05 -4.11468
2410 1 20.6865 10.0939 22.1466 3 2.15714e-05 -4.11475
2411 1 23.1593 10.0939 22.1466 3 2.15714e-05 -4.11475
2412 1 22.2095 10.0963 19.8145 3 2.94958e-05 -4.11497
2413 1 24.6823 10.0963 19.8145 3 2.94958e-05 -4.11497
2414 1 23.7335 10.0998 17.4832 3 3.39978e-05 -4.11529
2415 1 26.2063 10.0998 17.4832 3 3.39978e-05 -4.11529
2416 1 25.2594 10.1037 15.1526 3 3.09937e-05 -4.11568
2417 1 27.7322 10.1037 15.1526 3 3.09937e-05 -4.11568
2418 1 26.7878 10.1072 12.8225 3 2.37569e-05 -4.11607
2419 1 29.2606 10.1072 12.8225 3 2.37569e-05 -4.11607
2420 1 28.3191 10.1101 10.4922 3 1.79658e-05 -4.11641
2421 1 30.7919 10.1101 10.4922 3 1.79658e-05 -4.11641
2422 1 29.8532 10.1119 8.16153 3 1.53536e-05 -4.11667
2423 1 32.326 10.1119 8.16153 3 1.53536e-05 -4.11667
2424 1 31.3898 10.1131 5.83022 3 1.49876e-05 -4.11685
2425 1 33.8625 10.1131 5.83022 3 1.49876e-05 -4.11685
2426 1 32.928 10.1136 3.49837 3 1.54783e-05 -4.11697
2427 1 35.4008 10.1136 3.49837 3 1.54783e-05 -4.11697
2428 1 34.4673 10.1138 1.16616 3 1.59529e-05 -4.11702
2429 1 36.9401 10.1138 1.16616 3 1.59529e-05 -4.11702
2430 1 7.10091 8.0857 46.627 3 1.16e-05 -4.11731
2431 1 9.5737 8.0857 46.627 3 1.16e-05 -4.11731
2432 1 8.63754 8.08542 44.2954 3 1.05633e-05 -4.11722
2433 1 11.1103 8.08542 44.2954 3 1.05633e-05 -4.11722
2434 1 10.1731 8.08489 41.9642 3 1.03533e-05 -4.11706
2435 1 12.6459 8.08489 41.9642 3 1.03532e-05 -4.11706
2436 1 11.7072 8.084 39.6332 3 1.28943e-05 -4.11683
2437 1 14.18 8.084 39.6332 3 1.28943e-05 -4.11683
2438 1 13.2393 8.0827 37.3025 3 1.88848e-05 -4.11652
2439 1 15.7121 8.0827 37.3025 3 1.88848e-05 -4.11652
2440 1 14.7694 8.08102 34.9719 3 2.55864e-05 -4.11616
2441 1 17.2422 8.08102 34.9719 3 2.55864e-05 -4.11616
2442 1 16.2976 8.07917 32.641 3 2.77711e-05 -4.11577
2443 1 18.7704 8.07917 32.641 3 2.77711e-05 -4.11577
2444 1 17.8242 8.07741 30.3097 3 2.32112e-05 -4.11542
2445 1 20.297 8.07741 30.3097 3 2.32112e-05 -4.11542
2446 1 19.3497 8.07606 27.9778 3 1.53105e-05 -4.11515
2447 1 21.8225 8.07606 27.9778 3 1.53105e-05 -4.11515
2448 1 20.8746 8.07532 25.6455 3 9.6003e-06 -4.115
2449 1 23.3473 8.07532 25.6455 3 9.6003e-06 -4.115
2450 1 22.3992 8.07532 23.3131 3 9.60026e-06 -4.115
2451 1 24.872 8.07532 23.3131 3 9.6003e-06 -4.115
2452 1 23.924 8.07606 20.9808 3 1.53105e-05 -4.11515
2453 1 26.3968 8.07606 20.9808 3 1.53105e-05 -4.11515
2454 1 25.4495 8.07741 18.6489 3 2.32112e-05 -4.11542
2455 1 27.9223 8.07741 18.6489 3 2.32112e-05 -4.11542
2456 1 26.9761 8.07917 16.3176 3 2.77711e-05 -4.11577
2457 1 29.4489 8.07917 16.3176 3 2.77711e-05 -4.11577
2458 1 28.5043 8.08102 13.9867 3 2.55865e-05 -4.11616
2459 1 30.9771 8.08102 13.9867 3 2.55864e-05 -4.11616
2460 1 30.0344 8.0827 11.6561 3 1.88849e-05 -4.11652
2461 1 32.5072 8.0827 11.6561 3 1.88849e-05 -4.11652
2462 1 31.5666 8.084 9.3254 3 1.28943e-05 -4.11683
2463 1 34.0393 8.084 9.3254 3 1.28943e-05 -4.11683
2464 1 33.1006 8.08489 6.99446 3 1.03533e-05 -4.11706
2465 1 35.5734 8.08489 6.99446 3 1.03533e-05 -4.11706
2466 1 34.6362 8.08542 4.66319 3 1.05633e-05 -4.11722
2467 1 37.109 8.08542 4.66319 3 1.05633e-05 -4.11722
2468 1 36.1728 8.0857 2.33167 3 1.16e-05 -4.11731
2469 1 38.6456 8.0857 2.33167 3 1.16e-05 -4.11731
2470 1 37.71 8.08578 3.20744e-09 3 1.20964e-05 -4.11734
2471 1 40.1827 8.08578 3.21596e-09 3 1.20963e-05 -4.11734
2472 1 8.80406 6.05706 47.7929 3 0.000192152 -4.11661
2473 1 11.2768 6.05706 47.7929 3 0.000192152 -4.11661
2474 1 10.3389 6.05706 45.4616 3 0.000190055 -4.11656
2475 1 12.8117 6.05706 45.4616 3 0.000190055 -4.11656
2476 1 11.8733 6.05706 43.1302 3 0.000182136 -4.11648
2477 1 14.346 6.05706 43.1302 3 0.000182135 -4.11648
2478 1 13.4068 6.05706 40.7989 3 0.000163309 -4.11634
2479 1 15.8796 6.05706 40.7989 3 0.000163309 -4.11634
2480 1 14.9393 6.05706 38.4675 3 0.000131568 -4.11616
2481 1 17.4121 6.05706 38.4675 3 0.000131568 -4.11616
2482 1 16.4706 6.05706 36.1361 3 9.19268e-05 -4.11595
2483 1 18.9433 6.05706 36.1361 3 9.19266e-05 -4.11595
2484 1 18.0005 6.05706 33.8048 3 5.4706e-05 -4.11573
2485 1 20.4733 6.05706 33.8048 3 5.47059e-05 -4.11573
2486 1 19.5292 6.05706 31.4734 3 2.81608e-05 -4.11553
2487 1 22.0019 6.05706 31.4734 3 2.81608e-05 -4.11553
2488 1 21.0567 6.05706 29.142 3 1.34712e-05 -4.11537
2489 1 23.5295 6.05706 29.142 3 1.34712e-05 -4.11537
2490 1 22.5834 6.05706 26.8107 3 7.01601e-06 -4.11526
2491 1 25.0562 6.05706 26.8107 3 7.01602e-06 -4.11526
2492 1 24.1096 6.05706 24.4793 3 5.26906e-06 -4.11523
2493 1 26.5824 6.05706 24.4793 3 5.26906e-06 -4.11523
2494 1 25.6359 6.05706 22.1479 3 7.01613e-06 -4.11526
2495 1 28.1087 6.05706 22.1479 3 7.01611e-06 -4.11526
2496 1 27.1626 6.05706 19.8166 3 1.34715e-05 -4.11537
2497 1 29.6354 6.05706 19.8166 3 1.34715e-05 -4.11537
2498 1 28.6901 6.05706 17.4852 3 2.81612e-05 -4.11553
2499 1 31.1629 6.05706 17.4852 3 2.81613e-05 -4.11553
2500 1 30.2188 6.05706 15.1539 3 5.47065e-05 -4.11573
2501 1 32.6916 6.05706 15.1539 3 5.47064e-05 -4.11573
2502 1 31.7487 6.05706 12.8225 3 9.19271e-05 -4.11595
2503 1 34.2215 6.05706 12.8225 3 9.19272e-05 -4.11595
2504 1 33.28 6.05706 10.4911 3 0.000131569 -4.11616
2505 1 35.7528 6.05706 10.4911 3 0.000131568 -4.11616
2506 1 34.8125 6.05706 8.15977 3 0.000163309 -4.11634
2507 1 37.2853 6.05706 8.15977 3 0.000163309 -4.11634
2508 1 36.346 6.05706 5.82841 3 0.000182136 -4.11648
2509 1 38.8188 6.05706 5.82841 3 0.000182136 -4.11648
2510 1 37.8804 6.05706 3.49704 3 0.000190055 -4.11656
2511 1 40.3532 6.05706 3.49704 3 0.000190055 -4.11656
2512 1 39.4152 6.05706 1.16568 3 0.000192152 -4.11661
2513 1 41.888 6.05706 1.16568 3 0.000192152 -4.11661
2514 1 12.0434 4.03804 46.6273 3 1.41686e-06 -4.11576
2515 1 14.5162 4.03804 46.6273 3 1.41686e-06 -4.11576
2516 1 13.5771 4.03804 44.2959 3 1.43102e-06 -4.11573
2517 1 16.0499 4.03804 44.2959 3 1.43103e-06 -4.11573
2518 1 15.1104 4.03804 41.9645 3 1.4541e-06 -4.11568
2519 1 17.5832 4.03804 41.9645 3 1.45409e-06 -4.11568
2520 1 16.6429 4.03804 39.6332 3 1.48587e-06 -4.11564
2521 1 19.1157 4.03804 39.6332 3 1.48585e-06 -4.11564
2522 1 18.1745 4.03804 37.3018 3 1.52673e-06 -4.11559
2523 1 20.6473 4.03804 37.3018 3 1.52674e-06 -4.11559
2524 1 19.7051 4.03804 34.9704 3 1.57732e-06 -4.11556
2525 1 22.1779 4.03804 34.9704 3 1.57732e-06 -4.11556
2526 1 21.2347 4.03804 32.6391 3 1.63656e-06 -4.11554
2527 1 23.7075 4.03804 32.6391 3 1.63656e-06 -4.11554
2528 1 22.7634 4.03804 30.3077 3 1.69895e-06 -4.11552
2529 1 25.2362 4.03804 30.3077 3 1.69894e-06 -4.11552
2530 1 24.2914 4.03804 27.9764 3 1.75327e-06 -4.11552
2531 1 26.7641 4.03804 27.9764 3 1.75327e-06 -4.11552
2532 1 25.8188 4.03804 25.645 3 1.78548e-06 -4.11551
2533 1 28.2916 4.03804 25.645 3 1.78548e-06 -4.11551
2534 1 27.3461 4.03804 23.3136 3 1.7855e-06 -4.11551
2535 1 29.8188 4.03804 23.3136 3 1.78548e-06 -4.11551
2536 1 28.8735 4.03804 20.9823 3 1.75326e-06 -4.11552
2537 1 31.3463 4.03804 20.9823 3 1.75326e-06 -4.11552
2538 1 30.4014 4.03804 18.6509 3 1.69894e-06 -4.11552
2539 1 32.8742 4.03804 18.6509 3 1.69894e-06 -4.11552
2540 1 31.9301 4.03804 16.3195 3 1.63656e-06 -4.11554
2541 1 34.4029 4.03804 16.3195 3 1.63656e-06 -4.11554
2542 1 33.4597 4.03804 13.9882 3 1.57732e-06 -4.11556
2543 1 35.9325 4.03804 13.9882 3 1.57729e-06 -4.11556
2544 1 34.9903 4.03804 11.6568 3 1.52674e-06 -4.11559
2545 1 37.4631 4.03804 11.6568 3 1.52672e-06 -4.11559
2546 1 36.5219 4.03804 9.32545 3 1.48585e-06 -4.11564
2547 1 38.9947 4.03804 9.32545 3 1.48587e-06 -4.11564
2548 1 38.0545 4.03804 6.99409 3 1.45407e-06 -4.11568
2549 1 40.5272 4.03804 6.99409 3 1.4541e-06 -4.11568
2550 1 39.5877 4.03804 4.66273 3 1.43103e-06 -4.11573
2551 1 42.0605 4.03804 4.66273 3 1.43101e-06 -4.11573
2552 1 41.1215 4.03804 2.33136 3 1.41686e-06 -4.11576
2553 1 43.5943 4.03804 2.33136 3 1.41684e-06 -4.11576
2554 1 42.6555 4.03804 0 3 1.41204e-06 -4.11577
2555 1 45.1283 4.03804 0 3 1.41207e-06 -4.11577
2556 1 13.7488 2.01902 47.7929 3 8.63883e-07 -4.10005
2557 1 16.2216 2.01902 47.7929 3 8.63883e-07 -4.10005
2558 1 15.282 2.01902 45.4616 3 8.67506e-07 -4.10002
2559 1 17.7548 2.01902 45.4616 3 8.67515e-07 -4.10002
2560 1 16.8149 2.01902 43.1302 3 8.74829e-07 -4.09998
2561 1 19.2877 2.01902 43.1302 3 8.74829e-07 -4.09998
2562 1 18.3474 2.01902 40.7989 3 8.86012e-07 -4.09991
2563 1 20.8201 2.01902 40.7989 3 8.86011e-07 -4.09991
2564 1 19.8791 2.01902 38.4675 3 9.01619e-07 -4.09983
2565 1 22.3519 2.01902 38.4675 3 9.01604e-07 -4.09983
2566 1 21.4101 2.01902 36.1361 3 9.22383e-07 -4.09974
2567 1 23.8829 2.01902 36.1361 3 9.22398e-07 -4.09974
2568 1 22.9404 2.01902 33.8048 3 9.48475e-07 -4.09964
2569 1 25.4132 2.01902 33.8048 3 9.48463e-07 -4.09964
2570 1 24.4699 2.01902 31.4734 3 9.78174e-07 -4.09956
2571 1 26.9427 2.01902 31.4734 3 9.78191e-07 -4.09956
2572 1 25.9987 2.01902 29.142 3 1.00713e-06 -4.09949
2573 1 28.4715 2.01902 29.142 3 1.00711e-06 -4.09949
2574 1 27.5271 2.01902 26.8107 3 1.02868e-06 -4.09945
2575 1 29.9999 2.01902 26.8107 3 1.02868e-06 -4.09945
2576 1 29.0552 2.01902 24.4793 3 1.03671e-06 -4.09944
2577 1 31.528 2.01902 24.4793 3 1.03673e-06 -4.09944
2578 1 30.5833 2.01902 22.1479 3 1.02867e-06 -4.09945
2579 1 33.0561 2.01902 22.1479 3 1.02868e-06 -4.09945
2580 1 32.1117 2.01902 19.8166 3 1.00712e-06 -4.09949
2581 1 34.5845 2.01902 19.8166 3 1.00711e-06 -4.09949
2582 1 33.6405 2.01902 17.4852 3 9.78204e-07 -4.09956
2583 1 36.1133 2.01902 17.4852 3 9.78191e-07 -4.09956
2584 1 35.17 2.01902 15.1539 3 9.48478e-07 -4.09964
2585 1 37.6428 2.01902 15.1539 3 9.48475e-07 -4.09964
2586 1 36.7003 2.01902 12.8225 3 9.22375e-07 -4.09974
2587 1 39.1731 2.01902 12.8225 3 9.22383e-07 -4.09974
2588 1 38.2313 2.01902 10.4911 3 9.01623e-07 -4.09983
2589 1 40.7041 2.01902 10.4911 3 9.01608e-07 -4.09983
2590 1 39.7631 2.01902 8.15977 3 8.86025e-07 -4.09991
2591 1 42.2359 2.01902 8.15977 3 8.85998e-07 -4.09991
2592 1 41.2955 2.01902 5.82841 3 8.74829e-07 -4.09998
2593 1 43.7683 2.01902 5.82841 3 8.74829e-07 -4.09998
2594 1 42.8284 2.01902 3.49704 3 8.67497e-07 -4.10002
2595 1 45.3012 2.01902 3.49704 3 8.67521e-07 -4.10002
2596 1 44.3616 2.01902 1.16568 3 8.63883e-07 -4.10005
2597 1 46.8344 2.01902 1.16568 3 8.63883e-07 -4.10005
2598 1 16.9876 0 46.6273 5 6.02137 -3.54885
2599 1 19.4604 0 46.6273 5 6.02137 -3.54885
2600 1 18.5202 0 44.2959 5 6.02059 -3.54884
2601 1 20.993 0 44.2959 5 6.02059 -3.54884
2602 1 20.0525 0 41.9645 5 6.01984 -3.54882
2603 1 22.5253 0 41.9645 5 6.01984 -3.54882
2604 1 21.5843 0 39.6332 5 6.0192 -3.5488
2605 1 24.0571 0 39.6332 5 6.0192 -3.5488
2606 1 23.1155 0 37.3018 5 6.01871 -3.54878
2607 1 25.5883 0 37.3018 5 6.01871 -3.54878
2608 1 24.6462 0 34.9704 5 6.01843 -3.54876
2609 1 27.119 0 34.9704 5 6.01843 -3.54876
2610 1 26.1762 0 32.6391 5 6.01838 -3.54873
2611 1 28.649 0 32.6391 5 6.01838 -3.54873
2612 1 27.7057 0 30.3077 5 6.01858 -3.54871
2613 1 30.1785 0 30.3077 5 6.01858 -3.54871
2614 1 29.2348 0 27.9764 5 6.01902 -3.5487
2615 1 31.7076 0 27.9764 5 6.01902 -3.5487
2616 1 30.7636 0 25.645 5 6.01964 -3.54869
2617 1 33.2364 0 25.645 5 6.01964 -3.54869
2618 1 32.2924 0 23.3136 5 6.01964 -3.54869
2619 1 34.7651 0 23.3136 5 6.01964 -3.54869
2620 1 33.8212 0 20.9823 5 6.01902 -3.5487
2621 1 36.2939 0 20.9823 5 6.01902 -3.5487
2622 1 35.3502 0 18.6509 5 6.01858 -3.54871
2623 1 37.823 0 18.6509 5 6.01858 -3.54871
2624 1 36.8798 0 16.3195 5 6.01838 -3.54873
2625 1 39.3525 0 16.3195 5 6.01838 -3.54873
2626 1 38.4098 0 13.9882 5 6.01843 -3.54876
2627 1 40.8826 0 13.9882 5 6.01843 -3.54876
2628 1 39.9405 0 11.6568 5 6.01871 -3.54878
2629 1 42.4133 0 11.6568 5 6.01871 -3.54878
2630 1 41.4717 0 9.32545 5 6.0192 -3.5488
2631 1 43.9445 0 9.32545 5 6.0192 -3.5488
2632 1 43.0035 0 6.99409 5 6.01984 -3.54882
2633 1 45.4763 0 6.99409 5 6.01984 -3.54882
2634 1 44.5358 0 4.66273 5 6.02059 -3.54884
2635 1 47.0086 0 4.66273 5 6.02059 -3.54884
2636 1 46.0684 0 2.33136 5 6.02137 -3.54885
2637 1 48.5411 0 2.33136 5 6.02137 -3.54885
2638 1 47.6011 0 0 5 6.02212 -3.54885
2639 1 50.0739 0 0 5 6.02212 -3.54885
2640 1 1.45947 44.4667 2.32763 3 3.16705e-05 -4.12209
2641 1 0.618196 44.4669 48.9586 3 3.02465e-05 -4.1221
2642 1 3.09098 44.4669 48.9586 3 3.02465e-05 -4.1221
2643 1 1.49225 42.4508 5.81726 3 5.21401e-05 -4.122
2644 1 0.64912 42.4513 3.4901 3 4.29685e-05 -4.12203
2645 1 3.1219 42.4513 3.4901 3 4.29685e-05 -4.12203
2646 1 2.2772 42.4514 1.16333 3 3.88216e-05 -4.12204
2647 1 4.74998 42.4514 1.16333 3 3.88216e-05 -4.12204
2648 1 1.5326 40.4336 9.306 3 0.000108536 -4.12178
2649 1 0.689839 40.4346 6.97871 3 7.80201e-05 -4.12187
2650 1 3.16262 40.4346 6.97871 3 7.80201e-05 -4.12187
2651 1 2.31626 40.4348 4.65217 3 6.06629e-05 -4.12193
2652 1 4.78904 40.4348 4.65217 3 6.06629e-05 -4.12193
2653 1 3.94052 40.4348 2.326 3 5.18024e-05 -4.12196
2654 1 6.4133 40.4348 2.326 3 5.18024e-05 -4.12196
2655 1 5.56376 40.4348 48.9586 3 4.90573e-05 -4.12197
2656 1 8.03655 40.4348 48.9586 3 4.90573e-05 -4.12197
2657 1 1.57838 38.4151 12.7954 3 0.000293667 -4.12125
2658 1 0.739586 38.4172 10.4675 3 0.000183731 -4.12151
2659 1 3.21237 38.4172 10.4675 3 0.000183731 -4.12151
2660 1 2.36664 38.4177 8.14077 3 0.00012367 -4.12167
2661 1 4.83942 38.4177 8.14077 3 0.00012367 -4.12167
2662 1 3.98927 38.4176 5.81463 3 9.07642e-05 -4.12177
2663 1 6.46205 38.4176 5.81463 3 9.07642e-05 -4.12177
2664 1 5.60917 38.4173 3.48873 3 7.3238e-05 -4.12182
2665 1 8.08195 38.4173 3.48873 3 7.3238e-05 -4.12182
2666 1 7.22758 38.4171 1.16291 3 6.55492e-05 -4.12185
2667 1 9.70036 38.4171 1.16291 3 6.55492e-05 -4.12185
2668 1 1.62414 36.3945 16.2875 3 0.00114061 -4.1196
2669 1 0.797141 36.3992 13.9581 3 0.000598223 -4.12049
2670 1 3.26992 36.3992 13.9581 3 0.000598223 -4.12049
2671 1 2.42872 36.4004 11.631 3 0.00033351 -4.12101
2672 1 4.9015 36.4004 11.631 3 0.00033351 -4.12101
2673 1 4.05183 36.4003 9.30478 3 0.000206702 -4.12131
2674 1 6.52461 36.4003 9.30478 3 0.000206702 -4.12131
2675 1 5.66975 36.3997 6.97872 3 0.000142159 -4.1215
2676 1 8.14254 36.3997 6.97872 3 0.000142159 -4.1215
2677 1 7.28448 36.399 4.65258 3 0.000108355 -4.12161
2678 1 9.75726 36.399 4.65258 3 0.000108355 -4.12161
2679 1 8.89734 36.3986 2.32633 3 9.18568e-05 -4.12168
2680 1 11.3701 36.3986 2.32633 3 9.18568e-05 -4.12168
2681 1 10.5093 36.3984 2.29457e-09 3 8.69562e-05 -4.12169
2682 1 12.9821 36.3984 2.29853e-09 3 8.69562e-05 -4.12169
2683 1 1.64896 34.3684 19.7862 3 0.00841238 -4.11182
2684 1 0.859244 34.3799 17.4528 3 0.00346242 -4.11633
2685 1 3.33203 34.3799 17.4528 3 0.00346242 -4.11633
2686 1 2.50434 34.383 15.1253 3 0.00135468 -4.11886
2687 1 4.97713 34.383 15.1253 3 0.00135468 -4.11886
2688 1 4.13108 34.3831 12.7991 3 0.000630913 -4.12007
2689 1 6.60387 34.3831 12.7991 3 0.000630913 -4.12007
2690 1 5.74819 34.3823 10.4728 3 0.00034635 -4.12071
2691 1 8.22098 34.3823 10.4728 3 0.00034635 -4.12071
2692 1 7.35978 34.3813 8.14609 3 0.000219406 -4.12107
2693 1 9.83256 34.3813 8.14609 3 0.000219406 -4.12107
2694 1 8.96806 34.3803 5.81895 3 0.000158073 -4.12129
2695 1 11.4408 34.3803 5.81895 3 0.000158073 -4.12129
2696 1 10.5744 34.3796 3.49149 3 0.000127924 -4.12141
2697 1 13.0472 34.3796 3.49149 3 0.000127924 -4.12141
2698 1 12.1796 34.3792 1.16385 3 0.000115414 -4.12147
2699 1 14.6524 34.3792 1.16385 3 0.000115414 -4.12147
2700 1 1.41751 32.3521 23.3123 5 5.31346 -4.04848
2701 1 0.90818 32.3588 20.9581 3 0.140712 -4.0469
2702 1 3.38096 32.3588 20.9581 3 0.140712 -4.0469
2703 1 2.60302 32.3659 18.6294 3 0.0128667 -4.10575
2704 1 5.0758 32.3659 18.6294 3 0.0128667 -4.10575
2705 1 4.23752 32.3668 16.3031 3 0.00296101 -4.11528
2706 1 6.7103 32.3668 16.3031 3 0.00296101 -4.11528
2707 1 5.85258 32.3657 13.9758 3 0.00106837 -4.11841
2708 1 8.32536 32.3657 13.9758 3 0.00106837 -4.11841
2709 1 7.45926 32.3642 11.6475 3 0.00051239 -4.11977
2710 1 9.93205 32.3642 11.6475 3 0.00051239 -4.11977
2711 1 9.06163 32.3628 9.31858 3 0.00030275 -4.12045
2712 1 11.5344 32.3628 9.31858 3 0.00030275 -4.12045
2713 1 10.6615 32.3615 6.98921 3 0.000209208 -4.12082
2714 1 13.1343 32.3615 6.98921 3 0.000209208 -4.12082
2715 1 12.26 32.3605 4.65959 3 0.000163749 -4.12102
2716 1 14.7328 32.3605 4.65959 3 0.000163749 -4.12102
2717 1 13.8576 32.3599 2.32983 3 0.000142377 -4.12113
2718 1 16.3304 32.3599 2.32983 3 0.000142377 -4.12113
2719 1 15.4549 32.3597 2.87833e-09 3 0.00013603 -4.12116
2720 1 17.9277 32.3597 2.88576e-09 3 0.00013603 -4.12116
2721 1 0.822116 30.3458 26.7868 5 7.69492 -4.05571
2722 1 63.6742 30.3079 24.4793 5 2.29704 -3.99361
2723 1 1.85459 30.3079 24.4793 5 2.29704 -3.99361
2724 1 0.414276 30.3458 22.1719 5 7.69492 -4.05571
2725 1 2.88706 30.3458 22.1719 5 7.69492 -4.05571
2726 1 1.9553 30.3548 19.8412 3 0.0254563 -4.10472
2727 1 4.42809 30.3548 19.8412 3 0.0254563 -4.10472
2728 1 3.53901 30.3523 17.5021 3 0.00450872 -4.11471
2729 1 6.01179 30.3523 17.5021 3 0.00450872 -4.11471
2730 1 5.12649 30.3494 15.1655 3 0.00146478 -4.1177
2731 1 7.59927 30.3494 15.1655 3 0.00146478 -4.1177
2732 1 6.71495 30.3469 12.8307 3 0.000661326 -4.11905
2733 1 9.18774 30.3469 12.8307 3 0.000661326 -4.11905
2734 1 8.30386 30.3448 10.497 3 0.000372786 -4.11979
2735 1 10.7766 30.3448 10.497 3 0.000372786 -4.11979
2736 1 9.89293 30.343 8.16388 3 0.000246692 -4.12024
2737 1 12.3657 30.343 8.16388 3 0.000246692 -4.12024
2738 1 11.4821 30.3417 5.83113 3 0.00018524 -4.12051
2739 1 13.9548 30.3417 5.83113 3 0.00018524 -4.12051
2740 1 13.0712 30.3408 3.4986 3 0.000154623 -4.12067
2741 1 15.544 30.3408 3.4986 3 0.000154623 -4.12067
2742 1 14.6603 30.3403 1.16619 3 0.000141586 -4.12074
2743 1 17.1331 30.3403 1.16619 3 0.000141586 -4.12074
2744 1 0.84034 28.3349 30.2646 3 0.00787771 -4.1127
2745 1 64.1632 28.3262 27.9331 3 0.04025 -4.10128
2746 1 2.34363 28.3262 27.9331 3 0.04025 -4.10128
2747 1 1.22155 28.2786 25.6293 3 0.0799124 -4.03666
2748 1 3.69433 28.2786 25.6293 3 0.0799124 -4.03666
2749 1 2.48763 28.2786 23.3294 3 0.0799124 -4.03666
2750 1 4.96041 28.2786 23.3294 3 0.0799124 -4.03666
2751 1 3.83833 28.3262 21.0255 3 0.04025 -4.10128
2752 1 6.31112 28.3262 21.0255 3 0.04025 -4.10128
2753 1 5.34162 28.3349 18.694 3 0.00787771 -4.1127
2754 1 7.81441 28.3349 18.694 3 0.00787771 -4.1127
2755 1 6.89125 28.3332 16.3548 3 0.00219322 -4.11591
2756 1 9.36403 28.3332 16.3548 3 0.00219322 -4.11591
2757 1 8.45694 28.3302 14.0157 3 0.000890241 -4.11774
2758 1 10.9297 28.3302 14.0157 3 0.000890241 -4.11774
2759 1 10.0298 28.3274 11.6777 3 0.000456136 -4.11879
2760 1 12.5026 28.3274 11.6777 3 0.000456136 -4.11879
2761 1 11.6066 28.3251 9.34094 3 0.000275951 -4.11942
2762 1 14.0793 28.3251 9.34094 3 0.000275951 -4.11942
2763 1 13.1854 28.3233 7.00503 3 0.000191447 -4.11982
2764 1 15.6582 28.3233 7.00503 3 0.000191447 -4.11982
2765 1 14.7656 28.3219 4.66972 3 0.000149472 -4.12007
2766 1 17.2384 28.3219 4.66972 3 0.000149472 -4.12007
2767 1 16.3465 28.3211 2.33477 3 0.000129519 -4.1202
2768 1 18.8193 28.3211 2.33477 3 0.000129519 -4.1202
2769 1 17.9277 28.3209 4.61149e-09 3 0.000123538 -4.12024
2770 1 20.4005 28.3209 4.6011e-09 3 0.000123538 -4.12024
2771 1 0.920543 26.3112 33.7656 3 0.000951108 -4.11627
2772 1 64.2811 26.3104 31.4299 3 0.00245828 -4.11406
2773 1 2.46154 26.3104 31.4299 3 0.00245828 -4.11406
2774 1 1.49771 26.3002 29.1027 3 0.00637848 -4.10946
2775 1 3.97049 26.3002 29.1027 3 0.00637848 -4.10946
2776 1 2.94236 26.2669 26.7934 3 0.00997197 -4.09174
2777 1 5.41515 26.2669 26.7934 3 0.00997197 -4.09174
2778 1 4.32737 26.2457 24.4793 3 0.0166214 -4.08223
2779 1 6.80016 26.2457 24.4793 3 0.0166214 -4.08223
2780 1 5.71238 26.2669 22.1652 3 0.00997198 -4.09174
2781 1 8.18517 26.2669 22.1652 3 0.00997198 -4.09174
2782 1 7.15704 26.3002 19.8559 3 0.00637848 -4.10946
2783 1 9.62982 26.3002 19.8559 3 0.00637848 -4.10946
2784 1 8.66599 26.3104 17.5287 3 0.00245828 -4.11406
2785 1 11.1388 26.3104 17.5287 3 0.00245828 -4.11406
2786 1 10.207 26.3112 15.193 3 0.000951108 -4.11627
2787 1 12.6798 26.3112 15.193 3 0.000951108 -4.11627
2788 1 11.7631 26.3093 12.8549 3 0.000464591 -4.11763
2789 1 14.2359 26.3093 12.8549 3 0.000464591 -4.11763
2790 1 13.3271 26.307 10.5167 3 0.000271562 -4.11847
2791 1 15.7999 26.307 10.5167 3 0.000271562 -4.11847
2792 1 14.8957 26.3049 8.17893 3 0.000180367 -4.11901
2793 1 17.3685 26.3049 8.17893 3 0.000180367 -4.11901
2794 1 16.4669 26.3032 5.84167 3 0.000133537 -4.11936
2795 1 18.9397 26.3032 5.84167 3 0.000133537 -4.11936
2796 1 18.0398 26.3021 3.50483 3 0.000109496 -4.11957
2797 1 20.5126 26.3021 3.50483 3 0.000109496 -4.11957
2798 1 19.6135 26.3015 1.16825 3 9.91672e-05 -4.11967
2799 1 22.0863 26.3015 1.16825 3 9.91672e-05 -4.11967
2800 1 1.02026 24.2874 37.2705 3 0.000260539 -4.11759
2801 1 0.0986758 24.2879 34.9338 3 0.000482604 -4.11663
2802 1 2.57146 24.2879 34.9338 3 0.000482604 -4.11663
2803 1 1.63742 24.2854 32.6002 3 0.00101185 -4.11517
2804 1 4.1102 24.2854 32.6002 3 0.00101185 -4.11517
2805 1 3.154 24.275 30.2733 3 0.00186199 -4.11259
2806 1 5.62678 24.275 30.2733 3 0.00186199 -4.11259
2807 1 4.63511 24.2507 27.9568 3 0.00236274 -4.10559
2808 1 7.10789 24.2507 27.9568 3 0.00236274 -4.10559
2809 1 6.0832 24.2286 25.64 3 0.0045529 -4.09981
2810 1 8.55599 24.2286 25.64 3 0.0045529 -4.09981
2811 1 7.51711 24.2286 23.3186 3 0.0045529 -4.09981
2812 1 9.98989 24.2286 23.3186 3 0.0045529 -4.09981
2813 1 8.96521 24.2507 21.0019 3 0.00236274 -4.10559
2814 1 11.438 24.2507 21.0019 3 0.00236274 -4.10559
2815 1 10.4463 24.275 18.6853 3 0.00186199 -4.11259
2816 1 12.9191 24.275 18.6853 3 0.00186199 -4.11259
2817 1 11.9629 24.2854 16.3584 3 0.00101185 -4.11517
2818 1 14.4357 24.2854 16.3584 3 0.00101185 -4.11517
2819 1 13.5016 24.2879 14.0248 3 0.000482604 -4.11663
2820 1 15.9744 24.2879 14.0248 3 0.000482604 -4.11663
2821 1 15.0528 24.2874 11.6882 3 0.000260539 -4.11759
2822 1 17.5256 24.2874 11.6882 3 0.000260539 -4.11759
2823 1 16.6112 24.2858 9.35054 3 0.000164011 -4.11823
2824 1 19.084 24.2858 9.35054 3 0.000164011 -4.11823
2825 1 18.1738 24.2841 7.01272 3 0.000116216 -4.11866
2826 1 20.6466 24.2841 7.01272 3 0.000116216 -4.11866
2827 1 19.739 24.2827 4.67502 3 9.09683e-05 -4.11894
2828 1 22.2118 24.2827 4.67502 3 9.09683e-05 -4.11894
2829 1 21.3058 24.2818 2.33746 3 7.83887e-05 -4.11909
2830 1 23.7786 24.2818 2.33746 3 7.83887e-05 -4.11909
2831 1 22.8733 24.2815 7.93967e-09 3 7.45992e-05 -4.11914
2832 1 25.346 24.2815 7.93623e-09 3 7.45992e-05 -4.11914
2833 1 1.1334 22.2637 40.7772 3 0.000104555 -4.11804
2834 1 0.214869 22.2646 38.4403 3 0.000157093 -4.11755
2835 1 2.68765 22.2646 38.4403 3 0.000157093 -4.11755
2836 1 1.76306 22.2642 36.1048 3 0.000266142 -4.11685
2837 1 4.23584 22.2642 36.1048 3 0.000266142 -4.11685
2838 1 3.30135 22.2608 33.7722 3 0.000471623 -4.11582
2839 1 5.77413 22.2608 33.7722 3 0.000471623 -4.11582
2840 1 4.82392 22.2512 31.4446 3 0.000701874 -4.11412
2841 1 7.2967 22.2512 31.4446 3 0.000701874 -4.11412
2842 1 6.32444 22.2327 29.1232 3 0.000811247 -4.11062
2843 1 8.79723 22.2327 29.1232 3 0.000811247 -4.11062
2844 1 7.80469 22.2131 26.8028 3 0.00142287 -4.10738
2845 1 10.2775 22.2131 26.8028 3 0.00142287 -4.10738
2846 1 9.27294 22.2049 24.4793 3 0.00172072 -4.10623
2847 1 11.7457 22.2049 24.4793 3 0.00172072 -4.10623
2848 1 10.7412 22.2131 22.1558 3 0.00142287 -4.10738
2849 1 13.214 22.2131 22.1558 3 0.00142287 -4.10738
2850 1 12.2214 22.2327 19.8354 3 0.000811247 -4.11062
2851 1 14.6942 22.2327 19.8354 3 0.000811247 -4.11062
2852 1 13.722 22.2512 17.514 3 0.000701874 -4.11412
2853 1 16.1947 22.2512 17.514 3 0.000701874 -4.11412
2854 1 15.2445 22.2608 15.1864 3 0.000471623 -4.11582
2855 1 17.7173 22.2608 15.1864 3 0.000471623 -4.11582
2856 1 16.7828 22.2642 12.8538 3 0.000266141 -4.11685
2857 1 19.2556 22.2642 12.8538 3 0.000266141 -4.11685
2858 1 18.331 22.2646 10.5183 3 0.000157093 -4.11755
2859 1 20.8038 22.2646 10.5183 3 0.000157093 -4.11755
2860 1 19.8853 22.2637 8.18147 3 0.000104555 -4.11804
2861 1 22.3581 22.2637 8.18147 3 0.000104555 -4.11804
2862 1 21.4433 22.2625 5.84407 3 7.79181e-05 -4.11836
2863 1 23.9161 22.2625 5.84407 3 7.79181e-05 -4.11836
2864 1 23.0036 22.2615 3.50648 3 6.41046e-05 -4.11857
2865 1 25.4763 22.2615 3.50648 3 6.41046e-05 -4.11857
2866 1 24.5651 22.261 1.16883 3 5.81635e-05 -4.11867
2867 1 27.0379 22.261 1.16883 3 5.81635e-05 -4.11867
2868 1 1.25832 20.2402 44.2843 3 5.54392e-05 -4.1181
2869 1 0.339713 20.2409 41.9475 3 7.05626e-05 -4.11786
2870 1 2.8125 20.2409 41.9475 3 7.05626e-05 -4.11786
2871 1 1.89075 20.2412 39.6115 3 9.97795e-05 -4.11749
2872 1 4.36353 20.2412 39.6115 3 9.97795e-05 -4.11749
2873 1 3.43678 20.2403 37.2769 3 0.000154051 -4.11696
2874 1 5.90956 20.2403 37.2769 3 0.000154051 -4.11696
2875 1 4.97506 20.2367 34.9447 3 0.000237837 -4.1162
2876 1 7.44784 20.2367 34.9447 3 0.000237837 -4.1162
2877 1 6.50194 20.2283 32.6161 3 0.000309047 -4.11501
2878 1 8.97472 20.2283 32.6161 3 0.000309047 -4.11501
2879 1 8.01414 20.2138 30.2916 3 0.000342001 -4.11299
2880 1 10.4869 20.2138 30.2916 3 0.000342001 -4.11299
2881 1 9.51276 20.1974 27.9681 3 0.000541395 -4.11102
2882 1 11.9855 20.1974 27.9681 3 0.000541395 -4.11102
2883 1 11.0025 20.1865 25.6426 3 0.000695882 -4.1099
2884 1 13.4752 20.1865 25.6426 3 0.000695882 -4.1099
2885 1 12.489 20.1865 23.316 3 0.000695882 -4.1099
2886 1 14.9618 20.1865 23.316 3 0.000695882 -4.1099
2887 1 13.9787 20.1974 20.9906 3 0.000541395 -4.11102
2888 1 16.4515 20.1974 20.9906 3 0.000541395 -4.11102
2889 1 15.4773 20.2138 18.667 3 0.000342001 -4.11299
2890 1 17.9501 20.2138 18.667 3 0.000342001 -4.11299
2891 1 16.9895 20.2283 16.3425 3 0.000309047 -4.11501
2892 1 19.4623 20.2283 16.3425 3 0.000309047 -4.11501
2893 1 18.5164 20.2367 14.014 3 0.000237836 -4.1162
2894 1 20.9892 20.2367 14.014 3 0.000237836 -4.1162
2895 1 20.0547 20.2403 11.6818 3 0.000154051 -4.11696
2896 1 22.5275 20.2403 11.6818 3 0.000154051 -4.11696
2897 1 21.6007 20.2412 9.34714 3 9.97795e-05 -4.11749
2898 1 24.0735 20.2412 9.34714 3 9.97795e-05 -4.11749
2899 1 23.1517 20.2409 7.01111 3 7.05627e-05 -4.11786
2900 1 25.6245 20.2409 7.01111 3 7.05627e-05 -4.11786
2901 1 24.7059 20.2402 4.67436 3 5.54392e-05 -4.1181
2902 1 27.1787 20.2402 4.67436 3 5.54392e-05 -4.1181
2903 1 26.2619 20.2396 2.33725 3 4.80558e-05 -4.11824
2904 1 28.7347 20.2396 2.33725 3 4.80558e-05 -4.11824
2905 1 27.8188 20.2394 7.65484e-09 3 4.58252e-05 -4.11829
2906 1 30.2916 20.2394 7.64826e-09 3 4.58252e-05 -4.11829
2907 1 1.39453 18.2167 47.7904 3 3.80993e-05 -4.11796
2908 1 0.473971 18.2169 45.454 3 4.16723e-05 -4.11787
2909 1 2.94676 18.2169 45.454 3 4.16723e-05 -4.11787
2910 1 2.02481 18.2172 43.1181 3 4.99255e-05 -4.1177
2911 1 4.49759 18.2172 43.1181 3 4.99255e-05 -4.1177
2912 1 3.57312 18.2172 40.7829 3 6.57171e-05 -4.11742
2913 1 6.04591 18.2172 40.7829 3 6.57171e-05 -4.11742
2914 1 5.11741 18.216 38.4489 3 9.22624e-05 -4.11701
2915 1 7.59019 18.216 38.4489 3 9.22624e-05 -4.11701
2916 1 6.65566 18.2126 36.1169 3 0.000127291 -4.11643
2917 1 9.12844 18.2126 36.1169 3 0.000127291 -4.11643
2918 1 8.18552 18.2056 33.7876 3 0.000151781 -4.11557
2919 1 10.6583 18.2056 33.7876 3 0.000151781 -4.11557
2920 1 9.70513 18.1942 31.4609 3 0.000165317 -4.11428
2921 1 12.1779 18.1942 31.4609 3 0.000165317 -4.11428
2922 1 11.2152 18.1808 29.135 3 0.000239462 -4.11297
2923 1 13.688 18.1808 29.135 3 0.000239462 -4.11297
2924 1 12.7185 18.1699 26.8079 3 0.000309455 -4.11207
2925 1 15.1913 18.1699 26.8079 3 0.000309455 -4.11207
2926 1 14.2185 18.1658 24.4793 3 0.000334306 -4.11174
2927 1 16.6913 18.1658 24.4793 3 0.000334306 -4.11174
2928 1 15.7185 18.1699 22.1507 3 0.000309455 -4.11207
2929 1 18.1913 18.1699 22.1507 3 0.000309455 -4.11207
2930 1 17.2218 18.1808 19.8236 3 0.000239462 -4.11297
2931 1 19.6946 18.1808 19.8236 3 0.000239462 -4.11297
2932 1 18.7319 18.1942 17.4978 3 0.000165317 -4.11428
2933 1 21.2047 18.1942 17.4978 3 0.000165317 -4.11428
2934 1 20.2515 18.2056 15.171 3 0.000151781 -4.11557
2935 1 22.7243 18.2056 15.171 3 0.000151781 -4.11557
2936 1 21.7814 18.2126 12.8417 3 0.000127292 -4.11643
2937 1 24.2541 18.2126 12.8417 3 0.000127292 -4.11643
2938 1 23.3196 18.216 10.5097 3 9.22624e-05 -4.11701
2939 1 25.7924 18.216 10.5097 3 9.22624e-05 -4.11701
2940 1 24.8639 18.2172 8.17577 3 6.57171e-05 -4.11742
2941 1 27.3367 18.2172 8.17577 3 6.57171e-05 -4.11742
2942 1 26.4122 18.2172 5.84054 3 4.99255e-05 -4.1177
2943 1 28.885 18.2172 5.84054 3 4.99255e-05 -4.1177
2944 1 27.963 18.2169 3.50458 3 4.16723e-05 -4.11787
2945 1 30.4358 18.2169 3.50458 3 4.16723e-05 -4.11787
2946 1 29.5153 18.2167 1.16823 3 3.80993e-05 -4.11796
2947 1 31.9881 18.2167 1.16823 3 3.80993e-05 -4.11796
2948 1 2.16693 16.1927 46.6232 3 3.25865e-05 -4.11766
2949 1 4.63971 16.1927 46.6232 3 3.25865e-05 -4.11766
2950 1 3.71475 16.1928 44.2882 3 3.6577e-05 -4.11754
2951 1 6.18753 16.1928 44.2882 3 3.6577e-05 -4.11754
2952 1 5.26064 16.1925 41.9537 3 4.43745e-05 -4.11733
2953 1 7.73342 16.1925 41.9537 3 4.43745e-05 -4.11733
2954 1 6.80337 16.1913 39.6204 3 5.67156e-05 -4.11702
2955 1 9.27616 16.1913 39.6204 3 5.67156e-05 -4.11702
2956 1 8.34146 16.1884 37.2886 3 7.14129e-05 -4.11657
2957 1 10.8142 16.1884 37.2886 3 7.14129e-05 -4.11657
2958 1 9.8733 16.1827 34.9586 3 8.10424e-05 -4.11593
2959 1 12.3461 16.1827 34.9586 3 8.10424e-05 -4.11593
2960 1 11.3978 16.174 32.6304 3 8.87972e-05 -4.11504
2961 1 13.8706 16.174 32.6304 3 8.87972e-05 -4.11504
2962 1 12.9153 16.1633 30.3028 3 0.000119747 -4.11412
2963 1 15.3881 16.1633 30.3028 3 0.000119747 -4.11412
2964 1 14.4276 16.1536 27.9744 3 0.000151325 -4.1134
2965 1 16.9004 16.1536 27.9744 3 0.000151325 -4.1134
2966 1 15.937 16.1478 25.6446 3 0.000163251 -4.11301
2967 1 18.4098 16.1478 25.6446 3 0.000163251 -4.11301
2968 1 17.4455 16.1478 23.3141 3 0.000163251 -4.11301
2969 1 19.9183 16.1478 23.3141 3 0.000163251 -4.11301
2970 1 18.955 16.1536 20.9843 3 0.000151325 -4.1134
2971 1 21.4278 16.1536 20.9843 3 0.000151325 -4.1134
2972 1 20.4673 16.1633 18.6558 3 0.000119747 -4.11412
2973 1 22.9401 16.1633 18.6558 3 0.000119747 -4.11412
2974 1 21.9848 16.174 16.3282 3 8.87972e-05 -4.11504
2975 1 24.4576 16.174 16.3282 3 8.87972e-05 -4.11504
2976 1 23.5093 16.1827 14 3 8.10424e-05 -4.11593
2977 1 25.9821 16.1827 14 3 8.10424e-05 -4.11593
2978 1 25.0411 16.1884 11.6701 3 7.1413e-05 -4.11657
2979 1 27.5139 16.1884 11.6701 3 7.1413e-05 -4.11657
2980 1 26.5792 16.1913 9.33825 3 5.67156e-05 -4.11702
2981 1 29.052 16.1913 9.33825 3 5.67156e-05 -4.11702
2982 1 28.1219 16.1925 7.00489 3 4.43745e-05 -4.11733
2983 1 30.5947 16.1925 7.00489 3 4.43745e-05 -4.11733
2984 1 29.6678 16.1928 4.67046 3 3.6577e-05 -4.11754
2985 1 32.1406 16.1928 4.67046 3 3.6577e-05 -4.11754
2986 1 31.2157 16.1927 2.33538 3 3.25865e-05 -4.11766
2987 1 33.6884 16.1927 2.33538 3 3.25865e-05 -4.11766
2988 1 32.7644 16.1927 7.38993e-09 3 3.13416e-05 -4.1177
2989 1 35.2372 16.1927 7.402e-09 3 3.13416e-05 -4.1177
2990 1 3.8637 14.1675 47.7915 3 2.60015e-05 -4.11745
2991 1 6.33648 14.1675 47.7915 3 2.60015e-05 -4.11745
2992 1 5.40869 14.1674 45.4574 3 2.74318e-05 -4.11738
2993 1 7.88148 14.1674 45.4574 3 2.74318e-05 -4.11738
2994 1 6.95234 14.167 43.1237 3 3.05819e-05 -4.11723
2995 1 9.42512 14.167 43.1237 3 3.05819e-05 -4.11723
2996 1 8.49361 14.166 40.7909 3 3.56114e-05 -4.11699
2997 1 10.9664 14.166 40.7909 3 3.56114e-05 -4.11699
2998 1 10.0314 14.1636 38.4592 3 4.15637e-05 -4.11665
2999 1 12.5041 14.1636 38.4592 3 4.15637e-05 -4.11665
3000 1 11.5644 14.1593 36.1289 3 4.62847e-05 -4.11616
3001 1 14.0372 14.1593 36.1289 3 4.62847e-05 -4.11616
3002 1 13.0921 14.1528 33.7998 3 5.23261e-05 -4.11553
3003 1 15.5649 14.1528 33.7998 3 5.23261e-05 -4.11553
3004 1 14.6147 14.1447 31.471 3 6.74147e-05 -4.11484
3005 1 17.0874 14.1447 31.471 3 6.74147e-05 -4.11484
3006 1 16.1332 14.1367 29.1415 3 8.12689e-05 -4.11426
3007 1 18.6059 14.1367 29.1415 3 8.12689e-05 -4.11426
3008 1 17.6492 14.1309 26.8109 3 8.36351e-05 -4.11388
3009 1 20.122 14.1309 26.8109 3 8.36351e-05 -4.11388
3010 1 19.1641 14.1288 24.4793 3 8.17936e-05 -4.11375
3011 1 21.6369 14.1288 24.4793 3 8.17937e-05 -4.11375
3012 1 20.679 14.1309 22.1477 3 8.36351e-05 -4.11388
3013 1 23.1518 14.1309 22.1477 3 8.36351e-05 -4.11388
3014 1 22.195 14.1367 19.8171 3 8.12689e-05 -4.11426
3015 1 24.6678 14.1367 19.8171 3 8.12689e-05 -4.11426
3016 1 23.7135 14.1447 17.4876 3 6.74147e-05 -4.11484
3017 1 26.1863 14.1447 17.4876 3 6.74147e-05 -4.11484
3018 1 25.236 14.1528 15.1588 3 5.23261e-05 -4.11553
3019 1 27.7088 14.1528 15.1588 3 5.23261e-05 -4.11553
3020 1 26.7637 14.1593 12.8297 3 4.62847e-05 -4.11616
3021 1 29.2365 14.1593 12.8297 3 4.62847e-05 -4.11616
3022 1 28.2968 14.1636 10.4994 3 4.15638e-05 -4.11665
3023 1 30.7696 14.1636 10.4994 3 4.15638e-05 -4.11665
3024 1 29.8345 14.166 8.16773 3 3.56115e-05 -4.11699
3025 1 32.3073 14.166 8.16773 3 3.56115e-05 -4.11699
3026 1 31.3758 14.167 5.83492 3 3.05818e-05 -4.11723
3027 1 33.8486 14.167 5.83492 3 3.05818e-05 -4.11723
3028 1 32.9195 14.1674 3.50127 3 2.74318e-05 -4.11738
3029 1 35.3922 14.1674 3.50127 3 2.74318e-05 -4.11738
3030 1 34.4645 14.1675 1.16714 3 2.60015e-05 -4.11745
3031 1 36.9372 14.1675 1.16714 3 2.60015e-05 -4.11745
3032 1 7.10605 12.1411 46.6254 3 2.08718e-05 -4.11721
3033 1 9.57884 12.1411 46.6254 3 2.08718e-05 -4.11721
3034 1 8.64753 12.1407 44.2926 3 2.14783e-05 -4.11711
3035 1 11.1203 12.1407 44.2926 3 2.14783e-05 -4.11711
3036 1 10.1873 12.1399 41.9603 3 2.27765e-05 -4.11694
3037 1 12.6601 12.1399 41.9603 3 2.27765e-05 -4.11694
3038 1 11.7246 12.1382 39.6288 3 2.48704e-05 -4.11668
3039 1 14.1974 12.1382 39.6288 3 2.48704e-05 -4.11668
3040 1 13.2584 12.1352 37.2983 3 2.80027e-05 -4.11632
3041 1 15.7312 12.1352 37.2983 3 2.80027e-05 -4.11632
3042 1 14.7882 12.1306 34.9685 3 3.3698e-05 -4.11585
3043 1 17.261 12.1306 34.9685 3 3.3698e-05 -4.11585
3044 1 16.3142 12.1249 32.6389 3 4.29304e-05 -4.11534
3045 1 18.787 12.1249 32.6389 3 4.29304e-05 -4.11534
3046 1 17.837 12.1189 30.3088 3 4.8972e-05 -4.11486
3047 1 20.3098 12.1189 30.3088 3 4.8972e-05 -4.11486
3048 1 19.3577 12.114 27.9776 3 4.63183e-05 -4.1145
3049 1 21.8305 12.114 27.9776 3 4.63183e-05 -4.1145
3050 1 20.8772 12.1112 25.6455 3 4.04781e-05 -4.11431
3051 1 23.35 12.1112 25.6455 3 4.04781e-05 -4.11431
3052 1 22.3965 12.1112 23.3131 3 4.04781e-05 -4.11431
3053 1 24.8693 12.1112 23.3131 3 4.04781e-05 -4.11431
3054 1 23.916 12.114 20.981 3 4.63182e-05 -4.1145
3055 1 26.3888 12.114 20.981 3 4.63182e-05 -4.1145
3056 1 25.4367 12.1189 18.6499 3 4.8972e-05 -4.11486
3057 1 27.9095 12.1189 18.6499 3 4.8972e-05 -4.11486
3058 1 26.9595 12.1249 16.3197 3 4.29304e-05 -4.11534
3059 1 29.4323 12.1249 16.3197 3 4.29304e-05 -4.11534
3060 1 28.4855 12.1306 13.9902 3 3.36981e-05 -4.11585
3061 1 30.9583 12.1306 13.9902 3 3.36981e-05 -4.11585
3062 1 30.0153 12.1352 11.6604 3 2.80028e-05 -4.11632
3063 1 32.4881 12.1352 11.6604 3 2.80028e-05 -4.11632
3064 1 31.5492 12.1382 9.32983 3 2.48705e-05 -4.11668
3065 1 34.0219 12.1382 9.32983 3 2.48705e-05 -4.11668
3066 1 33.0864 12.1399 6.99836 3 2.27765e-05 -4.11694
3067 1 35.5592 12.1399 6.99836 3 2.27765e-05 -4.11694
3068 1 34.6262 12.1407 4.66607 3 2.14783e-05 -4.11711
3069 1 37.099 12.1407 4.66607 3 2.14783e-05 -4.11711
3070 1 36.1677 12.1411 2.33318 3 2.08718e-05 -4.11721
3071 1 38.6405 12.1411 2.33318 3 2.08718e-05 -4.11721
3072 1 37.71 12.1412 6.16647e-09 3 2.06877e-05 -4.11724
3073 1 40.1827 12.1412 6.06561e-09 3 2.06877e-05 -4.11724
3074 1 8.80638 10.1138 47.7925 3 1.59529e-05 -4.11702
3075 1 11.2792 10.1138 47.7925 3 1.59529e-05 -4.11702
3076 1 10.3457 10.1136 45.4603 3 1.54783e-05 -4.11697
3077 1 12.8185 10.1136 45.4603 3 1.54783e-05 -4.11697
3078 1 11.884 10.1131 43.1284 3 1.49876e-05 -4.11685
3079 1 14.3568 10.1131 43.1284 3 1.49876e-05 -4.11685
3080 1 13.4205 10.1119 40.7971 3 1.53535e-05 -4.11667
3081 1 15.8933 10.1119 40.7971 3 1.53535e-05 -4.11667
3082 1 14.9546 10.1101 38.4664 3 1.79658e-05 -4.11641
3083 1 17.4274 10.1101 38.4664 3 1.79658e-05 -4.11641
3084 1 16.4859 10.1072 36.1361 3 2.37569e-05 -4.11607
3085 1 18.9587 10.1072 36.1361 3 2.37569e-05 -4.11607
3086 1 18.0143 10.1037 33.806 3 3.09937e-05 -4.11568
3087 1 20.4871 10.1037 33.806 3 3.09937e-05 -4.11568
3088 1 19.5402 10.0998 31.4755 3 3.39978e-05 -4.11529
3089 1 22.013 10.0998 31.4755 3 3.39978e-05 -4.11529
3090 1 21.0642 10.0963 29.1441 3 2.94958e-05 -4.11497
3091 1 23.537 10.0963 29.1441 3 2.94958e-05 -4.11497
3092 1 22.5872 10.0939 26.812 3 2.15714e-05 -4.11475
3093 1 25.06 10.0939 26.812 3 2.15714e-05 -4.11475
3094 1 24.1096 10.0931 24.4793 3 1.77539e-05 -4.11468
3095 1 26.5824 10.0931 24.4793 3 1.77539e-05 -4.11468
3096 1 25.6321 10.0939 22.1466 3 2.15714e-05 -4.11475
3097 1 28.1049 10.0939 22.1466 3 2.15714e-05 -4.11475
3098 1 27.155 10.0963 19.8145 3 2.94958e-05 -4.11497
3099 1 29.6278 10.0963 19.8145 3 2.94958e-05 -4.11497
3100 1 28.6791 10.0998 17.4832 3 3.39978e-05 -4.11529
3101 1 31.1519 10.0998 17.4832 3 3.39978e-05 -4.11529
3102 1 30.205 10.1037 15.1526 3 3.09937e-05 -4.11568
3103 1 32.6778 10.1037 15.1526 3 3.09937e-05 -4.11568
3104 1 31.7334 10.1072 12.8225 3 2.37569e-05 -4.11607
3105 1 34.2062 10.1072 12.8225 3 2.37569e-05 -4.11607
3106 1 33.2647 10.1101 10.4922 3 1.79658e-05 -4.11641
3107 1 35.7374 10.1101 10.4922 3 1.79658e-05 -4.11641
3108 1 34.7988 10.1119 8.16153 3 1.53536e-05 -4.11667
3109 1 37.2716 10.1119 8.16153 3 1.53536e-05 -4.11667
3110 1 36.3353 10.1131 5.83022 3 1.49876e-05 -4.11685
3111 1 38.8081 10.1131 5.83022 3 1.49876e-05 -4.11685
3112 1 37.8736 10.1136 3.49837 3 1.54783e-05 -4.11697
3113 1 40.3464 10.1136 3.49837 3 1.54783e-05 -4.11697
3114 1 39.4129 10.1138 1.16616 3 1.59529e-05 -4.11702
3115 1 41.8857 10.1138 1.16616 3 1.59529e-05 -4.11702
3116 1 12.0465 8.0857 46.627 3 1.16e-05 -4.11731
3117 1 14.5193 8.0857 46.627 3 1.16e-05 -4.11731
3118 1 13.5831 8.08542 44.2954 3 1.05633e-05 -4.11722
3119 1 16.0559 8.08542 44.2954 3 1.05633e-05 -4.11722
3120 1 15.1187 8.08489 41.9642 3 1.03532e-05 -4.11706
3121 1 17.5915 8.08489 41.9642 3 1.03533e-05 -4.11706
3122 1 16.6527 8.084 39.6332 3 1.28943e-05 -4.11683
3123 1 19.1255 8.084 39.6332 3 1.28943e-05 -4.11683
3124 1 18.1849 8.0827 37.3025 3 1.88848e-05 -4.11652
3125 1 20.6577 8.0827 37.3025 3 1.88848e-05 -4.11652
3126 1 19.715 8.08102 34.9719 3 2.55864e-05 -4.11616
3127 1 22.1878 8.08102 34.9719 3 2.55864e-05 -4.11616
3128 1 21.2432 8.07917 32.641 3 2.77711e-05 -4.11577
3129 1 23.716 8.07917 32.641 3 2.77711e-05 -4.11577
3130 1 22.7698 8.07741 30.3097 3 2.32113e-05 -4.11542
3131 1 25.2426 8.07741 30.3097 3 2.32112e-05 -4.11542
3132 1 24.2953 8.07606 27.9778 3 1.53105e-05 -4.11515
3133 1 26.7681 8.07606 27.9778 3 1.53105e-05 -4.11515
3134 1 25.8201 8.07532 25.6455 3 9.6003e-06 -4.115
3135 1 28.2929 8.07532 25.6455 3 9.60026e-06 -4.115
3136 1 27.3447 8.07532 23.3131 3 9.60026e-06 -4.115
3137 1 29.8175 8.07532 23.3131 3 9.6003e-06 -4.115
3138 1 28.8696 8.07606 20.9808 3 1.53105e-05 -4.11515
3139 1 31.3423 8.07606 20.9808 3 1.53105e-05 -4.11515
3140 1 30.3951 8.07741 18.6489 3 2.32112e-05 -4.11542
3141 1 32.8678 8.07741 18.6489 3 2.32112e-05 -4.11542
3142 1 31.9217 8.07917 16.3176 3 2.7771e-05 -4.11577
3143 1 34.3944 8.07917 16.3176 3 2.77711e-05 -4.11577
3144 1 33.4499 8.08102 13.9867 3 2.55865e-05 -4.11616
3145 1 35.9226 8.08102 13.9867 3 2.55864e-05 -4.11616
3146 1 34.98 8.0827 11.6561 3 1.88849e-05 -4.11652
3147 1 37.4528 8.0827 11.6561 3 1.88849e-05 -4.11652
3148 1 36.5121 8.084 9.3254 3 1.28943e-05 -4.11683
3149 1 38.9849 8.084 9.3254 3 1.28943e-05 -4.11683
3150 1 38.0462 8.08489 6.99446 3 1.03533e-05 -4.11706
3151 1 40.519 8.08489 6.99446 3 1.03533e-05 -4.11706
3152 1 39.5818 8.08542 4.66319 3 1.05633e-05 -4.11722
3153 1 42.0545 8.08542 4.66319 3 1.05633e-05 -4.11722
3154 1 41.1184 8.0857 2.33167 3 1.16e-05 -4.11731
3155 1 43.5912 8.0857 2.33167 3 1.16e-05 -4.11731
3156 1 42.6555 8.08578 3.25379e-09 3 1.20964e-05 -4.11734
3157 1 45.1283 8.08578 3.66007e-09 3 1.20963e-05 -4.11734
3158 1 13.7496 6.05706 47.7929 3 0.000192152 -4.11661
3159 1 16.2224 6.05706 47.7929 3 0.000192152 -4.11661
3160 1 15.2845 6.05706 45.4616 3 0.000190055 -4.11656
3161 1 17.7573 6.05706 45.4616 3 0.000190055 -4.11656
3162 1 16.8188 6.05706 43.1302 3 0.000182135 -4.11648
3163 1 19.2916 6.05706 43.1302 3 0.000182136 -4.11648
3164 1 18.3524 6.05706 40.7989 3 0.000163309 -4.11634
3165 1 20.8252 6.05706 40.7989 3 0.000163309 -4.11634
3166 1 19.8849 6.05706 38.4675 3 0.000131568 -4.11616
3167 1 22.3577 6.05706 38.4675 3 0.000131568 -4.11616
3168 1 21.4161 6.05706 36.1361 3 9.19266e-05 -4.11595
3169 1 23.8889 6.05706 36.1361 3 9.19267e-05 -4.11595
3170 1 22.9461 6.05706 33.8048 3 5.47059e-05 -4.11573
3171 1 25.4189 6.05706 33.8048 3 5.4706e-05 -4.11573
3172 1 24.4747 6.05706 31.4734 3 2.81608e-05 -4.11553
3173 1 26.9475 6.05706 31.4734 3 2.81609e-05 -4.11553
3174 1 26.0023 6.05706 29.142 3 1.34713e-05 -4.11537
3175 1 28.475 6.05706 29.142 3 1.34712e-05 -4.11537
3176 1 27.529 6.05706 26.8107 3 7.01598e-06 -4.11526
3177 1 30.0017 6.05706 26.8107 3 7.01603e-06 -4.11526
3178 1 29.0552 6.05706 24.4793 3 5.26909e-06 -4.11523
3179 1 31.528 6.05706 24.4793 3 5.26906e-06 -4.11523
3180 1 30.5815 6.05706 22.1479 3 7.01611e-06 -4.11526
3181 1 33.0542 6.05706 22.1479 3 7.01613e-06 -4.11526
3182 1 32.1082 6.05706 19.8166 3 1.34715e-05 -4.11537
3183 1 34.5809 6.05706 19.8166 3 1.34715e-05 -4.11537
3184 1 33.6357 6.05706 17.4852 3 2.81612e-05 -4.11553
3185 1 36.1085 6.05706 17.4852 3 2.81612e-05 -4.11553
3186 1 35.1644 6.05706 15.1539 3 5.47065e-05 -4.11573
3187 1 37.6371 6.05706 15.1539 3 5.47065e-05 -4.11573
3188 1 36.6943 6.05706 12.8225 3 9.19273e-05 -4.11595
3189 1 39.1671 6.05706 12.8225 3 9.19272e-05 -4.11595
3190 1 38.2256 6.05706 10.4911 3 0.000131569 -4.11616
3191 1 40.6983 6.05706 10.4911 3 0.000131569 -4.11616
3192 1 39.7581 6.05706 8.15977 3 0.000163309 -4.11634
3193 1 42.2308 6.05706 8.15977 3 0.000163309 -4.11634
3194 1 41.2916 6.05706 5.82841 3 0.000182136 -4.11648
3195 1 43.7644 6.05706 5.82841 3 0.000182136 -4.11648
3196 1 42.826 6.05706 3.49704 3 0.000190055 -4.11656
3197 1 45.2987 6.05706 3.49704 3 0.000190055 -4.11656
3198 1 44.3608 6.05706 1.16568 3 0.000192152 -4.11661
3199 1 46.8336 6.05706 1.16568 3 0.000192152 -4.11661
3200 1 16.9889 4.03804 46.6273 3 1.41686e-06 -4.11576
3201 1 19.4617 4.03804 46.6273 3 1.41686e-06 -4.11576
3202 1 18.5227 4.03804 44.2959 3 1.43101e-06 -4.11573
3203 1 20.9955 4.03804 44.2959 3 1.43102e-06 -4.11573
3204 1 20.056 4.03804 41.9645 3 1.45409e-06 -4.11568
3205 1 22.5288 4.03804 41.9645 3 1.4541e-06 -4.11568
3206 1 21.5885 4.03804 39.6332 3 1.48585e-06 -4.11564
3207 1 24.0613 4.03804 39.6332 3 1.48586e-06 -4.11564
3208 1 23.1201 4.03804 37.3018 3 1.52673e-06 -4.11559
3209 1 25.5929 4.03804 37.3018 3 1.52672e-06 -4.11559
3210 1 24.6507 4.03804 34.9704 3 1.57732e-06 -4.11556
3211 1 27.1235 4.03804 34.9704 3 1.57734e-06 -4.11556
3212 1 26.1803 4.03804 32.6391 3 1.63654e-06 -4.11554
3213 1 28.6531 4.03804 32.6391 3 1.63656e-06 -4.11554
3214 1 27.709 4.03804 30.3077 3 1.69892e-06 -4.11552
3215 1 30.1818 4.03804 30.3077 3 1.69896e-06 -4.11552
3216 1 29.2369 4.03804 27.9764 3 1.75327e-06 -4.11552
3217 1 31.7097 4.03804 27.9764 3 1.75325e-06 -4.11552
3218 1 30.7644 4.03804 25.645 3 1.78548e-06 -4.11551
3219 1 33.2371 4.03804 25.645 3 1.78548e-06 -4.11551
3220 1 32.2916 4.03804 23.3136 3 1.78548e-06 -4.11551
3221 1 34.7644 4.03804 23.3136 3 1.78548e-06 -4.11551
3222 1 33.8191 4.03804 20.9823 3 1.75329e-06 -4.11552
3223 1 36.2919 4.03804 20.9823 3 1.75327e-06 -4.11552
3224 1 35.347 4.03804 18.6509 3 1.69892e-06 -4.11552
3225 1 37.8198 4.03804 18.6509 3 1.69894e-06 -4.11552
3226 1 36.8757 4.03804 16.3195 3 1.63654e-06 -4.11554
3227 1 39.3485 4.03804 16.3195 3 1.63656e-06 -4.11554
3228 1 38.4053 4.03804 13.9882 3 1.57733e-06 -4.11556
3229 1 40.8781 4.03804 13.9882 3 1.57732e-06 -4.11556
3230 1 39.9359 4.03804 11.6568 3 1.52672e-06 -4.11559
3231 1 42.4087 4.03804 11.6568 3 1.52672e-06 -4.11559
3232 1 41.4675 4.03804 9.32545 3 1.48585e-06 -4.11564
3233 1 43.9403 4.03804 9.32545 3 1.48587e-06 -4.11564
3234 1 43 4.03804 6.99409 3 1.4541e-06 -4.11568
3235 1 45.4728 4.03804 6.99409 3 1.4541e-06 -4.11568
3236 1 44.5333 4.03804 4.66273 3 1.43103e-06 -4.11573
3237 1 47.0061 4.03804 4.66273 3 1.43101e-06 -4.11573
3238 1 46.0671 4.03804 2.33136 3 1.41686e-06 -4.11576
3239 1 48.5398 4.03804 2.33136 3 1.41686e-06 -4.11576
3240 1 47.6011 4.03804 0 3 1.41206e-06 -4.11577
3241 1 50.0739 4.03804 0 3 1.41204e-06 -4.11577
3242 1 18.6944 2.01902 47.7929 3 8.63869e-07 -4.10005
3243 1 21.1671 2.01902 47.7929 3 8.63883e-07 -4.10005
3244 1 20.2276 2.01902 45.4616 3 8.67536e-07 -4.10002
3245 1 22.7004 2.01902 45.4616 3 8.67506e-07 -4.10002
3246 1 21.7605 2.01902 43.1302 3 8.74814e-07 -4.09998
3247 1 24.2333 2.01902 43.1302 3 8.74834e-07 -4.09998
3248 1 23.2929 2.01902 40.7989 3 8.85999e-07 -4.09991
3249 1 25.7657 2.01902 40.7989 3 8.86011e-07 -4.09991
3250 1 24.8247 2.01902 38.4675 3 9.01619e-07 -4.09983
3251 1 27.2975 2.01902 38.4675 3 9.01604e-07 -4.09983
3252 1 26.3557 2.01902 36.1361 3 9.22391e-07 -4.09974
3253 1 28.8285 2.01902 36.1361 3 9.22367e-07 -4.09974
3254 1 27.886 2.01902 33.8048 3 9.48481e-07 -4.09964
3255 1 30.3587 2.01902 33.8048 3 9.48475e-07 -4.09964
3256 1 29.4154 2.01902 31.4734 3 9.78204e-07 -4.09956
3257 1 31.8882 2.01902 31.4734 3 9.78174e-07 -4.09956
3258 1 30.9443 2.01902 29.142 3 1.00713e-06 -4.09949
3259 1 33.4171 2.01902 29.142 3 1.00712e-06 -4.09949
3260 1 32.4727 2.01902 26.8107 3 1.02869e-06 -4.09945
3261 1 34.9454 2.01902 26.8107 3 1.02869e-06 -4.09945
3262 1 34.0008 2.01902 24.4793 3 1.0367e-06 -4.09944
3263 1 36.4736 2.01902 24.4793 3 1.03673e-06 -4.09944
3264 1 35.5289 2.01902 22.1479 3 1.02869e-06 -4.09945
3265 1 38.0017 2.01902 22.1479 3 1.02868e-06 -4.09945
3266 1 37.0573 2.01902 19.8166 3 1.00712e-06 -4.09949
3267 1 39.5301 2.01902 19.8166 3 1.00712e-06 -4.09949
3268 1 38.5861 2.01902 17.4852 3 9.78189e-07 -4.09956
3269 1 41.0589 2.01902 17.4852 3 9.78191e-07 -4.09956
3270 1 40.1156 2.01902 15.1539 3 9.48475e-07 -4.09964
3271 1 42.5884 2.01902 15.1539 3 9.4849e-07 -4.09964
3272 1 41.6458 2.01902 12.8225 3 9.22391e-07 -4.09974
3273 1 44.1186 2.01902 12.8225 3 9.22383e-07 -4.09974
3274 1 43.1769 2.01902 10.4911 3 9.01619e-07 -4.09983
3275 1 45.6497 2.01902 10.4911 3 9.01608e-07 -4.09983
3276 1 44.7086 2.01902 8.15977 3 8.86011e-07 -4.09991
3277 1 47.1814 2.01902 8.15977 3 8.85998e-07 -4.09991
3278 1 46.2411 2.01902 5.82841 3 8.74814e-07 -4.09998
3279 1 48.7138 2.01902 5.82841 3 8.74839e-07 -4.09998
3280 1 47.774 2.01902 3.49704 3 8.67515e-07 -4.10002
3281 1 50.2468 2.01902 3.49704 3 8.67527e-07 -4.10002
3282 1 49.3072 2.01902 1.16568 3 8.63869e-07 -4.10005
3283 1 51.78 2.01902 1.16568 3 8.63871e-07 -4.10005
3284 1 21.9332 0 46.6273 5 6.02137 -3.54885
3285 1 24.406 0 46.6273 5 6.02137 -3.54885
3286 1 23.4658 0 44.2959 5 6.02059 -3.54884
3287 1 25.9386 0 44.2959 5 6.02059 -3.54884
3288 1 24.998 0 41.9645 5 6.01984 -3.54882
3289 1 27.4708 0 41.9645 5 6.01984 -3.54882
3290 1 26.5298 0 39.6332 5 6.0192 -3.5488
3291 1 29.0026 0 39.6332 5 6.0192 -3.5488
3292 1 28.0611 0 37.3018 5 6.01871 -3.54878
3293 1 30.5339 0 37.3018 5 6.01871 -3.54878
3294 1 29.5917 0 34.9704 5 6.01843 -3.54876
3295 1 32.0645 0 34.9704 5 6.01843 -3.54876
3296 1 31.1218 0 32.6391 5 6.01838 -3.54873
3297 1 33.5946 0 32.6391 5 6.01838 -3.54873
3298 1 32.6513 0 30.3077 5 6.01858 -3.54871
3299 1 35.1241 0 30.3077 5 6.01858 -3.54871
3300 1 34.1804 0 27.9764 5 6.01902 -3.5487
3301 1 36.6532 0 27.9764 5 6.01902 -3.5487
3302 1 35.7092 0 25.645 5 6.01964 -3.54869
3303 1 38.182 0 25.645 5 6.01964 -3.54869
3304 1 37.2379 0 23.3136 5 6.01964 -3.54869
3305 1 39.7107 0 23.3136 5 6.01964 -3.54869
3306 1 38.7667 0 20.9823 5 6.01902 -3.5487
3307 1 41.2395 0 20.9823 5 6.01902 -3.5487
3308 1 40.2958 0 18.6509 5 6.01858 -3.54871
3309 1 42.7686 0 18.6509 5 6.01858 -3.54871
3310 1 41.8253 0 16.3195 5 6.01838 -3.54873
3311 1 44.2981 0 16.3195 5 6.01838 -3.54873
3312 1 43.3554 0 13.9882 5 6.01843 -3.54876
3313 1 45.8282 0 13.9882 5 6.01843 -3.54876
3314 1 44.886 0 11.6568 5 6.01871 -3.54878
3315 1 47.3588 0 11.6568 5 6.01871 -3.54878
3316 1 46.4173 0 9.32545 5 6.0192 -3.5488
3317 1 48.8901 0 9.32545 5 6.0192 -3.5488
3318 1 47.9491 0 6.99409 5 6.01984 -3.54882
3319 1 50.4219 0 6.99409 5 6.01984 -3.54882
3320 1 49.4813 0 4.66273 5 6.02059 -3.54884
3321 1 51.9541 0 4.66273 5 6.02059 -3.54884
3322 1 51.0139 0 2.33136 5 6.02137 -3.54885
3323 1 53.4867 0 2.33136 5 6.02137 -3.54885
3324 1 52.5467 0 0 5 6.02212 -3.54885
3325 1 55.0194 0 0 5 6.02212 -3.54885
3326 1 1.45342 48.4942 2.32967 3 1.78386e-05 -4.12214
3327 1 0.618196 48.4945 48.9586 3 1.72512e-05 -4.12214
3328 1 3.09098 48.4945 48.9586 3 1.72512e-05 -4.12214
3329 1 1.47465 46.4794 5.82233 3 2.95039e-05 -4.12211
3330 1 0.638498 46.4807 3.4931 3 2.56145e-05 -4.12212
3331 1 3.11128 46.4807 3.4931 3 2.56145e-05 -4.12212
3332 1 2.27365 46.4812 1.16432 3 2.36101e-05 -4.12212
3333 1 4.74643 46.4812 1.16432 3 2.36101e-05 -4.12212
3334 1 1.49982 44.4622 9.31364 3 5.52162e-05 -4.12202
3335 1 0.665065 44.4648 6.9841 3 4.42897e-05 -4.12205
3336 1 3.13785 44.4648 6.9841 3 4.42897e-05 -4.12205
3337 1 2.29972 44.4662 4.65555 3 3.62616e-05 -4.12207
3338 1 4.77251 44.4662 4.65555 3 3.62616e-05 -4.12207
3339 1 3.93225 44.4667 2.32763 3 3.16705e-05 -4.12209
3340 1 6.40504 44.4667 2.32763 3 3.16705e-05 -4.12209
3341 1 5.56376 44.4669 48.9586 3 3.02465e-05 -4.1221
3342 1 8.03655 44.4669 48.9586 3 3.02465e-05 -4.1221
3343 1 1.52539 42.4416 12.8051 3 0.000115746 -4.12183
3344 1 0.695694 42.4468 10.4743 3 9.11994e-05 -4.12188
3345 1 3.16848 42.4468 10.4743 3 9.11994e-05 -4.12188
3346 1 2.33255 42.4495 8.14516 3 6.79327e-05 -4.12195
3347 1 4.80533 42.4495 8.14516 3 6.79327e-05 -4.12195
3348 1 3.96503 42.4508 5.81726 3 5.21401e-05 -4.122
3349 1 6.43782 42.4508 5.81726 3 5.21401e-05 -4.122
3350 1 5.59469 42.4513 3.4901 3 4.29685e-05 -4.12203
3351 1 8.06747 42.4513 3.4901 3 4.29685e-05 -4.12203
3352 1 7.22276 42.4514 1.16333 3 3.88216e-05 -4.12204
3353 1 9.69555 42.4514 1.16333 3 3.88216e-05 -4.12204
3354 1 1.54388 40.4155 16.2992 3 0.000248953 -4.12152
3355 1 0.726068 40.4256 13.9654 3 0.000221816 -4.1215
3356 1 3.19885 40.4256 13.9654 3 0.000221816 -4.1215
3357 1 2.36982 40.431 11.6346 3 0.000158298 -4.12165
3358 1 4.8426 40.431 11.6346 3 0.000158298 -4.12165
3359 1 4.00538 40.4336 9.306 3 0.000108536 -4.12178
3360 1 6.47817 40.4336 9.306 3 0.000108536 -4.12178
3361 1 5.63541 40.4346 6.97871 3 7.80201e-05 -4.12187
3362 1 8.10819 40.4346 6.97871 3 7.80201e-05 -4.12187
3363 1 7.26182 40.4348 4.65217 3 6.06629e-05 -4.12193
3364 1 9.73461 40.4348 4.65217 3 6.06629e-05 -4.12193
3365 1 8.88608 40.4348 2.326 3 5.18024e-05 -4.12196
3366 1 11.3589 40.4348 2.326 3 5.18024e-05 -4.12196
3367 1 10.5093 40.4348 48.9586 3 4.90573e-05 -4.12197
3368 1 12.9821 40.4348 48.9586 3 4.90573e-05 -4.12197
3369 1 1.53824 38.3799 19.7992 3 0.000820378 -4.12241
3370 1 0.745665 38.3984 17.4603 3 0.00059098 -4.12071
3371 1 3.21845 38.3984 17.4603 3 0.00059098 -4.12071
3372 1 2.4064 38.4098 15.1259 3 0.000468568 -4.12089
3373 1 4.87919 38.4098 15.1259 3 0.000468568 -4.12089
3374 1 4.05116 38.4151 12.7954 3 0.000293667 -4.12125
3375 1 6.52395 38.4151 12.7954 3 0.000293667 -4.12125
3376 1 5.68515 38.4172 10.4675 3 0.000183731 -4.12151
3377 1 8.15794 38.4172 10.4675 3 0.000183731 -4.12151
3378 1 7.31221 38.4177 8.14077 3 0.00012367 -4.12167
3379 1 9.78499 38.4177 8.14077 3 0.00012367 -4.12167
3380 1 8.93484 38.4176 5.81463 3 9.07642e-05 -4.12177
3381 1 11.4076 38.4176 5.81463 3 9.07642e-05 -4.12177
3382 1 10.5547 38.4173 3.48873 3 7.3238e-05 -4.12182
3383 1 13.0275 38.4173 3.48873 3 7.3238e-05 -4.12182
3384 1 12.1731 38.4171 1.16291 3 6.55492e-05 -4.12185
3385 1 14.6459 38.4171 1.16291 3 6.55492e-05 -4.12185
3386 1 1.48308 36.3546 23.3043 3 0.00208926 -4.12065
3387 1 0.724593 36.3588 20.9644 3 0.00336124 -4.12315
3388 1 3.19738 36.3588 20.9644 3 0.00336124 -4.12315
3389 1 2.4273 36.3823 18.6222 3 0.00177737 -4.11866
3390 1 4.90009 36.3823 18.6222 3 0.00177737 -4.11866
3391 1 4.09692 36.3945 16.2875 3 0.00114061 -4.1196
3392 1 6.5697 36.3945 16.2875 3 0.00114061 -4.1196
3393 1 5.74271 36.3992 13.9581 3 0.000598223 -4.12049
3394 1 8.21549 36.3992 13.9581 3 0.000598223 -4.12049
3395 1 7.37429 36.4004 11.631 3 0.00033351 -4.12101
3396 1 9.84707 36.4004 11.631 3 0.00033351 -4.12101
3397 1 8.9974 36.4003 9.30478 3 0.000206702 -4.12131
3398 1 11.4702 36.4003 9.30478 3 0.000206702 -4.12131
3399 1 10.6153 36.3997 6.97872 3 0.000142159 -4.1215
3400 1 13.0881 36.3997 6.97872 3 0.000142159 -4.1215
3401 1 12.23 36.399 4.65258 3 0.000108355 -4.12161
3402 1 14.7028 36.399 4.65258 3 0.000108355 -4.12161
3403 1 13.8429 36.3986 2.32633 3 9.18568e-05 -4.12168
3404 1 16.3157 36.3986 2.32633 3 9.18568e-05 -4.12168
3405 1 15.4549 36.3984 2.291e-09 3 8.69562e-05 -4.12169
3406 1 17.9277 36.3984 2.29435e-09 3 8.69562e-05 -4.12169
3407 1 1.34072 34.339 26.8251 3 0.0361452 -4.12628
3408 1 0.618196 34.3611 24.4793 3 0.0111429 -4.10153
3409 1 3.09098 34.3611 24.4793 3 0.0111429 -4.10153
3410 1 2.36846 34.339 22.1335 3 0.0361452 -4.12628
3411 1 4.84124 34.339 22.1335 3 0.0361452 -4.12628
3412 1 4.12175 34.3684 19.7862 3 0.00841238 -4.11182
3413 1 6.59453 34.3684 19.7862 3 0.00841238 -4.11182
3414 1 5.80481 34.3799 17.4528 3 0.00346242 -4.11633
3415 1 8.2776 34.3799 17.4528 3 0.00346242 -4.11633
3416 1 7.44991 34.383 15.1253 3 0.00135468 -4.11886
3417 1 9.92269 34.383 15.1253 3 0.00135468 -4.11886
3418 1 9.07665 34.3831 12.7991 3 0.000630913 -4.12007
3419 1 11.5494 34.3831 12.7991 3 0.000630913 -4.12007
3420 1 10.6938 34.3823 10.4728 3 0.00034635 -4.12071
3421 1 13.1665 34.3823 10.4728 3 0.00034635 -4.12071
3422 1 12.3053 34.3813 8.14609 3 0.000219406 -4.12107
3423 1 14.7781 34.3813 8.14609 3 0.000219406 -4.12107
3424 1 13.9136 34.3803 5.81895 3 0.000158073 -4.12129
3425 1 16.3864 34.3803 5.81895 3 0.000158073 -4.12129
3426 1 15.5199 34.3796 3.49149 3 0.000127924 -4.12141
3427 1 17.9927 34.3796 3.49149 3 0.000127924 -4.12141
3428 1 17.1252 34.3792 1.16385 3 0.000115414 -4.12147
3429 1 19.598 34.3792 1.16385 3 0.000115414 -4.12147
3430 1 1.10616 32.3659 30.3292 3 0.0128667 -4.10575
3431 1 0.328213 32.3588 28.0005 3 0.140712 -4.0469
3432 1 2.801 32.3588 28.0005 3 0.140712 -4.0469
3433 1 2.29166 32.3521 25.6463 5 5.31346 -4.04848
3434 1 4.76445 32.3521 25.6463 5 5.31346 -4.04848
3435 1 3.8903 32.3521 23.3123 5 5.31346 -4.04848
3436 1 6.36308 32.3521 23.3123 5 5.31346 -4.04848
3437 1 5.85375 32.3588 20.9581 3 0.140712 -4.0469
3438 1 8.32653 32.3588 20.9581 3 0.140712 -4.0469
3439 1 7.54859 32.3659 18.6294 3 0.0128667 -4.10575
3440 1 10.0214 32.3659 18.6294 3 0.0128667 -4.10575
3441 1 9.18308 32.3668 16.3031 3 0.00296101 -4.11528
3442 1 11.6559 32.3668 16.3031 3 0.00296101 -4.11528
3443 1 10.7981 32.3657 13.9758 3 0.00106837 -4.11841
3444 1 13.2709 32.3657 13.9758 3 0.00106837 -4.11841
3445 1 12.4048 32.3642 11.6475 3 0.00051239 -4.11977
3446 1 14.8776 32.3642 11.6475 3 0.00051239 -4.11977
3447 1 14.0072 32.3628 9.31858 3 0.00030275 -4.12045
3448 1 16.48 32.3628 9.31858 3 0.00030275 -4.12045
3449 1 15.6071 32.3615 6.98921 3 0.000209208 -4.12082
3450 1 18.0799 32.3615 6.98921 3 0.000209208 -4.12082
3451 1 17.2056 32.3605 4.65959 3 0.000163749 -4.12102
3452 1 19.6783 32.3605 4.65959 3 0.000163749 -4.12102
3453 1 18.8032 32.3599 2.32983 3 0.000142377 -4.12113
3454 1 21.276 32.3599 2.32983 3 0.000142377 -4.12113
3455 1 20.4005 32.3597 2.87432e-09 3 0.00013603 -4.12116
3456 1 22.8733 32.3597 2.88417e-09 3 0.00013603 -4.12116
3457 1 1.05547 30.3494 33.7931 3 0.00146478 -4.1177
3458 1 0.170168 30.3523 31.4565 3 0.00450872 -4.11471
3459 1 2.64295 30.3523 31.4565 3 0.00450872 -4.11471
3460 1 1.75387 30.3548 29.1174 3 0.0254563 -4.10472
3461 1 4.22666 30.3548 29.1174 3 0.0254563 -4.10472
3462 1 3.2949 30.3458 26.7868 5 7.69492 -4.05571
3463 1 5.76768 30.3458 26.7868 5 7.69492 -4.05571
3464 1 4.32737 30.3079 24.4793 5 2.29704 -3.99361
3465 1 6.80016 30.3079 24.4793 5 2.29704 -3.99361
3466 1 5.35984 30.3458 22.1719 5 7.69492 -4.05571
3467 1 7.83263 30.3458 22.1719 5 7.69492 -4.05571
3468 1 6.90087 30.3548 19.8412 3 0.0254563 -4.10472
3469 1 9.37366 30.3548 19.8412 3 0.0254563 -4.10472
3470 1 8.48458 30.3523 17.5021 3 0.00450872 -4.11471
3471 1 10.9574 30.3523 17.5021 3 0.00450872 -4.11471
3472 1 10.0721 30.3494 15.1655 3 0.00146478 -4.1177
3473 1 12.5448 30.3494 15.1655 3 0.00146478 -4.1177
3474 1 11.6605 30.3469 12.8307 3 0.000661326 -4.11905
3475 1 14.1333 30.3469 12.8307 3 0.000661326 -4.11905
3476 1 13.2494 30.3448 10.497 3 0.000372786 -4.11979
3477 1 15.7222 30.3448 10.497 3 0.000372786 -4.11979
3478 1 14.8385 30.343 8.16388 3 0.000246692 -4.12024
3479 1 17.3113 30.343 8.16388 3 0.000246692 -4.12024
3480 1 16.4276 30.3417 5.83113 3 0.00018524 -4.12051
3481 1 18.9004 30.3417 5.83113 3 0.00018524 -4.12051
3482 1 18.0168 30.3408 3.4986 3 0.000154623 -4.12067
3483 1 20.4896 30.3408 3.4986 3 0.000154623 -4.12067
3484 1 19.6059 30.3403 1.16619 3 0.000141586 -4.12074
3485 1 22.0787 30.3403 1.16619 3 0.000141586 -4.12074
3486 1 1.09768 28.3274 37.2809 3 0.000456136 -4.11879
3487 1 0.197806 28.3302 34.943 3 0.000890241 -4.11774
3488 1 2.67059 28.3302 34.943 3 0.000890241 -4.11774
3489 1 1.7635 28.3332 32.6038 3 0.00219321 -4.11591
3490 1 4.23628 28.3332 32.6038 3 0.00219321 -4.11591
3491 1 3.31312 28.3349 30.2646 3 0.00787771 -4.1127
3492 1 5.78591 28.3349 30.2646 3 0.00787771 -4.1127
3493 1 4.81641 28.3262 27.9331 3 0.04025 -4.10128
3494 1 7.2892 28.3262 27.9331 3 0.04025 -4.10128
3495 1 6.16712 28.2786 25.6293 3 0.0799124 -4.03666
3496 1 8.6399 28.2786 25.6293 3 0.0799124 -4.03666
3497 1 7.43319 28.2786 23.3294 3 0.0799124 -4.03666
3498 1 9.90598 28.2786 23.3294 3 0.0799124 -4.03666
3499 1 8.7839 28.3262 21.0255 3 0.04025 -4.10128
3500 1 11.2567 28.3262 21.0255 3 0.04025 -4.10128
3501 1 10.2872 28.3349 18.694 3 0.00787771 -4.1127
3502 1 12.76 28.3349 18.694 3 0.00787771 -4.1127
3503 1 11.8368 28.3332 16.3548 3 0.00219322 -4.11591
3504 1 14.3096 28.3332 16.3548 3 0.00219322 -4.11591
3505 1 13.4025 28.3302 14.0157 3 0.000890241 -4.11774
3506 1 15.8753 28.3302 14.0157 3 0.000890241 -4.11774
3507 1 14.9754 28.3274 11.6777 3 0.000456136 -4.11879
3508 1 17.4482 28.3274 11.6777 3 0.000456136 -4.11879
3509 1 16.5521 28.3251 9.34094 3 0.000275951 -4.11942
3510 1 19.0249 28.3251 9.34094 3 0.000275951 -4.11942
3511 1 18.131 28.3233 7.00503 3 0.000191447 -4.11982
3512 1 20.6038 28.3233 7.00503 3 0.000191447 -4.11982
3513 1 19.7112 28.3219 4.66972 3 0.000149472 -4.12007
3514 1 22.184 28.3219 4.66972 3 0.000149472 -4.12007
3515 1 21.2921 28.3211 2.33477 3 0.000129519 -4.1202
3516 1 23.7648 28.3211 2.33477 3 0.000129519 -4.1202
3517 1 22.8733 28.3209 4.61173e-09 3 0.000123538 -4.12024
3518 1 25.346 28.3209 4.6005e-09 3 0.000123538 -4.12024
3519 1 1.17742 26.3049 40.7797 3 0.000180367 -4.11901
3520 1 0.273171 26.307 38.4419 3 0.000271562 -4.11847
3521 1 2.74595 26.307 38.4419 3 0.000271562 -4.11847
3522 1 1.83719 26.3093 36.1037 3 0.000464591 -4.11763
3523 1 4.30997 26.3093 36.1037 3 0.000464591 -4.11763
3524 1 3.39333 26.3112 33.7656 3 0.000951108 -4.11627
3525 1 5.86611 26.3112 33.7656 3 0.000951108 -4.11627
3526 1 4.93432 26.3104 31.4299 3 0.00245828 -4.11406
3527 1 7.40711 26.3104 31.4299 3 0.00245828 -4.11406
3528 1 6.44328 26.3002 29.1027 3 0.00637848 -4.10946
3529 1 8.91606 26.3002 29.1027 3 0.00637848 -4.10946
3530 1 7.88793 26.2669 26.7934 3 0.00997197 -4.09174
3531 1 10.3607 26.2669 26.7934 3 0.00997197 -4.09174
3532 1 9.27294 26.2457 24.4793 3 0.0166214 -4.08223
3533 1 11.7457 26.2457 24.4793 3 0.0166214 -4.08223
3534 1 10.658 26.2669 22.1652 3 0.00997198 -4.09174
3535 1 13.1307 26.2669 22.1652 3 0.00997198 -4.09174
3536 1 12.1026 26.3002 19.8559 3 0.00637848 -4.10946
3537 1 14.5754 26.3002 19.8559 3 0.00637848 -4.10946
3538 1 13.6116 26.3104 17.5287 3 0.00245828 -4.11406
3539 1 16.0843 26.3104 17.5287 3 0.00245828 -4.11406
3540 1 15.1526 26.3112 15.193 3 0.000951108 -4.11627
3541 1 17.6253 26.3112 15.193 3 0.000951108 -4.11627
3542 1 16.7087 26.3093 12.8549 3 0.000464591 -4.11763
3543 1 19.1815 26.3093 12.8549 3 0.000464591 -4.11763
3544 1 18.2727 26.307 10.5167 3 0.000271562 -4.11847
3545 1 20.7455 26.307 10.5167 3 0.000271562 -4.11847
3546 1 19.8412 26.3049 8.17893 3 0.000180367 -4.11901
3547 1 22.314 26.3049 8.17893 3 0.000180367 -4.11901
3548 1 21.4125 26.3032 5.84167 3 0.000133537 -4.11936
3549 1 23.8853 26.3032 5.84167 3 0.000133537 -4.11936
3550 1 22.9853 26.3021 3.50483 3 0.000109496 -4.11957
3551 1 25.4581 26.3021 3.50483 3 0.000109496 -4.11957
3552 1 24.559 26.3015 1.16825 3 9.91672e-05 -4.11967
3553 1 27.0318 26.3015 1.16825 3 9.91672e-05 -4.11967
3554 1 1.27962 24.2827 44.2836 3 9.09683e-05 -4.11894
3555 1 0.372078 24.2841 41.9459 3 0.000116215 -4.11866
3556 1 2.84486 24.2841 41.9459 3 0.000116215 -4.11866
3557 1 1.9347 24.2858 39.6081 3 0.000164011 -4.11823
3558 1 4.40749 24.2858 39.6081 3 0.000164011 -4.11823
3559 1 3.49304 24.2874 37.2705 3 0.000260539 -4.11759
3560 1 5.96582 24.2874 37.2705 3 0.000260539 -4.11759
3561 1 5.04424 24.2879 34.9338 3 0.000482604 -4.11663
3562 1 7.51703 24.2879 34.9338 3 0.000482604 -4.11663
3563 1 6.58299 24.2854 32.6002 3 0.00101185 -4.11517
3564 1 9.05577 24.2854 32.6002 3 0.00101185 -4.11517
3565 1 8.09957 24.275 30.2733 3 0.00186199 -4.11259
3566 1 10.5724 24.275 30.2733 3 0.00186199 -4.11259
3567 1 9.58068 24.2507 27.9568 3 0.00236274 -4.10559
3568 1 12.0535 24.2507 27.9568 3 0.00236274 -4.10559
3569 1 11.0288 24.2286 25.64 3 0.0045529 -4.09981
3570 1 13.5016 24.2286 25.64 3 0.0045529 -4.09981
3571 1 12.4627 24.2286 23.3186 3 0.0045529 -4.09981
3572 1 14.9355 24.2286 23.3186 3 0.0045529 -4.09981
3573 1 13.9108 24.2507 21.0019 3 0.00236274 -4.10559
3574 1 16.3836 24.2507 21.0019 3 0.00236274 -4.10559
3575 1 15.3919 24.275 18.6853 3 0.00186199 -4.11259
3576 1 17.8647 24.275 18.6853 3 0.00186199 -4.11259
3577 1 16.9085 24.2854 16.3584 3 0.00101185 -4.11517
3578 1 19.3812 24.2854 16.3584 3 0.00101185 -4.11517
3579 1 18.4472 24.2879 14.0248 3 0.000482604 -4.11663
3580 1 20.92 24.2879 14.0248 3 0.000482604 -4.11663
3581 1 19.9984 24.2874 11.6882 3 0.000260539 -4.11759
3582 1 22.4712 24.2874 11.6882 3 0.000260539 -4.11759
3583 1 21.5567 24.2858 9.35054 3 0.000164011 -4.11823
3584 1 24.0295 24.2858 9.35054 3 0.000164011 -4.11823
3585 1 23.1194 24.2841 7.01272 3 0.000116216 -4.11866
3586 1 25.5922 24.2841 7.01272 3 0.000116216 -4.11866
3587 1 24.6846 24.2827 4.67502 3 9.09683e-05 -4.11894
3588 1 27.1574 24.2827 4.67502 3 9.09683e-05 -4.11894
3589 1 26.2514 24.2818 2.33746 3 7.83887e-05 -4.11909
3590 1 28.7241 24.2818 2.33746 3 7.83887e-05 -4.11909
3591 1 27.8188 24.2815 7.9432e-09 3 7.45992e-05 -4.11914
3592 1 30.2916 24.2815 7.93525e-09 3 7.45992e-05 -4.11914
3593 1 1.39915 22.261 47.7898 3 5.81635e-05 -4.11867
3594 1 0.487885 22.2615 45.4521 3 6.41046e-05 -4.11857
3595 1 2.96067 22.2615 45.4521 3 6.41046e-05 -4.11857
3596 1 2.04817 22.2625 43.1146 3 7.79181e-05 -4.11836
3597 1 4.52096 22.2625 43.1146 3 7.79181e-05 -4.11836
3598 1 3.60618 22.2637 40.7772 3 0.000104555 -4.11804
3599 1 6.07897 22.2637 40.7772 3 0.000104555 -4.11804
3600 1 5.16044 22.2646 38.4403 3 0.000157093 -4.11755
3601 1 7.63322 22.2646 38.4403 3 0.000157093 -4.11755
3602 1 6.70862 22.2642 36.1048 3 0.000266142 -4.11685
3603 1 9.18141 22.2642 36.1048 3 0.000266142 -4.11685
3604 1 8.24692 22.2608 33.7722 3 0.000471623 -4.11582
3605 1 10.7197 22.2608 33.7722 3 0.000471623 -4.11582
3606 1 9.76949 22.2512 31.4446 3 0.000701874 -4.11412
3607 1 12.2423 22.2512 31.4446 3 0.000701874 -4.11412
3608 1 11.27 22.2327 29.1232 3 0.000811247 -4.11062
3609 1 13.7428 22.2327 29.1232 3 0.000811247 -4.11062
3610 1 12.7503 22.2131 26.8028 3 0.00142287 -4.10738
3611 1 15.223 22.2131 26.8028 3 0.00142287 -4.10738
3612 1 14.2185 22.2049 24.4793 3 0.00172072 -4.10623
3613 1 16.6913 22.2049 24.4793 3 0.00172072 -4.10623
3614 1 15.6868 22.2131 22.1558 3 0.00142287 -4.10738
3615 1 18.1595 22.2131 22.1558 3 0.00142287 -4.10738
3616 1 17.167 22.2327 19.8354 3 0.000811247 -4.11062
3617 1 19.6398 22.2327 19.8354 3 0.000811247 -4.11062
3618 1 18.6675 22.2512 17.514 3 0.000701874 -4.11412
3619 1 21.1403 22.2512 17.514 3 0.000701874 -4.11412
3620 1 20.1901 22.2608 15.1864 3 0.000471623 -4.11582
3621 1 22.6629 22.2608 15.1864 3 0.000471623 -4.11582
3622 1 21.7284 22.2642 12.8538 3 0.000266141 -4.11685
3623 1 24.2012 22.2642 12.8538 3 0.000266141 -4.11685
3624 1 23.2766 22.2646 10.5183 3 0.000157093 -4.11755
3625 1 25.7494 22.2646 10.5183 3 0.000157093 -4.11755
3626 1 24.8308 22.2637 8.18147 3 0.000104555 -4.11804
3627 1 27.3036 22.2637 8.18147 3 0.000104555 -4.11804
3628 1 26.3888 22.2625 5.84407 3 7.79181e-05 -4.11836
3629 1 28.8616 22.2625 5.84407 3 7.79181e-05 -4.11836
3630 1 27.9491 22.2615 3.50648 3 6.41046e-05 -4.11857
3631 1 30.4219 22.2615 3.50648 3 6.41046e-05 -4.11857
3632 1 29.5107 22.261 1.16883 3 5.81635e-05 -4.11867
3633 1 31.9834 22.261 1.16883 3 5.81635e-05 -4.11867
3634 1 2.17508 20.2396 46.6214 3 4.80558e-05 -4.11824
3635 1 4.64786 20.2396 46.6214 3 4.80558e-05 -4.11824
3636 1 3.73111 20.2402 44.2843 3 5.54392e-05 -4.1181
3637 1 6.20389 20.2402 44.2843 3 5.54392e-05 -4.1181
3638 1 5.28528 20.2409 41.9475 3 7.05626e-05 -4.11786
3639 1 7.75807 20.2409 41.9475 3 7.05626e-05 -4.11786
3640 1 6.83632 20.2412 39.6115 3 9.97795e-05 -4.11749
3641 1 9.3091 20.2412 39.6115 3 9.97795e-05 -4.11749
3642 1 8.38235 20.2403 37.2769 3 0.000154051 -4.11696
3643 1 10.8551 20.2403 37.2769 3 0.000154051 -4.11696
3644 1 9.92062 20.2367 34.9447 3 0.000237837 -4.1162
3645 1 12.3934 20.2367 34.9447 3 0.000237837 -4.1162
3646 1 11.4475 20.2283 32.6161 3 0.000309047 -4.11501
3647 1 13.9203 20.2283 32.6161 3 0.000309047 -4.11501
3648 1 12.9597 20.2138 30.2916 3 0.000342001 -4.11299
3649 1 15.4325 20.2138 30.2916 3 0.000342001 -4.11299
3650 1 14.4583 20.1974 27.9681 3 0.000541395 -4.11102
3651 1 16.9311 20.1974 27.9681 3 0.000541395 -4.11102
3652 1 15.948 20.1865 25.6426 3 0.000695882 -4.1099
3653 1 18.4208 20.1865 25.6426 3 0.000695882 -4.1099
3654 1 17.4346 20.1865 23.316 3 0.000695882 -4.1099
3655 1 19.9073 20.1865 23.316 3 0.000695882 -4.1099
3656 1 18.9243 20.1974 20.9906 3 0.000541395 -4.11102
3657 1 21.397 20.1974 20.9906 3 0.000541395 -4.11102
3658 1 20.4229 20.2138 18.667 3 0.000342001 -4.11299
3659 1 22.8957 20.2138 18.667 3 0.000342001 -4.11299
3660 1 21.9351 20.2283 16.3425 3 0.000309047 -4.11501
3661 1 24.4079 20.2283 16.3425 3 0.000309047 -4.11501
3662 1 23.462 20.2367 14.014 3 0.000237836 -4.1162
3663 1 25.9347 20.2367 14.014 3 0.000237836 -4.1162
3664 1 25.0002 20.2403 11.6818 3 0.000154051 -4.11696
3665 1 27.473 20.2403 11.6818 3 0.000154051 -4.11696
3666 1 26.5463 20.2412 9.34714 3 9.97795e-05 -4.11749
3667 1 29.0191 20.2412 9.34714 3 9.97795e-05 -4.11749
3668 1 28.0973 20.2409 7.01111 3 7.05627e-05 -4.11786
3669 1 30.5701 20.2409 7.01111 3 7.05627e-05 -4.11786
3670 1 29.6515 20.2402 4.67436 3 5.54392e-05 -4.1181
3671 1 32.1243 20.2402 4.67436 3 5.54392e-05 -4.1181
3672 1 31.2075 20.2396 2.33725 3 4.80558e-05 -4.11824
3673 1 33.6803 20.2396 2.33725 3 4.80558e-05 -4.11824
3674 1 32.7644 20.2394 7.654e-09 3 4.58252e-05 -4.11829
3675 1 35.2372 20.2394 7.65542e-09 3 4.58252e-05 -4.11829
3676 1 3.86731 18.2167 47.7904 3 3.80993e-05 -4.11796
3677 1 6.3401 18.2167 47.7904 3 3.80993e-05 -4.11796
3678 1 5.41954 18.2169 45.454 3 4.16723e-05 -4.11787
3679 1 7.89232 18.2169 45.454 3 4.16723e-05 -4.11787
3680 1 6.97038 18.2172 43.1181 3 4.99255e-05 -4.1177
3681 1 9.44316 18.2172 43.1181 3 4.99255e-05 -4.1177
3682 1 8.51869 18.2172 40.7829 3 6.57171e-05 -4.11742
3683 1 10.9915 18.2172 40.7829 3 6.57171e-05 -4.11742
3684 1 10.063 18.216 38.4489 3 9.22624e-05 -4.11701
3685 1 12.5358 18.216 38.4489 3 9.22624e-05 -4.11701
3686 1 11.6012 18.2126 36.1169 3 0.000127291 -4.11643
3687 1 14.074 18.2126 36.1169 3 0.000127291 -4.11643
3688 1 13.1311 18.2056 33.7876 3 0.000151781 -4.11557
3689 1 15.6039 18.2056 33.7876 3 0.000151781 -4.11557
3690 1 14.6507 18.1942 31.4609 3 0.000165317 -4.11428
3691 1 17.1235 18.1942 31.4609 3 0.000165317 -4.11428
3692 1 16.1607 18.1808 29.135 3 0.000239462 -4.11297
3693 1 18.6335 18.1808 29.135 3 0.000239462 -4.11297
3694 1 17.6641 18.1699 26.8079 3 0.000309455 -4.11207
3695 1 20.1369 18.1699 26.8079 3 0.000309455 -4.11207
3696 1 19.1641 18.1658 24.4793 3 0.000334306 -4.11174
3697 1 21.6369 18.1658 24.4793 3 0.000334306 -4.11174
3698 1 20.6641 18.1699 22.1507 3 0.000309455 -4.11207
3699 1 23.1369 18.1699 22.1507 3 0.000309455 -4.11207
3700 1 22.1674 18.1808 19.8236 3 0.000239462 -4.11297
3701 1 24.6402 18.1808 19.8236 3 0.000239462 -4.11297
3702 1 23.6775 18.1942 17.4978 3 0.000165317 -4.11428
3703 1 26.1502 18.1942 17.4978 3 0.000165317 -4.11428
3704 1 25.1971 18.2056 15.171 3 0.000151781 -4.11557
3705 1 27.6699 18.2056 15.171 3 0.000151781 -4.11557
3706 1 26.7269 18.2126 12.8417 3 0.000127292 -4.11643
3707 1 29.1997 18.2126 12.8417 3 0.000127292 -4.11643
3708 1 28.2652 18.216 10.5097 3 9.22624e-05 -4.11701
3709 1 30.738 18.216 10.5097 3 9.22624e-05 -4.11701
3710 1 29.8095 18.2172 8.17577 3 6.57171e-05 -4.11742
3711 1 32.2822 18.2172 8.17577 3 6.57171e-05 -4.11742
3712 1 31.3578 18.2172 5.84054 3 4.99255e-05 -4.1177
3713 1 33.8306 18.2172 5.84054 3 4.99255e-05 -4.1177
3714 1 32.9086 18.2169 3.50458 3 4.16723e-05 -4.11787
3715 1 35.3814 18.2169 3.50458 3 4.16723e-05 -4.11787
3716 1 34.4608 18.2167 1.16823 3 3.80993e-05 -4.11796
3717 1 36.9336 18.2167 1.16823 3 3.80993e-05 -4.11796
3718 1 7.11249 16.1927 46.6232 3 3.25865e-05 -4.11766
3719 1 9.58528 16.1927 46.6232 3 3.25865e-05 -4.11766
3720 1 8.66031 16.1928 44.2882 3 3.6577e-05 -4.11754
3721 1 11.1331 16.1928 44.2882 3 3.6577e-05 -4.11754
3722 1 10.2062 16.1925 41.9537 3 4.43745e-05 -4.11733
3723 1 12.679 16.1925 41.9537 3 4.43745e-05 -4.11733
3724 1 11.7489 16.1913 39.6204 3 5.67156e-05 -4.11702
3725 1 14.2217 16.1913 39.6204 3 5.67156e-05 -4.11702
3726 1 13.287 16.1884 37.2886 3 7.14129e-05 -4.11657
3727 1 15.7598 16.1884 37.2886 3 7.14129e-05 -4.11657
3728 1 14.8189 16.1827 34.9586 3 8.10424e-05 -4.11593
3729 1 17.2916 16.1827 34.9586 3 8.10424e-05 -4.11593
3730 1 16.3433 16.174 32.6304 3 8.87972e-05 -4.11504
3731 1 18.8161 16.174 32.6304 3 8.87972e-05 -4.11504
3732 1 17.8608 16.1633 30.3028 3 0.000119747 -4.11412
3733 1 20.3336 16.1633 30.3028 3 0.000119747 -4.11412
3734 1 19.3732 16.1536 27.9744 3 0.000151325 -4.1134
3735 1 21.846 16.1536 27.9744 3 0.000151325 -4.1134
3736 1 20.8826 16.1478 25.6446 3 0.000163251 -4.11301
3737 1 23.3554 16.1478 25.6446 3 0.000163251 -4.11301
3738 1 22.3911 16.1478 23.3141 3 0.000163251 -4.11301
3739 1 24.8639 16.1478 23.3141 3 0.000163251 -4.11301
3740 1 23.9005 16.1536 20.9843 3 0.000151325 -4.1134
3741 1 26.3733 16.1536 20.9843 3 0.000151325 -4.1134
3742 1 25.4129 16.1633 18.6558 3 0.000119747 -4.11412
3743 1 27.8857 16.1633 18.6558 3 0.000119747 -4.11412
3744 1 26.9304 16.174 16.3282 3 8.87972e-05 -4.11504
3745 1 29.4032 16.174 16.3282 3 8.87972e-05 -4.11504
3746 1 28.4549 16.1827 14 3 8.10424e-05 -4.11593
3747 1 30.9276 16.1827 14 3 8.10424e-05 -4.11593
3748 1 29.9867 16.1884 11.6701 3 7.1413e-05 -4.11657
3749 1 32.4595 16.1884 11.6701 3 7.1413e-05 -4.11657
3750 1 31.5248 16.1913 9.33825 3 5.67156e-05 -4.11702
3751 1 33.9976 16.1913 9.33825 3 5.67156e-05 -4.11702
3752 1 33.0675 16.1925 7.00489 3 4.43745e-05 -4.11733
3753 1 35.5403 16.1925 7.00489 3 4.43745e-05 -4.11733
3754 1 34.6134 16.1928 4.67046 3 3.6577e-05 -4.11754
3755 1 37.0862 16.1928 4.67046 3 3.6577e-05 -4.11754
3756 1 36.1612 16.1927 2.33538 3 3.25865e-05 -4.11766
3757 1 38.634 16.1927 2.33538 3 3.25865e-05 -4.11766
3758 1 37.71 16.1927 7.38662e-09 3 3.13416e-05 -4.1177
3759 1 40.1827 16.1927 7.35406e-09 3 3.13416e-05 -4.1177
3760 1 8.80927 14.1675 47.7915 3 2.60015e-05 -4.11745
3761 1 11.282 14.1675 47.7915 3 2.60015e-05 -4.11745
3762 1 10.3543 14.1674 45.4574 3 2.74318e-05 -4.11738
3763 1 12.827 14.1674 45.4574 3 2.74318e-05 -4.11738
3764 1 11.8979 14.167 43.1237 3 3.05819e-05 -4.11723
3765 1 14.3707 14.167 43.1237 3 3.05819e-05 -4.11723
3766 1 13.4392 14.166 40.7909 3 3.56114e-05 -4.11699
3767 1 15.912 14.166 40.7909 3 3.56114e-05 -4.11699
3768 1 14.9769 14.1636 38.4592 3 4.15637e-05 -4.11665
3769 1 17.4497 14.1636 38.4592 3 4.15637e-05 -4.11665
3770 1 16.51 14.1593 36.1289 3 4.62847e-05 -4.11616
3771 1 18.9828 14.1593 36.1289 3 4.62847e-05 -4.11616
3772 1 18.0377 14.1528 33.7998 3 5.23261e-05 -4.11553
3773 1 20.5105 14.1528 33.7998 3 5.23261e-05 -4.11553
3774 1 19.5602 14.1447 31.471 3 6.74147e-05 -4.11484
3775 1 22.033 14.1447 31.471 3 6.74147e-05 -4.11484
3776 1 21.0787 14.1367 29.1415 3 8.12689e-05 -4.11426
3777 1 23.5515 14.1367 29.1415 3 8.12689e-05 -4.11426
3778 1 22.5947 14.1309 26.8109 3 8.36351e-05 -4.11388
3779 1 25.0675 14.1309 26.8109 3 8.36351e-05 -4.11388
3780 1 24.1096 14.1288 24.4793 3 8.17936e-05 -4.11375
3781 1 26.5824 14.1288 24.4793 3 8.17936e-05 -4.11375
3782 1 25.6245 14.1309 22.1477 3 8.36351e-05 -4.11388
3783 1 28.0973 14.1309 22.1477 3 8.36351e-05 -4.11388
3784 1 27.1406 14.1367 19.8171 3 8.12689e-05 -4.11426
3785 1 29.6133 14.1367 19.8171 3 8.12689e-05 -4.11426
3786 1 28.6591 14.1447 17.4876 3 6.74147e-05 -4.11484
3787 1 31.1318 14.1447 17.4876 3 6.74147e-05 -4.11484
3788 1 30.1816 14.1528 15.1588 3 5.23261e-05 -4.11553
3789 1 32.6544 14.1528 15.1588 3 5.23261e-05 -4.11553
3790 1 31.7093 14.1593 12.8297 3 4.62847e-05 -4.11616
3791 1 34.1821 14.1593 12.8297 3 4.62847e-05 -4.11616
3792 1 33.2424 14.1636 10.4994 3 4.15638e-05 -4.11665
3793 1 35.7151 14.1636 10.4994 3 4.15638e-05 -4.11665
3794 1 34.7801 14.166 8.16773 3 3.56115e-05 -4.11699
3795 1 37.2529 14.166 8.16773 3 3.56115e-05 -4.11699
3796 1 36.3214 14.167 5.83492 3 3.05818e-05 -4.11723
3797 1 38.7942 14.167 5.83492 3 3.05818e-05 -4.11723
3798 1 37.865 14.1674 3.50127 3 2.74318e-05 -4.11738
3799 1 40.3378 14.1674 3.50127 3 2.74318e-05 -4.11738
3800 1 39.41 14.1675 1.16714 3 2.60015e-05 -4.11745
3801 1 41.8828 14.1675 1.16714 3 2.60015e-05 -4.11745
3802 1 12.0516 12.1411 46.6254 3 2.08718e-05 -4.11721
3803 1 14.5244 12.1411 46.6254 3 2.08718e-05 -4.11721
3804 1 13.5931 12.1407 44.2926 3 2.14783e-05 -4.11711
3805 1 16.0659 12.1407 44.2926 3 2.14783e-05 -4.11711
3806 1 15.1329 12.1399 41.9603 3 2.27765e-05 -4.11694
3807 1 17.6057 12.1399 41.9603 3 2.27765e-05 -4.11694
3808 1 16.6701 12.1382 39.6288 3 2.48704e-05 -4.11668
3809 1 19.1429 12.1382 39.6288 3 2.48704e-05 -4.11668
3810 1 18.204 12.1352 37.2983 3 2.80027e-05 -4.11632
3811 1 20.6767 12.1352 37.2983 3 2.80027e-05 -4.11632
3812 1 19.7338 12.1306 34.9685 3 3.3698e-05 -4.11585
3813 1 22.2066 12.1306 34.9685 3 3.3698e-05 -4.11585
3814 1 21.2598 12.1249 32.6389 3 4.29304e-05 -4.11534
3815 1 23.7326 12.1249 32.6389 3 4.29304e-05 -4.11534
3816 1 22.7826 12.1189 30.3088 3 4.8972e-05 -4.11486
3817 1 25.2553 12.1189 30.3088 3 4.8972e-05 -4.11486
3818 1 24.3032 12.114 27.9776 3 4.63183e-05 -4.1145
3819 1 26.776 12.114 27.9776 3 4.63183e-05 -4.1145
3820 1 25.8228 12.1112 25.6455 3 4.04781e-05 -4.11431
3821 1 28.2956 12.1112 25.6455 3 4.04781e-05 -4.11431
3822 1 27.342 12.1112 23.3131 3 4.04781e-05 -4.11431
3823 1 29.8148 12.1112 23.3131 3 4.04781e-05 -4.11431
3824 1 28.8616 12.114 20.981 3 4.63183e-05 -4.1145
3825 1 31.3344 12.114 20.981 3 4.63182e-05 -4.1145
3826 1 30.3823 12.1189 18.6499 3 4.8972e-05 -4.11486
3827 1 32.8551 12.1189 18.6499 3 4.8972e-05 -4.11486
3828 1 31.9051 12.1249 16.3197 3 4.29304e-05 -4.11534
3829 1 34.3779 12.1249 16.3197 3 4.29304e-05 -4.11534
3830 1 33.4311 12.1306 13.9902 3 3.36981e-05 -4.11585
3831 1 35.9038 12.1306 13.9902 3 3.36981e-05 -4.11585
3832 1 34.9609 12.1352 11.6604 3 2.80028e-05 -4.11632
3833 1 37.4337 12.1352 11.6604 3 2.80028e-05 -4.11632
3834 1 36.4947 12.1382 9.32983 3 2.48705e-05 -4.11668
3835 1 38.9675 12.1382 9.32983 3 2.48705e-05 -4.11668
3836 1 38.032 12.1399 6.99836 3 2.27765e-05 -4.11694
3837 1 40.5047 12.1399 6.99836 3 2.27765e-05 -4.11694
3838 1 39.5718 12.1407 4.66607 3 2.14783e-05 -4.11711
3839 1 42.0445 12.1407 4.66607 3 2.14783e-05 -4.11711
3840 1 41.1132 12.1411 2.33318 3 2.08718e-05 -4.11721
3841 1 43.586 12.1411 2.33318 3 2.08718e-05 -4.11721
3842 1 42.6555 12.1412 6.18571e-09 3 2.06877e-05 -4.11724
3843 1 45.1283 12.1412 6.06828e-09 3 2.06877e-05 -4.11724
3844 1 13.7519 10.1138 47.7925 3 1.59529e-05 -4.11702
3845 1 16.2247 10.1138 47.7925 3 1.59529e-05 -4.11702
3846 1 15.2913 10.1136 45.4603 3 1.54783e-05 -4.11697
3847 1 17.764 10.1136 45.4603 3 1.54783e-05 -4.11697
3848 1 16.8295 10.1131 43.1284 3 1.49876e-05 -4.11685
3849 1 19.3023 10.1131 43.1284 3 1.49876e-05 -4.11685
3850 1 18.3661 10.1119 40.7971 3 1.53535e-05 -4.11667
3851 1 20.8388 10.1119 40.7971 3 1.53535e-05 -4.11667
3852 1 19.9002 10.1101 38.4664 3 1.79658e-05 -4.11641
3853 1 22.373 10.1101 38.4664 3 1.79658e-05 -4.11641
3854 1 21.4315 10.1072 36.1361 3 2.37569e-05 -4.11607
3855 1 23.9043 10.1072 36.1361 3 2.37569e-05 -4.11607
3856 1 22.9599 10.1037 33.806 3 3.09937e-05 -4.11568
3857 1 25.4326 10.1037 33.806 3 3.09937e-05 -4.11568
3858 1 24.4857 10.0998 31.4755 3 3.39978e-05 -4.11529
3859 1 26.9585 10.0998 31.4755 3 3.39978e-05 -4.11529
3860 1 26.0098 10.0963 29.1441 3 2.94958e-05 -4.11497
3861 1 28.4826 10.0963 29.1441 3 2.94959e-05 -4.11497
3862 1 27.5328 10.0939 26.812 3 2.15714e-05 -4.11475
3863 1 30.0055 10.0939 26.812 3 2.15714e-05 -4.11475
3864 1 29.0552 10.0931 24.4793 3 1.77539e-05 -4.11468
3865 1 31.528 10.0931 24.4793 3 1.77539e-05 -4.11468
3866 1 30.5777 10.0939 22.1466 3 2.15714e-05 -4.11475
3867 1 33.0504 10.0939 22.1466 3 2.15714e-05 -4.11475
3868 1 32.1006 10.0963 19.8145 3 2.94958e-05 -4.11497
3869 1 34.5734 10.0963 19.8145 3 2.94958e-05 -4.11497
3870 1 33.6247 10.0998 17.4832 3 3.39978e-05 -4.11529
3871 1 36.0975 10.0998 17.4832 3 3.39978e-05 -4.11529
3872 1 35.1506 10.1037 15.1526 3 3.09937e-05 -4.11568
3873 1 37.6234 10.1037 15.1526 3 3.09937e-05 -4.11568
3874 1 36.679 10.1072 12.8225 3 2.37569e-05 -4.11607
3875 1 39.1517 10.1072 12.8225 3 2.37569e-05 -4.11607
3876 1 38.2102 10.1101 10.4922 3 1.79658e-05 -4.11641
3877 1 40.683 10.1101 10.4922 3 1.79658e-05 -4.11641
3878 1 39.7444 10.1119 8.16153 3 1.53536e-05 -4.11667
3879 1 42.2171 10.1119 8.16153 3 1.53536e-05 -4.11667
3880 1 41.2809 10.1131 5.83022 3 1.49876e-05 -4.11685
3881 1 43.7537 10.1131 5.83022 3 1.49876e-05 -4.11685
3882 1 42.8192 10.1136 3.49837 3 1.54783e-05 -4.11697
3883 1 45.2919 10.1136 3.49837 3 1.54783e-05 -4.11697
3884 1 44.3585 10.1138 1.16616 3 1.59529e-05 -4.11702
3885 1 46.8313 10.1138 1.16616 3 1.59529e-05 -4.11702
3886 1 16.992 8.0857 46.627 3 1.16e-05 -4.11731
3887 1 19.4648 8.0857 46.627 3 1.16e-05 -4.11731
3888 1 18.5287 8.08542 44.2954 3 1.05633e-05 -4.11722
3889 1 21.0015 8.08542 44.2954 3 1.05633e-05 -4.11722
3890 1 20.0643 8.08489 41.9642 3 1.03532e-05 -4.11706
3891 1 22.537 8.08489 41.9642 3 1.03533e-05 -4.11706
3892 1 21.5983 8.084 39.6332 3 1.28943e-05 -4.11683
3893 1 24.0711 8.084 39.6332 3 1.28943e-05 -4.11683
3894 1 23.1305 8.0827 37.3025 3 1.88848e-05 -4.11652
3895 1 25.6032 8.0827 37.3025 3 1.88848e-05 -4.11652
3896 1 24.6606 8.08102 34.9719 3 2.55864e-05 -4.11616
3897 1 27.1334 8.08102 34.9719 3 2.55864e-05 -4.11616
3898 1 26.1888 8.07917 32.641 3 2.77711e-05 -4.11577
3899 1 28.6615 8.07917 32.641 3 2.77711e-05 -4.11577
3900 1 27.7154 8.07741 30.3097 3 2.32113e-05 -4.11542
3901 1 30.1882 8.07741 30.3097 3 2.32112e-05 -4.11542
3902 1 29.2409 8.07606 27.9778 3 1.53105e-05 -4.11515
3903 1 31.7136 8.07606 27.9778 3 1.53105e-05 -4.11515
3904 1 30.7657 8.07532 25.6455 3 9.6003e-06 -4.115
3905 1 33.2385 8.07532 25.6455 3 9.6003e-06 -4.115
3906 1 32.2903 8.07532 23.3131 3 9.6003e-06 -4.115
3907 1 34.7631 8.07532 23.3131 3 9.60026e-06 -4.115
3908 1 33.8151 8.07606 20.9808 3 1.53104e-05 -4.11515
3909 1 36.2879 8.07606 20.9808 3 1.53105e-05 -4.11515
3910 1 35.3406 8.07741 18.6489 3 2.32112e-05 -4.11542
3911 1 37.8134 8.07741 18.6489 3 2.32112e-05 -4.11542
3912 1 36.8672 8.07917 16.3176 3 2.77711e-05 -4.11577
3913 1 39.34 8.07917 16.3176 3 2.77711e-05 -4.11577
3914 1 38.3954 8.08102 13.9867 3 2.55864e-05 -4.11616
3915 1 40.8682 8.08102 13.9867 3 2.55865e-05 -4.11616
3916 1 39.9255 8.0827 11.6561 3 1.88849e-05 -4.11652
3917 1 42.3983 8.0827 11.6561 3 1.88849e-05 -4.11652
3918 1 41.4577 8.084 9.3254 3 1.28943e-05 -4.11683
3919 1 43.9305 8.084 9.3254 3 1.28943e-05 -4.11683
3920 1 42.9917 8.08489 6.99446 3 1.03533e-05 -4.11706
3921 1 45.4645 8.08489 6.99446 3 1.03533e-05 -4.11706
3922 1 44.5273 8.08542 4.66319 3 1.05633e-05 -4.11722
3923 1 47.0001 8.08542 4.66319 3 1.05633e-05 -4.11722
3924 1 46.0639 8.0857 2.33167 3 1.16e-05 -4.11731
3925 1 48.5367 8.0857 2.33167 3 1.16e-05 -4.11731
3926 1 47.6011 8.08578 3.07182e-09 3 1.20963e-05 -4.11734
3927 1 50.0739 8.08578 3.07935e-09 3 1.20964e-05 -4.11734
3928 1 18.6952 6.05706 47.7929 3 0.000192152 -4.11661
3929 1 21.168 6.05706 47.7929 3 0.000192152 -4.11661
3930 1 20.23 6.05706 45.4616 3 0.000190055 -4.11656
3931 1 22.7028 6.05706 45.4616 3 0.000190055 -4.11656
3932 1 21.7644 6.05706 43.1302 3 0.000182135 -4.11648
3933 1 24.2372 6.05706 43.1302 3 0.000182136 -4.11648
3934 1 23.2979 6.05706 40.7989 3 0.000163309 -4.11634
3935 1 25.7707 6.05706 40.7989 3 0.000163309 -4.11634
3936 1 24.8304 6.05706 38.4675 3 0.000131568 -4.11616
3937 1 27.3032 6.05706 38.4675 3 0.000131568 -4.11616
3938 1 26.3617 6.05706 36.1361 3 9.19266e-05 -4.11595
3939 1 28.8345 6.05706 36.1361 3 9.19268e-05 -4.11595
3940 1 27.8916 6.05706 33.8048 3 5.4706e-05 -4.11573
3941 1 30.3644 6.05706 33.8048 3 5.4706e-05 -4.11573
3942 1 29.4203 6.05706 31.4734 3 2.81608e-05 -4.11553
3943 1 31.8931 6.05706 31.4734 3 2.81608e-05 -4.11553
3944 1 30.9478 6.05706 29.142 3 1.34713e-05 -4.11537
3945 1 33.4206 6.05706 29.142 3 1.34713e-05 -4.11537
3946 1 32.4745 6.05706 26.8107 3 7.01598e-06 -4.11526
3947 1 34.9473 6.05706 26.8107 3 7.016e-06 -4.11526
3948 1 34.0008 6.05706 24.4793 3 5.26908e-06 -4.11523
3949 1 36.4736 6.05706 24.4793 3 5.26906e-06 -4.11523
3950 1 35.527 6.05706 22.1479 3 7.0161e-06 -4.11526
3951 1 37.9998 6.05706 22.1479 3 7.01613e-06 -4.11526
3952 1 37.0537 6.05706 19.8166 3 1.34715e-05 -4.11537
3953 1 39.5265 6.05706 19.8166 3 1.34715e-05 -4.11537
3954 1 38.5813 6.05706 17.4852 3 2.81612e-05 -4.11553
3955 1 41.0541 6.05706 17.4852 3 2.81612e-05 -4.11553
3956 1 40.1099 6.05706 15.1539 3 5.47064e-05 -4.11573
3957 1 42.5827 6.05706 15.1539 3 5.47065e-05 -4.11573
3958 1 41.6399 6.05706 12.8225 3 9.19273e-05 -4.11595
3959 1 44.1126 6.05706 12.8225 3 9.19272e-05 -4.11595
3960 1 43.1711 6.05706 10.4911 3 0.000131569 -4.11616
3961 1 45.6439 6.05706 10.4911 3 0.000131569 -4.11616
3962 1 44.7036 6.05706 8.15977 3 0.000163309 -4.11634
3963 1 47.1764 6.05706 8.15977 3 0.000163309 -4.11634
3964 1 46.2372 6.05706 5.82841 3 0.000182136 -4.11648
3965 1 48.71 6.05706 5.82841 3 0.000182136 -4.11648
3966 1 47.7715 6.05706 3.49704 3 0.000190055 -4.11656
3967 1 50.2443 6.05706 3.49704 3 0.000190055 -4.11656
3968 1 49.3064 6.05706 1.16568 3 0.000192152 -4.11661
3969 1 51.7792 6.05706 1.16568 3 0.000192152 -4.11661
3970 1 21.9345 4.03804 46.6273 3 1.41684e-06 -4.11576
3971 1 24.4073 4.03804 46.6273 3 1.41686e-06 -4.11576
3972 1 23.4683 4.03804 44.2959 3 1.43101e-06 -4.11573
3973 1 25.9411 4.03804 44.2959 3 1.43102e-06 -4.11573
3974 1 25.0015 4.03804 41.9645 3 1.45411e-06 -4.11568
3975 1 27.4743 4.03804 41.9645 3 1.4541e-06 -4.11568
3976 1 26.5341 4.03804 39.6332 3 1.48585e-06 -4.11564
3977 1 29.0068 4.03804 39.6332 3 1.48587e-06 -4.11564
3978 1 28.0657 4.03804 37.3018 3 1.52672e-06 -4.11559
3979 1 30.5385 4.03804 37.3018 3 1.52673e-06 -4.11559
3980 1 29.5963 4.03804 34.9704 3 1.57729e-06 -4.11556
3981 1 32.0691 4.03804 34.9704 3 1.57732e-06 -4.11556
3982 1 31.1259 4.03804 32.6391 3 1.63654e-06 -4.11554
3983 1 33.5987 4.03804 32.6391 3 1.63654e-06 -4.11554
3984 1 32.6546 4.03804 30.3077 3 1.69894e-06 -4.11552
3985 1 35.1273 4.03804 30.3077 3 1.69894e-06 -4.11552
3986 1 34.1825 4.03804 27.9764 3 1.75327e-06 -4.11552
3987 1 36.6553 4.03804 27.9764 3 1.75327e-06 -4.11552
3988 1 35.7099 4.03804 25.645 3 1.78548e-06 -4.11551
3989 1 38.1827 4.03804 25.645 3 1.78548e-06 -4.11551
3990 1 37.2372 4.03804 23.3136 3 1.78548e-06 -4.11551
3991 1 39.71 4.03804 23.3136 3 1.7855e-06 -4.11551
3992 1 38.7646 4.03804 20.9823 3 1.75326e-06 -4.11552
3993 1 41.2374 4.03804 20.9823 3 1.75326e-06 -4.11552
3994 1 40.2926 4.03804 18.6509 3 1.69894e-06 -4.11552
3995 1 42.7654 4.03804 18.6509 3 1.69894e-06 -4.11552
3996 1 41.8212 4.03804 16.3195 3 1.63654e-06 -4.11554
3997 1 44.294 4.03804 16.3195 3 1.63652e-06 -4.11554
3998 1 43.3508 4.03804 13.9882 3 1.57733e-06 -4.11556
3999 1 45.8236 4.03804 13.9882 3 1.57731e-06 -4.11556
4000 1 44.8815 4.03804 11.6568 3 1.52674e-06 -4.11559
4001 1 47.3542 4.03804 11.6568 3 1.52674e-06 -4.11559
4002 1 46.4131 4.03804 9.32545 3 1.48585e-06 -4.11564
4003 1 48.8859 4.03804 9.32545 3 1.48585e-06 -4.11564
4004 1 47.9456 4.03804 6.99409 3 1.4541e-06 -4.11568
4005 1 50.4184 4.03804 6.99409 3 1.45407e-06 -4.11568
4006 1 49.4788 4.03804 4.66273 3 1.43103e-06 -4.11573
4007 1 51.9516 4.03804 4.66273 3 1.43103e-06 -4.11573
4008 1 51.0126 4.03804 2.33136 3 1.41682e-06 -4.11576
4009 1 53.4854 4.03804 2.33136 3 1.41686e-06 -4.11576
4010 1 52.5467 4.03804 0 3 1.41207e-06 -4.11577
4011 1 55.0194 4.03804 0 3 1.41204e-06 -4.11577
4012 1 23.6399 2.01902 47.7929 3 8.63869e-07 -4.10005
4013 1 26.1127 2.01902 47.7929 3 8.63883e-07 -4.10005
4014 1 25.1732 2.01902 45.4616 3 8.67515e-07 -4.10002
4015 1 27.6459 2.01902 45.4616 3 8.67506e-07 -4.10002
4016 1 26.7061 2.01902 43.1302 3 8.74829e-07 -4.09998
4017 1 29.1789 2.01902 43.1302 3 8.74829e-07 -4.09998
4018 1 28.2385 2.01902 40.7989 3 8.86011e-07 -4.09991
4019 1 30.7113 2.01902 40.7989 3 8.86012e-07 -4.09991
4020 1 29.7703 2.01902 38.4675 3 9.01634e-07 -4.09983
4021 1 32.243 2.01902 38.4675 3 9.01619e-07 -4.09983
4022 1 31.3013 2.01902 36.1361 3 9.22391e-07 -4.09974
4023 1 33.7741 2.01902 36.1361 3 9.22383e-07 -4.09974
4024 1 32.8315 2.01902 33.8048 3 9.48466e-07 -4.09964
4025 1 35.3043 2.01902 33.8048 3 9.48475e-07 -4.09964
4026 1 34.361 2.01902 31.4734 3 9.78204e-07 -4.09956
4027 1 36.8338 2.01902 31.4734 3 9.78174e-07 -4.09956
4028 1 35.8899 2.01902 29.142 3 1.00712e-06 -4.09949
4029 1 38.3626 2.01902 29.142 3 1.00713e-06 -4.09949
4030 1 37.4182 2.01902 26.8107 3 1.02868e-06 -4.09945
4031 1 39.891 2.01902 26.8107 3 1.02868e-06 -4.09945
4032 1 38.9463 2.01902 24.4793 3 1.03671e-06 -4.09944
4033 1 41.4191 2.01902 24.4793 3 1.03671e-06 -4.09944
4034 1 40.4745 2.01902 22.1479 3 1.02869e-06 -4.09945
4035 1 42.9473 2.01902 22.1479 3 1.02867e-06 -4.09945
4036 1 42.0028 2.01902 19.8166 3 1.00712e-06 -4.09949
4037 1 44.4756 2.01902 19.8166 3 1.00713e-06 -4.09949
4038 1 43.5317 2.01902 17.4852 3 9.78176e-07 -4.09956
4039 1 46.0045 2.01902 17.4852 3 9.78204e-07 -4.09956
4040 1 45.0612 2.01902 15.1539 3 9.48463e-07 -4.09964
4041 1 47.534 2.01902 15.1539 3 9.48478e-07 -4.09964
4042 1 46.5914 2.01902 12.8225 3 9.22399e-07 -4.09974
4043 1 49.0642 2.01902 12.8225 3 9.22375e-07 -4.09974
4044 1 48.1224 2.01902 10.4911 3 9.0163e-07 -4.09983
4045 1 50.5952 2.01902 10.4911 3 9.01623e-07 -4.09983
4046 1 49.6542 2.01902 8.15977 3 8.86011e-07 -4.09991
4047 1 52.127 2.01902 8.15977 3 8.86025e-07 -4.09991
4048 1 51.1866 2.01902 5.82841 3 8.74814e-07 -4.09998
4049 1 53.6594 2.01902 5.82841 3 8.74829e-07 -4.09998
4050 1 52.7195 2.01902 3.49704 3 8.67521e-07 -4.10002
4051 1 55.1923 2.01902 3.49704 3 8.67506e-07 -4.10002
4052 1 54.2528 2.01902 1.16568 3 8.63883e-07 -4.10005
4053 1 56.7256 2.01902 1.16568 3 8.63869e-07 -4.10005
4054 1 26.8788 0 46.6273 5 6.02137 -3.54885
4055 1 29.3516 0 46.6273 5 6.02137 -3.54885
4056 1 28.4114 0 44.2959 5 6.02059 -3.54884
4057 1 30.8841 0 44.2959 5 6.02059 -3.54884
4058 1 29.9436 0 41.9645 5 6.01984 -3.54882
4059 1 32.4164 0 41.9645 5 6.01984 -3.54882
4060 1 31.4754 0 39.6332 5 6.0192 -3.5488
4061 1 33.9482 0 39.6332 5 6.0192 -3.5488
4062 1 33.0067 0 37.3018 5 6.01871 -3.54878
4063 1 35.4794 0 37.3018 5 6.01871 -3.54878
4064 1 34.5373 0 34.9704 5 6.01843 -3.54876
4065 1 37.0101 0 34.9704 5 6.01843 -3.54876
4066 1 36.0674 0 32.6391 5 6.01838 -3.54873
4067 1 38.5402 0 32.6391 5 6.01838 -3.54873
4068 1 37.5969 0 30.3077 5 6.01858 -3.54871
4069 1 40.0697 0 30.3077 5 6.01858 -3.54871
4070 1 39.126 0 27.9764 5 6.01902 -3.5487
4071 1 41.5988 0 27.9764 5 6.01902 -3.5487
4072 1 40.6548 0 25.645 5 6.01964 -3.54869
4073 1 43.1276 0 25.645 5 6.01964 -3.54869
4074 1 42.1835 0 23.3136 5 6.01964 -3.54869
4075 1 44.6563 0 23.3136 5 6.01964 -3.54869
4076 1 43.7123 0 20.9823 5 6.01902 -3.5487
4077 1 46.1851 0 20.9823 5 6.01902 -3.5487
4078 1 45.2414 0 18.6509 5 6.01858 -3.54871
4079 1 47.7142 0 18.6509 5 6.01858 -3.54871
4080 1 46.7709 0 16.3195 5 6.01838 -3.54873
4081 1 49.2437 0 16.3195 5 6.01838 -3.54873
4082 1 48.301 0 13.9882 5 6.01843 -3.54876
4083 1 50.7737 0 13.9882 5 6.01843 -3.54876
4084 1 49.8316 0 11.6568 5 6.01871 -3.54878
4085 1 52.3044 0 11.6568 5 6.01871 -3.54878
4086 1 51.3629 0 9.32545 5 6.0192 -3.5488
4087 1 53.8356 0 9.32545 5 6.0192 -3.5488
4088 1 52.8947 0 6.99409 5 6.01984 -3.54882
4089 1 55.3674 0 6.99409 5 6.01984 -3.54882
4090 1 54.4269 0 4.66273 5 6.02059 -3.54884
4091 1 56.8997 0 4.66273 5 6.02059 -3.54884
4092 1 55.9595 0 2.33136 5 6.02137 -3.54885
4093 1 58.4323 0 2.33136 5 6.02137 -3.54885
4094 1 57.4922 0 0 5 6.02212 -3.54885
4095 1 59.965 0 0 5 6.02212 -3.54885
4096 1 1.44925 52.5183 2.33117 3 7.52735e-06 -4.12216
4097 1 0.618196 52.5186 48.9586 3 7.22158e-06 -4.12216
4098 1 3.09098 52.5186 48.9586 3 7.22158e-06 -4.12216
4099 1 1.46232 50.5048 5.82678 3 1.38767e-05 -4.12217
4100 1 0.63092 50.5062 3.49585 3 1.26248e-05 -4.12216
4101 1 3.1037 50.5062 3.49585 3 1.26248e-05 -4.12216
4102 1 2.27109 50.5068 1.16525 3 1.18952e-05 -4.12215
4103 1 4.74388 50.5068 1.16525 3 1.18952e-05 -4.12215
4104 1 1.47724 48.4881 9.32123 3 2.41335e-05 -4.12217
4105 1 0.647436 48.4913 6.99006 3 2.20453e-05 -4.12215
4106 1 3.12022 48.4913 6.99006 3 2.20453e-05 -4.12215
4107 1 2.28773 48.4932 4.6596 3 1.96273e-05 -4.12214
4108 1 4.76052 48.4932 4.6596 3 1.96273e-05 -4.12214
4109 1 3.9262 48.4942 2.32967 3 1.78386e-05 -4.12214
4110 1 6.39899 48.4942 2.32967 3 1.78386e-05 -4.12214
4111 1 5.56376 48.4945 48.9586 3 1.72512e-05 -4.12214
4112 1 8.03655 48.4945 48.9586 3 1.72512e-05 -4.12214
4113 1 1.49099 46.467 12.8155 3 3.92759e-05 -4.12218
4114 1 0.665479 46.4731 10.4833 3 3.8725e-05 -4.12212
4115 1 3.13826 46.4731 10.4833 3 3.8725e-05 -4.12212
4116 1 2.30826 46.4771 8.15231 3 3.46057e-05 -4.1221
4117 1 4.78104 46.4771 8.15231 3 3.46057e-05 -4.1221
4118 1 3.94743 46.4794 5.82233 3 2.95039e-05 -4.12211
4119 1 6.42021 46.4794 5.82233 3 2.95039e-05 -4.12211
4120 1 5.58407 46.4807 3.4931 3 2.56145e-05 -4.12212
4121 1 8.05685 46.4807 3.4931 3 2.56145e-05 -4.12212
4122 1 7.21922 46.4812 1.16432 3 2.36101e-05 -4.12212
4123 1 9.692 46.4812 1.16432 3 2.36101e-05 -4.12212
4124 1 1.49853 44.44 16.3109 3 6.90114e-05 -4.12229
4125 1 0.681015 44.4501 13.9771 3 6.6379e-05 -4.12208
4126 1 3.1538 44.4501 13.9771 3 6.6379e-05 -4.12208
4127 1 2.32981 44.4575 11.6445 3 6.50011e-05 -4.12201
4128 1 4.8026 44.4575 11.6445 3 6.50011e-05 -4.12201
4129 1 3.9726 44.4622 9.31364 3 5.52162e-05 -4.12202
4130 1 6.44538 44.4622 9.31364 3 5.52162e-05 -4.12202
4131 1 5.61063 44.4648 6.9841 3 4.42897e-05 -4.12205
4132 1 8.08342 44.4648 6.9841 3 4.42897e-05 -4.12205
4133 1 7.24529 44.4662 4.65555 3 3.62616e-05 -4.12207
4134 1 9.71807 44.4662 4.65555 3 3.62616e-05 -4.12207
4135 1 8.87782 44.4667 2.32763 3 3.16705e-05 -4.12209
4136 1 11.3506 44.4667 2.32763 3 3.16705e-05 -4.12209
4137 1 10.5093 44.4669 48.9586 3 3.02465e-05 -4.1221
4138 1 12.9821 44.4669 48.9586 3 3.02465e-05 -4.1221
4139 1 1.49265 42.408 19.8085 3 0.000154237 -4.12225
4140 1 0.686823 42.4205 17.4732 3 0.000131069 -4.12226
4141 1 3.15961 42.4205 17.4732 3 0.000131069 -4.12226
4142 1 2.34695 42.4328 15.1382 3 0.000121899 -4.12189
4143 1 4.81974 42.4328 15.1382 3 0.000121899 -4.12189
4144 1 3.99818 42.4416 12.8051 3 0.000115746 -4.12183
4145 1 6.47096 42.4416 12.8051 3 0.000115746 -4.12183
4146 1 5.64126 42.4468 10.4743 3 9.11994e-05 -4.12188
4147 1 8.11405 42.4468 10.4743 3 9.11994e-05 -4.12188
4148 1 7.27812 42.4495 8.14516 3 6.79327e-05 -4.12195
4149 1 9.7509 42.4495 8.14516 3 6.79327e-05 -4.12195
4150 1 8.9106 42.4508 5.81726 3 5.21401e-05 -4.122
4151 1 11.3834 42.4508 5.81726 3 5.21401e-05 -4.122
4152 1 10.5403 42.4513 3.4901 3 4.29685e-05 -4.12203
4153 1 13.013 42.4513 3.4901 3 4.29685e-05 -4.12203
4154 1 12.1683 42.4514 1.16333 3 3.88216e-05 -4.12204
4155 1 14.6411 42.4514 1.16333 3 3.88216e-05 -4.12204
4156 1 1.46152 40.3784 23.3103 3 0.000523821 -4.12257
4157 1 0.672548 40.3872 20.9725 3 0.000307363 -4.122
4158 1 3.14533 40.3872 20.9725 3 0.000307363 -4.122
4159 1 2.34893 40.4005 18.6358 3 0.000290858 -4.12227
4160 1 4.82171 40.4005 18.6358 3 0.000290858 -4.12227
4161 1 4.01666 40.4155 16.2992 3 0.000248953 -4.12152
4162 1 6.48945 40.4155 16.2992 3 0.000248953 -4.12152
4163 1 5.67164 40.4256 13.9654 3 0.000221816 -4.1215
4164 1 8.14442 40.4256 13.9654 3 0.000221816 -4.1215
4165 1 7.31538 40.431 11.6346 3 0.000158298 -4.12165
4166 1 9.78817 40.431 11.6346 3 0.000158298 -4.12165
4167 1 8.95095 40.4336 9.306 3 0.000108536 -4.12178
4168 1 11.4237 40.4336 9.306 3 0.000108536 -4.12178
4169 1 10.581 40.4346 6.97871 3 7.80201e-05 -4.12187
4170 1 13.0538 40.4346 6.97871 3 7.80201e-05 -4.12187
4171 1 12.2074 40.4348 4.65217 3 6.06629e-05 -4.12193
4172 1 14.6802 40.4348 4.65217 3 6.06629e-05 -4.12193
4173 1 13.8317 40.4348 2.326 3 5.18024e-05 -4.12196
4174 1 16.3044 40.4348 2.326 3 5.18024e-05 -4.12196
4175 1 15.4549 40.4348 48.9586 3 4.90573e-05 -4.12197
4176 1 17.9277 40.4348 48.9586 3 4.90573e-05 -4.12197
4177 1 1.38898 38.3679 26.8212 3 0.000708783 -4.12138
4178 1 0.618196 38.3626 24.4793 3 0.00124499 -4.12296
4179 1 3.09098 38.3626 24.4793 3 0.00124499 -4.12296
4180 1 2.3202 38.3679 22.1374 3 0.000708783 -4.12138
4181 1 4.79298 38.3679 22.1374 3 0.000708783 -4.12138
4182 1 4.01103 38.3799 19.7992 3 0.000820378 -4.12241
4183 1 6.48381 38.3799 19.7992 3 0.000820378 -4.12241
4184 1 5.69123 38.3984 17.4603 3 0.00059098 -4.12071
4185 1 8.16402 38.3984 17.4603 3 0.00059098 -4.12071
4186 1 7.35197 38.4098 15.1259 3 0.000468568 -4.12089
4187 1 9.82475 38.4098 15.1259 3 0.000468568 -4.12089
4188 1 8.99673 38.4151 12.7954 3 0.000293667 -4.12125
4189 1 11.4695 38.4151 12.7954 3 0.000293667 -4.12125
4190 1 10.6307 38.4172 10.4675 3 0.000183731 -4.12151
4191 1 13.1035 38.4172 10.4675 3 0.000183731 -4.12151
4192 1 12.2578 38.4177 8.14077 3 0.00012367 -4.12167
4193 1 14.7306 38.4177 8.14077 3 0.00012367 -4.12167
4194 1 13.8804 38.4176 5.81463 3 9.07642e-05 -4.12177
4195 1 16.3532 38.4176 5.81463 3 9.07642e-05 -4.12177
4196 1 15.5003 38.4173 3.48873 3 7.3238e-05 -4.12182
4197 1 17.9731 38.4173 3.48873 3 7.3238e-05 -4.12182
4198 1 17.1187 38.4171 1.16291 3 6.55492e-05 -4.12185
4199 1 19.5915 38.4171 1.16291 3 6.55492e-05 -4.12185
4200 1 1.28187 36.3823 30.3364 3 0.00177736 -4.11866
4201 1 0.5118 36.3588 27.9942 3 0.00336124 -4.12315
4202 1 2.98458 36.3588 27.9942 3 0.00336124 -4.12315
4203 1 2.2261 36.3546 25.6544 3 0.00208926 -4.12065
4204 1 4.69888 36.3546 25.6544 3 0.00208926 -4.12065
4205 1 3.95587 36.3546 23.3043 3 0.00208926 -4.12065
4206 1 6.42865 36.3546 23.3043 3 0.00208926 -4.12065
4207 1 5.67016 36.3588 20.9644 3 0.00336124 -4.12315
4208 1 8.14294 36.3588 20.9644 3 0.00336124 -4.12315
4209 1 7.37287 36.3823 18.6222 3 0.00177737 -4.11866
4210 1 9.84566 36.3823 18.6222 3 0.00177737 -4.11866
4211 1 9.04249 36.3945 16.2875 3 0.00114061 -4.1196
4212 1 11.5153 36.3945 16.2875 3 0.00114061 -4.1196
4213 1 10.6883 36.3992 13.9581 3 0.000598223 -4.12049
4214 1 13.1611 36.3992 13.9581 3 0.000598223 -4.12049
4215 1 12.3199 36.4004 11.631 3 0.00033351 -4.12101
4216 1 14.7926 36.4004 11.631 3 0.00033351 -4.12101
4217 1 13.943 36.4003 9.30478 3 0.000206702 -4.12131
4218 1 16.4158 36.4003 9.30478 3 0.000206702 -4.12131
4219 1 15.5609 36.3997 6.97872 3 0.000142159 -4.1215
4220 1 18.0337 36.3997 6.97872 3 0.000142159 -4.1215
4221 1 17.1756 36.399 4.65258 3 0.000108355 -4.12161
4222 1 19.6484 36.399 4.65258 3 0.000108355 -4.12161
4223 1 18.7885 36.3986 2.32633 3 9.18568e-05 -4.12168
4224 1 21.2613 36.3986 2.32633 3 9.18568e-05 -4.12168
4225 1 20.4005 36.3984 2.28583e-09 3 8.69562e-05 -4.12169
4226 1 22.8733 36.3984 2.2904e-09 3 8.69562e-05 -4.12169
4227 1 1.20484 34.383 33.8334 3 0.00135468 -4.11886
4228 1 0.377149 34.3799 31.5058 3 0.00346241 -4.11633
4229 1 2.84993 34.3799 31.5058 3 0.00346241 -4.11633
4230 1 2.06021 34.3684 29.1724 3 0.00841238 -4.11182
4231 1 4.533 34.3684 29.1724 3 0.00841238 -4.11182
4232 1 3.8135 34.339 26.8251 3 0.0361452 -4.12628
4233 1 6.28629 34.339 26.8251 3 0.0361452 -4.12628
4234 1 5.56376 34.3611 24.4793 3 0.0111429 -4.10153
4235 1 8.03655 34.3611 24.4793 3 0.0111429 -4.10153
4236 1 7.31403 34.339 22.1335 3 0.0361452 -4.12628
4237 1 9.78681 34.339 22.1335 3 0.0361452 -4.12628
4238 1 9.06732 34.3684 19.7862 3 0.00841238 -4.11182
4239 1 11.5401 34.3684 19.7862 3 0.00841238 -4.11182
4240 1 10.7504 34.3799 17.4528 3 0.00346242 -4.11633
4241 1 13.2232 34.3799 17.4528 3 0.00346242 -4.11633
4242 1 12.3955 34.383 15.1253 3 0.00135468 -4.11886
4243 1 14.8683 34.383 15.1253 3 0.00135468 -4.11886
4244 1 14.0222 34.3831 12.7991 3 0.000630913 -4.12007
4245 1 16.495 34.3831 12.7991 3 0.000630913 -4.12007
4246 1 15.6393 34.3823 10.4728 3 0.00034635 -4.12071
4247 1 18.1121 34.3823 10.4728 3 0.00034635 -4.12071
4248 1 17.2509 34.3813 8.14609 3 0.000219406 -4.12107
4249 1 19.7237 34.3813 8.14609 3 0.000219406 -4.12107
4250 1 18.8592 34.3803 5.81895 3 0.000158073 -4.12129
4251 1 21.332 34.3803 5.81895 3 0.000158073 -4.12129
4252 1 20.4655 34.3796 3.49149 3 0.000127924 -4.12141
4253 1 22.9383 34.3796 3.49149 3 0.000127924 -4.12141
4254 1 22.0708 34.3792 1.16385 3 0.000115414 -4.12147
4255 1 24.5436 34.3792 1.16385 3 0.000115414 -4.12147
4256 1 1.19548 32.3642 37.3111 3 0.00051239 -4.11977
4257 1 0.329381 32.3657 34.9828 3 0.00106837 -4.11841
4258 1 2.80217 32.3657 34.9828 3 0.00106837 -4.11841
4259 1 1.94445 32.3668 32.6555 3 0.00296101 -4.11528
4260 1 4.41723 32.3668 32.6555 3 0.00296101 -4.11528
4261 1 3.57894 32.3659 30.3292 3 0.0128667 -4.10575
4262 1 6.05173 32.3659 30.3292 3 0.0128667 -4.10575
4263 1 5.27378 32.3588 28.0005 3 0.140712 -4.0469
4264 1 7.74657 32.3588 28.0005 3 0.140712 -4.0469
4265 1 7.23723 32.3521 25.6463 5 5.31346 -4.04848
4266 1 9.71002 32.3521 25.6463 5 5.31346 -4.04848
4267 1 8.83587 32.3521 23.3123 5 5.31346 -4.04848
4268 1 11.3086 32.3521 23.3123 5 5.31346 -4.04848
4269 1 10.7993 32.3588 20.9581 3 0.140712 -4.0469
4270 1 13.2721 32.3588 20.9581 3 0.140712 -4.0469
4271 1 12.4942 32.3659 18.6294 3 0.0128667 -4.10575
4272 1 14.9669 32.3659 18.6294 3 0.0128667 -4.10575
4273 1 14.1287 32.3668 16.3031 3 0.00296101 -4.11528
4274 1 16.6014 32.3668 16.3031 3 0.00296101 -4.11528
4275 1 15.7437 32.3657 13.9758 3 0.00106837 -4.11841
4276 1 18.2165 32.3657 13.9758 3 0.00106837 -4.11841
4277 1 17.3504 32.3642 11.6475 3 0.00051239 -4.11977
4278 1 19.8232 32.3642 11.6475 3 0.00051239 -4.11977
4279 1 18.9528 32.3628 9.31858 3 0.00030275 -4.12045
4280 1 21.4255 32.3628 9.31858 3 0.00030275 -4.12045
4281 1 20.5527 32.3615 6.98921 3 0.000209208 -4.12082
4282 1 23.0255 32.3615 6.98921 3 0.000209208 -4.12082
4283 1 22.1511 32.3605 4.65959 3 0.000163749 -4.12102
4284 1 24.6239 32.3605 4.65959 3 0.000163749 -4.12102
4285 1 23.7488 32.3599 2.32983 3 0.000142377 -4.12113
4286 1 26.2216 32.3599 2.32983 3 0.000142377 -4.12113
4287 1 25.346 32.3597 2.87092e-09 3 0.00013603 -4.12116
4288 1 27.8188 32.3597 2.88181e-09 3 0.00013603 -4.12116
4289 1 1.2346 30.343 40.7947 3 0.000246691 -4.12024
4290 1 0.350886 30.3448 38.4616 3 0.000372786 -4.11979
4291 1 2.82367 30.3448 38.4616 3 0.000372786 -4.11979
4292 1 1.93979 30.3469 36.1279 3 0.000661326 -4.11905
4293 1 4.41257 30.3469 36.1279 3 0.000661326 -4.11905
4294 1 3.52826 30.3494 33.7931 3 0.00146478 -4.1177
4295 1 6.00104 30.3494 33.7931 3 0.00146478 -4.1177
4296 1 5.11574 30.3523 31.4565 3 0.00450872 -4.11471
4297 1 7.58852 30.3523 31.4565 3 0.00450872 -4.11471
4298 1 6.69944 30.3548 29.1174 3 0.0254563 -4.10472
4299 1 9.17222 30.3548 29.1174 3 0.0254563 -4.10472
4300 1 8.24047 30.3458 26.7868 5 7.69492 -4.05571
4301 1 10.7133 30.3458 26.7868 5 7.69492 -4.05571
4302 1 9.27294 30.3079 24.4793 5 2.29704 -3.99361
4303 1 11.7457 30.3079 24.4793 5 2.29704 -3.99361
4304 1 10.3054 30.3458 22.1719 5 7.69492 -4.05571
4305 1 12.7782 30.3458 22.1719 5 7.69492 -4.05571
4306 1 11.8464 30.3548 19.8412 3 0.0254563 -4.10472
4307 1 14.3192 30.3548 19.8412 3 0.0254563 -4.10472
4308 1 13.4301 30.3523 17.5021 3 0.00450872 -4.11471
4309 1 15.9029 30.3523 17.5021 3 0.00450872 -4.11471
4310 1 15.0176 30.3494 15.1655 3 0.00146478 -4.1177
4311 1 17.4904 30.3494 15.1655 3 0.00146478 -4.1177
4312 1 16.6061 30.3469 12.8307 3 0.000661326 -4.11905
4313 1 19.0789 30.3469 12.8307 3 0.000661326 -4.11905
4314 1 18.195 30.3448 10.497 3 0.000372786 -4.11979
4315 1 20.6678 30.3448 10.497 3 0.000372786 -4.11979
4316 1 19.7841 30.343 8.16388 3 0.000246692 -4.12024
4317 1 22.2569 30.343 8.16388 3 0.000246692 -4.12024
4318 1 21.3732 30.3417 5.83113 3 0.00018524 -4.12051
4319 1 23.846 30.3417 5.83113 3 0.00018524 -4.12051
4320 1 22.9623 30.3408 3.4986 3 0.000154623 -4.12067
4321 1 25.4351 30.3408 3.4986 3 0.000154623 -4.12067
4322 1 24.5515 30.3403 1.16619 3 0.000141586 -4.12074
4323 1 27.0243 30.3403 1.16619 3 0.000141586 -4.12074
4324 1 1.30749 28.3219 44.2889 3 0.000149472 -4.12007
4325 1 0.414864 28.3233 41.9536 3 0.000191447 -4.11982
4326 1 2.88765 28.3233 41.9536 3 0.000191447 -4.11982
4327 1 1.99375 28.3251 39.6177 3 0.000275951 -4.11942
4328 1 4.46654 28.3251 39.6177 3 0.000275951 -4.11942
4329 1 3.57047 28.3274 37.2809 3 0.000456136 -4.11879
4330 1 6.04325 28.3274 37.2809 3 0.000456136 -4.11879
4331 1 5.14337 28.3302 34.943 3 0.000890241 -4.11774
4332 1 7.61616 28.3302 34.943 3 0.000890241 -4.11774
4333 1 6.70907 28.3332 32.6038 3 0.00219321 -4.11591
4334 1 9.18185 28.3332 32.6038 3 0.00219321 -4.11591
4335 1 8.25869 28.3349 30.2646 3 0.00787771 -4.1127
4336 1 10.7315 28.3349 30.2646 3 0.00787771 -4.1127
4337 1 9.76198 28.3262 27.9331 3 0.04025 -4.10128
4338 1 12.2348 28.3262 27.9331 3 0.04025 -4.10128
4339 1 11.1127 28.2786 25.6293 3 0.0799124 -4.03666
4340 1 13.5855 28.2786 25.6293 3 0.0799124 -4.03666
4341 1 12.3788 28.2786 23.3294 3 0.0799124 -4.03666
4342 1 14.8515 28.2786 23.3294 3 0.0799124 -4.03666
4343 1 13.7295 28.3262 21.0255 3 0.04025 -4.10128
4344 1 16.2023 28.3262 21.0255 3 0.04025 -4.10128
4345 1 15.2328 28.3349 18.694 3 0.00787771 -4.1127
4346 1 17.7055 28.3349 18.694 3 0.00787771 -4.1127
4347 1 16.7824 28.3332 16.3548 3 0.00219322 -4.11591
4348 1 19.2552 28.3332 16.3548 3 0.00219322 -4.11591
4349 1 18.3481 28.3302 14.0157 3 0.000890241 -4.11774
4350 1 20.8209 28.3302 14.0157 3 0.000890241 -4.11774
4351 1 19.921 28.3274 11.6777 3 0.000456136 -4.11879
4352 1 22.3938 28.3274 11.6777 3 0.000456136 -4.11879
4353 1 21.4977 28.3251 9.34094 3 0.000275951 -4.11942
4354 1 23.9705 28.3251 9.34094 3 0.000275951 -4.11942
4355 1 23.0766 28.3233 7.00503 3 0.000191447 -4.11982
4356 1 25.5494 28.3233 7.00503 3 0.000191447 -4.11982
4357 1 24.6567 28.3219 4.66972 3 0.000149472 -4.12007
4358 1 27.1295 28.3219 4.66972 3 0.000149472 -4.12007
4359 1 26.2376 28.3211 2.33477 3 0.000129519 -4.1202
4360 1 28.7104 28.3211 2.33477 3 0.000129519 -4.1202
4361 1 27.8188 28.3209 4.61195e-09 3 0.000123538 -4.12024
4362 1 30.2916 28.3209 4.59892e-09 3 0.000123538 -4.12024
4363 1 1.40519 26.3015 47.7904 3 9.91672e-05 -4.11967
4364 1 0.506112 26.3021 45.4538 3 0.000109496 -4.11957
4365 1 2.9789 26.3021 45.4538 3 0.000109496 -4.11957
4366 1 2.07896 26.3032 43.117 3 0.000133537 -4.11936
4367 1 4.55175 26.3032 43.117 3 0.000133537 -4.11936
4368 1 3.65021 26.3049 40.7797 3 0.000180367 -4.11901
4369 1 6.12299 26.3049 40.7797 3 0.000180367 -4.11901
4370 1 5.21874 26.307 38.4419 3 0.000271562 -4.11847
4371 1 7.69152 26.307 38.4419 3 0.000271562 -4.11847
4372 1 6.78276 26.3093 36.1037 3 0.000464591 -4.11763
4373 1 9.25554 26.3093 36.1037 3 0.000464591 -4.11763
4374 1 8.33889 26.3112 33.7656 3 0.000951108 -4.11627
4375 1 10.8117 26.3112 33.7656 3 0.000951108 -4.11627
4376 1 9.87989 26.3104 31.4299 3 0.00245828 -4.11406
4377 1 12.3527 26.3104 31.4299 3 0.00245828 -4.11406
4378 1 11.3888 26.3002 29.1027 3 0.00637848 -4.10946
4379 1 13.8616 26.3002 29.1027 3 0.00637848 -4.10946
4380 1 12.8335 26.2669 26.7934 3 0.00997197 -4.09174
4381 1 15.3063 26.2669 26.7934 3 0.00997197 -4.09174
4382 1 14.2185 26.2457 24.4793 3 0.0166214 -4.08223
4383 1 16.6913 26.2457 24.4793 3 0.0166214 -4.08223
4384 1 15.6035 26.2669 22.1652 3 0.00997198 -4.09174
4385 1 18.0763 26.2669 22.1652 3 0.00997198 -4.09174
4386 1 17.0482 26.3002 19.8559 3 0.00637848 -4.10946
4387 1 19.521 26.3002 19.8559 3 0.00637848 -4.10946
4388 1 18.5571 26.3104 17.5287 3 0.00245828 -4.11406
4389 1 21.0299 26.3104 17.5287 3 0.00245828 -4.11406
4390 1 20.0981 26.3112 15.193 3 0.000951108 -4.11627
4391 1 22.5709 26.3112 15.193 3 0.000951108 -4.11627
4392 1 21.6543 26.3093 12.8549 3 0.000464591 -4.11763
4393 1 24.127 26.3093 12.8549 3 0.000464591 -4.11763
4394 1 23.2183 26.307 10.5167 3 0.000271562 -4.11847
4395 1 25.6911 26.307 10.5167 3 0.000271562 -4.11847
4396 1 24.7868 26.3049 8.17893 3 0.000180367 -4.11901
4397 1 27.2596 26.3049 8.17893 3 0.000180367 -4.11901
4398 1 26.3581 26.3032 5.84167 3 0.000133537 -4.11936
4399 1 28.8308 26.3032 5.84167 3 0.000133537 -4.11936
4400 1 27.9309 26.3021 3.50483 3 0.000109496 -4.11957
4401 1 30.4037 26.3021 3.50483 3 0.000109496 -4.11957
4402 1 29.5046 26.3015 1.16825 3 9.91672e-05 -4.11967
4403 1 31.9774 26.3015 1.16825 3 9.91672e-05 -4.11967
4404 1 2.18565 24.2818 46.6212 3 7.83887e-05 -4.11909
4405 1 4.65844 24.2818 46.6212 3 7.83887e-05 -4.11909
4406 1 3.75241 24.2827 44.2836 3 9.09683e-05 -4.11894
4407 1 6.22519 24.2827 44.2836 3 9.09683e-05 -4.11894
4408 1 5.31765 24.2841 41.9459 3 0.000116215 -4.11866
4409 1 7.79043 24.2841 41.9459 3 0.000116215 -4.11866
4410 1 6.88027 24.2858 39.6081 3 0.000164011 -4.11823
4411 1 9.35306 24.2858 39.6081 3 0.000164011 -4.11823
4412 1 8.43861 24.2874 37.2705 3 0.000260539 -4.11759
4413 1 10.9114 24.2874 37.2705 3 0.000260539 -4.11759
4414 1 9.98981 24.2879 34.9338 3 0.000482604 -4.11663
4415 1 12.4626 24.2879 34.9338 3 0.000482604 -4.11663
4416 1 11.5286 24.2854 32.6002 3 0.00101185 -4.11517
4417 1 14.0013 24.2854 32.6002 3 0.00101185 -4.11517
4418 1 13.0451 24.275 30.2733 3 0.00186199 -4.11259
4419 1 15.5179 24.275 30.2733 3 0.00186199 -4.11259
4420 1 14.5262 24.2507 27.9568 3 0.00236274 -4.10559
4421 1 16.999 24.2507 27.9568 3 0.00236274 -4.10559
4422 1 15.9743 24.2286 25.64 3 0.0045529 -4.09981
4423 1 18.4471 24.2286 25.64 3 0.0045529 -4.09981
4424 1 17.4082 24.2286 23.3186 3 0.0045529 -4.09981
4425 1 19.881 24.2286 23.3186 3 0.0045529 -4.09981
4426 1 18.8563 24.2507 21.0019 3 0.00236274 -4.10559
4427 1 21.3291 24.2507 21.0019 3 0.00236274 -4.10559
4428 1 20.3375 24.275 18.6853 3 0.00186199 -4.11259
4429 1 22.8102 24.275 18.6853 3 0.00186199 -4.11259
4430 1 21.854 24.2854 16.3584 3 0.00101185 -4.11517
4431 1 24.3268 24.2854 16.3584 3 0.00101185 -4.11517
4432 1 23.3928 24.2879 14.0248 3 0.000482604 -4.11663
4433 1 25.8656 24.2879 14.0248 3 0.000482604 -4.11663
4434 1 24.944 24.2874 11.6882 3 0.000260539 -4.11759
4435 1 27.4168 24.2874 11.6882 3 0.000260539 -4.11759
4436 1 26.5023 24.2858 9.35054 3 0.000164011 -4.11823
4437 1 28.9751 24.2858 9.35054 3 0.000164011 -4.11823
4438 1 28.0649 24.2841 7.01272 3 0.000116216 -4.11866
4439 1 30.5377 24.2841 7.01272 3 0.000116216 -4.11866
4440 1 29.6302 24.2827 4.67502 3 9.09683e-05 -4.11894
4441 1 32.103 24.2827 4.67502 3 9.09683e-05 -4.11894
4442 1 31.1969 24.2818 2.33746 3 7.83887e-05 -4.11909
4443 1 33.6697 24.2818 2.33746 3 7.83887e-05 -4.11909
4444 1 32.7644 24.2815 7.94046e-09 3 7.45992e-05 -4.11914
4445 1 35.2372 24.2815 7.93468e-09 3 7.45992e-05 -4.11914
4446 1 3.87193 22.261 47.7898 3 5.81635e-05 -4.11867
4447 1 6.34472 22.261 47.7898 3 5.81635e-05 -4.11867
4448 1 5.43345 22.2615 45.4521 3 6.41046e-05 -4.11857
4449 1 7.90624 22.2615 45.4521 3 6.41046e-05 -4.11857
4450 1 6.99374 22.2625 43.1146 3 7.79181e-05 -4.11836
4451 1 9.46652 22.2625 43.1146 3 7.79181e-05 -4.11836
4452 1 8.55175 22.2637 40.7772 3 0.000104555 -4.11804
4453 1 11.0245 22.2637 40.7772 3 0.000104555 -4.11804
4454 1 10.106 22.2646 38.4403 3 0.000157093 -4.11755
4455 1 12.5788 22.2646 38.4403 3 0.000157093 -4.11755
4456 1 11.6542 22.2642 36.1048 3 0.000266142 -4.11685
4457 1 14.127 22.2642 36.1048 3 0.000266142 -4.11685
4458 1 13.1925 22.2608 33.7722 3 0.000471623 -4.11582
4459 1 15.6653 22.2608 33.7722 3 0.000471623 -4.11582
4460 1 14.7151 22.2512 31.4446 3 0.000701874 -4.11412
4461 1 17.1878 22.2512 31.4446 3 0.000701874 -4.11412
4462 1 16.2156 22.2327 29.1232 3 0.000811247 -4.11062
4463 1 18.6884 22.2327 29.1232 3 0.000811247 -4.11062
4464 1 17.6958 22.2131 26.8028 3 0.00142287 -4.10738
4465 1 20.1686 22.2131 26.8028 3 0.00142287 -4.10738
4466 1 19.1641 22.2049 24.4793 3 0.00172072 -4.10623
4467 1 21.6369 22.2049 24.4793 3 0.00172072 -4.10623
4468 1 20.6323 22.2131 22.1558 3 0.00142287 -4.10738
4469 1 23.1051 22.2131 22.1558 3 0.00142287 -4.10738
4470 1 22.1126 22.2327 19.8354 3 0.000811247 -4.11062
4471 1 24.5854 22.2327 19.8354 3 0.000811247 -4.11062
4472 1 23.6131 22.2512 17.514 3 0.000701874 -4.11412
4473 1 26.0859 22.2512 17.514 3 0.000701874 -4.11412
4474 1 25.1357 22.2608 15.1864 3 0.000471623 -4.11582
4475 1 27.6085 22.2608 15.1864 3 0.000471623 -4.11582
4476 1 26.674 22.2642 12.8538 3 0.000266141 -4.11685
4477 1 29.1467 22.2642 12.8538 3 0.000266141 -4.11685
4478 1 28.2221 22.2646 10.5183 3 0.000157093 -4.11755
4479 1 30.6949 22.2646 10.5183 3 0.000157093 -4.11755
4480 1 29.7764 22.2637 8.18147 3 0.000104555 -4.11804
4481 1 32.2492 22.2637 8.18147 3 0.000104555 -4.11804
4482 1 31.3344 22.2625 5.84407 3 7.79181e-05 -4.11836
4483 1 33.8072 22.2625 5.84407 3 7.79181e-05 -4.11836
4484 1 32.8947 22.2615 3.50648 3 6.41046e-05 -4.11857
4485 1 35.3675 22.2615 3.50648 3 6.41046e-05 -4.11857
4486 1 34.4562 22.261 1.16883 3 5.81635e-05 -4.11867
4487 1 36.929 22.261 1.16883 3 5.81635e-05 -4.11867
4488 1 7.12065 20.2396 46.6214 3 4.80558e-05 -4.11824
4489 1 9.59343 20.2396 46.6214 3 4.80558e-05 -4.11824
4490 1 8.67667 20.2402 44.2843 3 5.54392e-05 -4.1181
4491 1 11.1495 20.2402 44.2843 3 5.54392e-05 -4.1181
4492 1 10.2308 20.2409 41.9475 3 7.05626e-05 -4.11786
4493 1 12.7036 20.2409 41.9475 3 7.05626e-05 -4.11786
4494 1 11.7819 20.2412 39.6115 3 9.97795e-05 -4.11749
4495 1 14.2547 20.2412 39.6115 3 9.97795e-05 -4.11749
4496 1 13.3279 20.2403 37.2769 3 0.000154051 -4.11696
4497 1 15.8007 20.2403 37.2769 3 0.000154051 -4.11696
4498 1 14.8662 20.2367 34.9447 3 0.000237837 -4.1162
4499 1 17.339 20.2367 34.9447 3 0.000237837 -4.1162
4500 1 16.3931 20.2283 32.6161 3 0.000309047 -4.11501
4501 1 18.8659 20.2283 32.6161 3 0.000309047 -4.11501
4502 1 17.9053 20.2138 30.2916 3 0.000342001 -4.11299
4503 1 20.3781 20.2138 30.2916 3 0.000342001 -4.11299
4504 1 19.4039 20.1974 27.9681 3 0.000541395 -4.11102
4505 1 21.8767 20.1974 27.9681 3 0.000541395 -4.11102
4506 1 20.8936 20.1865 25.6426 3 0.000695882 -4.1099
4507 1 23.3664 20.1865 25.6426 3 0.000695882 -4.1099
4508 1 22.3801 20.1865 23.316 3 0.000695882 -4.1099
4509 1 24.8529 20.1865 23.316 3 0.000695882 -4.1099
4510 1 23.8698 20.1974 20.9906 3 0.000541395 -4.11102
4511 1 26.3426 20.1974 20.9906 3 0.000541395 -4.11102
4512 1 25.3684 20.2138 18.667 3 0.000342001 -4.11299
4513 1 27.8412 20.2138 18.667 3 0.000342001 -4.11299
4514 1 26.8806 20.2283 16.3425 3 0.000309047 -4.11501
4515 1 29.3534 20.2283 16.3425 3 0.000309047 -4.11501
4516 1 28.4075 20.2367 14.014 3 0.000237836 -4.1162
4517 1 30.8803 20.2367 14.014 3 0.000237836 -4.1162
4518 1 29.9458 20.2403 11.6818 3 0.000154051 -4.11696
4519 1 32.4186 20.2403 11.6818 3 0.000154051 -4.11696
4520 1 31.4918 20.2412 9.34714 3 9.97795e-05 -4.11749
4521 1 33.9646 20.2412 9.34714 3 9.97795e-05 -4.11749
4522 1 33.0429 20.2409 7.01111 3 7.05627e-05 -4.11786
4523 1 35.5157 20.2409 7.01111 3 7.05627e-05 -4.11786
4524 1 34.597 20.2402 4.67436 3 5.54392e-05 -4.1181
4525 1 37.0698 20.2402 4.67436 3 5.54392e-05 -4.1181
4526 1 36.1531 20.2396 2.33725 3 4.80558e-05 -4.11824
4527 1 38.6259 20.2396 2.33725 3 4.80558e-05 -4.11824
4528 1 37.71 20.2394 7.6592e-09 3 4.58252e-05 -4.11829
4529 1 40.1827 20.2394 7.64166e-09 3 4.58252e-05 -4.11829
4530 1 8.81288 18.2167 47.7904 3 3.80993e-05 -4.11796
4531 1 11.2857 18.2167 47.7904 3 3.80993e-05 -4.11796
4532 1 10.3651 18.2169 45.454 3 4.16723e-05 -4.11787
4533 1 12.8379 18.2169 45.454 3 4.16723e-05 -4.11787
4534 1 11.9159 18.2172 43.1181 3 4.99255e-05 -4.1177
4535 1 14.3887 18.2172 43.1181 3 4.99255e-05 -4.1177
4536 1 13.4643 18.2172 40.7829 3 6.57171e-05 -4.11742
4537 1 15.937 18.2172 40.7829 3 6.57171e-05 -4.11742
4538 1 15.0085 18.216 38.4489 3 9.22624e-05 -4.11701
4539 1 17.4813 18.216 38.4489 3 9.22624e-05 -4.11701
4540 1 16.5468 18.2126 36.1169 3 0.000127291 -4.11643
4541 1 19.0196 18.2126 36.1169 3 0.000127291 -4.11643
4542 1 18.0767 18.2056 33.7876 3 0.000151781 -4.11557
4543 1 20.5494 18.2056 33.7876 3 0.000151781 -4.11557
4544 1 19.5963 18.1942 31.4609 3 0.000165317 -4.11428
4545 1 22.0691 18.1942 31.4609 3 0.000165317 -4.11428
4546 1 21.1063 18.1808 29.135 3 0.000239462 -4.11297
4547 1 23.5791 18.1808 29.135 3 0.000239462 -4.11297
4548 1 22.6096 18.1699 26.8079 3 0.000309455 -4.11207
4549 1 25.0824 18.1699 26.8079 3 0.000309455 -4.11207
4550 1 24.1096 18.1658 24.4793 3 0.000334306 -4.11174
4551 1 26.5824 18.1658 24.4793 3 0.000334306 -4.11174
4552 1 25.6096 18.1699 22.1507 3 0.000309455 -4.11207
4553 1 28.0824 18.1699 22.1507 3 0.000309455 -4.11207
4554 1 27.113 18.1808 19.8236 3 0.000239462 -4.11297
4555 1 29.5858 18.1808 19.8236 3 0.000239462 -4.11297
4556 1 28.623 18.1942 17.4978 3 0.000165317 -4.11428
4557 1 31.0958 18.1942 17.4978 3 0.000165317 -4.11428
4558 1 30.1426 18.2056 15.171 3 0.000151781 -4.11557
4559 1 32.6154 18.2056 15.171 3 0.000151781 -4.11557
4560 1 31.6725 18.2126 12.8417 3 0.000127292 -4.11643
4561 1 34.1453 18.2126 12.8417 3 0.000127292 -4.11643
4562 1 33.2107 18.216 10.5097 3 9.22624e-05 -4.11701
4563 1 35.6835 18.216 10.5097 3 9.22624e-05 -4.11701
4564 1 34.755 18.2172 8.17577 3 6.57171e-05 -4.11742
4565 1 37.2278 18.2172 8.17577 3 6.57171e-05 -4.11742
4566 1 36.3033 18.2172 5.84054 3 4.99255e-05 -4.1177
4567 1 38.7761 18.2172 5.84054 3 4.99255e-05 -4.1177
4568 1 37.8542 18.2169 3.50458 3 4.16723e-05 -4.11787
4569 1 40.327 18.2169 3.50458 3 4.16723e-05 -4.11787
4570 1 39.4064 18.2167 1.16823 3 3.80993e-05 -4.11796
4571 1 41.8792 18.2167 1.16823 3 3.80993e-05 -4.11796
4572 1 12.0581 16.1927 46.6232 3 3.25865e-05 -4.11766
4573 1 14.5308 16.1927 46.6232 3 3.25865e-05 -4.11766
4574 1 13.6059 16.1928 44.2882 3 3.6577e-05 -4.11754
4575 1 16.0787 16.1928 44.2882 3 3.6577e-05 -4.11754
4576 1 15.1518 16.1925 41.9537 3 4.43745e-05 -4.11733
4577 1 17.6246 16.1925 41.9537 3 4.43745e-05 -4.11733
4578 1 16.6945 16.1913 39.6204 3 5.67156e-05 -4.11702
4579 1 19.1673 16.1913 39.6204 3 5.67156e-05 -4.11702
4580 1 18.2326 16.1884 37.2886 3 7.14129e-05 -4.11657
4581 1 20.7054 16.1884 37.2886 3 7.14129e-05 -4.11657
4582 1 19.7644 16.1827 34.9586 3 8.10424e-05 -4.11593
4583 1 22.2372 16.1827 34.9586 3 8.10424e-05 -4.11593
4584 1 21.2889 16.174 32.6304 3 8.87972e-05 -4.11504
4585 1 23.7617 16.174 32.6304 3 8.87972e-05 -4.11504
4586 1 22.8064 16.1633 30.3028 3 0.000119747 -4.11412
4587 1 25.2792 16.1633 30.3028 3 0.000119747 -4.11412
4588 1 24.3188 16.1536 27.9744 3 0.000151325 -4.1134
4589 1 26.7915 16.1536 27.9744 3 0.000151325 -4.1134
4590 1 25.8282 16.1478 25.6446 3 0.000163251 -4.11301
4591 1 28.301 16.1478 25.6446 3 0.000163251 -4.11301
4592 1 27.3367 16.1478 23.3141 3 0.000163251 -4.11301
4593 1 29.8095 16.1478 23.3141 3 0.000163251 -4.11301
4594 1 28.8461 16.1536 20.9843 3 0.000151325 -4.1134
4595 1 31.3189 16.1536 20.9843 3 0.000151325 -4.1134
4596 1 30.3585 16.1633 18.6558 3 0.000119747 -4.11412
4597 1 32.8312 16.1633 18.6558 3 0.000119747 -4.11412
4598 1 31.876 16.174 16.3282 3 8.87972e-05 -4.11504
4599 1 34.3487 16.174 16.3282 3 8.87972e-05 -4.11504
4600 1 33.4004 16.1827 14 3 8.10424e-05 -4.11593
4601 1 35.8732 16.1827 14 3 8.10424e-05 -4.11593
4602 1 34.9323 16.1884 11.6701 3 7.1413e-05 -4.11657
4603 1 37.405 16.1884 11.6701 3 7.1413e-05 -4.11657
4604 1 36.4703 16.1913 9.33825 3 5.67156e-05 -4.11702
4605 1 38.9431 16.1913 9.33825 3 5.67156e-05 -4.11702
4606 1 38.0131 16.1925 7.00489 3 4.43745e-05 -4.11733
4607 1 40.4859 16.1925 7.00489 3 4.43745e-05 -4.11733
4608 1 39.559 16.1928 4.67046 3 3.6577e-05 -4.11754
4609 1 42.0318 16.1928 4.67046 3 3.6577e-05 -4.11754
4610 1 41.1068 16.1927 2.33538 3 3.25865e-05 -4.11766
4611 1 43.5796 16.1927 2.33538 3 3.25865e-05 -4.11766
4612 1 42.6555 16.1927 7.32027e-09 3 3.13416e-05 -4.1177
4613 1 45.1283 16.1927 7.32407e-09 3 3.13416e-05 -4.1177
4614 1 13.7548 14.1675 47.7915 3 2.60015e-05 -4.11745
4615 1 16.2276 14.1675 47.7915 3 2.60015e-05 -4.11745
4616 1 15.2998 14.1674 45.4574 3 2.74318e-05 -4.11738
4617 1 17.7726 14.1674 45.4574 3 2.74318e-05 -4.11738
4618 1 16.8435 14.167 43.1237 3 3.05819e-05 -4.11723
4619 1 19.3163 14.167 43.1237 3 3.05819e-05 -4.11723
4620 1 18.3847 14.166 40.7909 3 3.56114e-05 -4.11699
4621 1 20.8575 14.166 40.7909 3 3.56114e-05 -4.11699
4622 1 19.9225 14.1636 38.4592 3 4.15637e-05 -4.11665
4623 1 22.3953 14.1636 38.4592 3 4.15637e-05 -4.11665
4624 1 21.4556 14.1593 36.1289 3 4.62847e-05 -4.11616
4625 1 23.9284 14.1593 36.1289 3 4.62847e-05 -4.11616
4626 1 22.9833 14.1528 33.7998 3 5.23261e-05 -4.11553
4627 1 25.4561 14.1528 33.7998 3 5.23261e-05 -4.11553
4628 1 24.5058 14.1447 31.471 3 6.74147e-05 -4.11484
4629 1 26.9786 14.1447 31.471 3 6.74147e-05 -4.11484
4630 1 26.0243 14.1367 29.1415 3 8.12689e-05 -4.11426
4631 1 28.4971 14.1367 29.1415 3 8.12689e-05 -4.11426
4632 1 27.5403 14.1309 26.8109 3 8.36351e-05 -4.11388
4633 1 30.0131 14.1309 26.8109 3 8.36351e-05 -4.11388
4634 1 29.0552 14.1288 24.4793 3 8.17937e-05 -4.11375
4635 1 31.528 14.1288 24.4793 3 8.17936e-05 -4.11375
4636 1 30.5701 14.1309 22.1477 3 8.36351e-05 -4.11388
4637 1 33.0429 14.1309 22.1477 3 8.36351e-05 -4.11388
4638 1 32.0861 14.1367 19.8171 3 8.12689e-05 -4.11426
4639 1 34.5589 14.1367 19.8171 3 8.12689e-05 -4.11426
4640 1 33.6046 14.1447 17.4876 3 6.74147e-05 -4.11484
4641 1 36.0774 14.1447 17.4876 3 6.74147e-05 -4.11484
4642 1 35.1271 14.1528 15.1588 3 5.23261e-05 -4.11553
4643 1 37.5999 14.1528 15.1588 3 5.23261e-05 -4.11553
4644 1 36.6548 14.1593 12.8297 3 4.62847e-05 -4.11616
4645 1 39.1276 14.1593 12.8297 3 4.62847e-05 -4.11616
4646 1 38.1879 14.1636 10.4994 3 4.15638e-05 -4.11665
4647 1 40.6607 14.1636 10.4994 3 4.15638e-05 -4.11665
4648 1 39.7257 14.166 8.16773 3 3.56115e-05 -4.11699
4649 1 42.1985 14.166 8.16773 3 3.56115e-05 -4.11699
4650 1 41.267 14.167 5.83492 3 3.05818e-05 -4.11723
4651 1 43.7397 14.167 5.83492 3 3.05818e-05 -4.11723
4652 1 42.8106 14.1674 3.50127 3 2.74318e-05 -4.11738
4653 1 45.2834 14.1674 3.50127 3 2.74318e-05 -4.11738
4654 1 44.3556 14.1675 1.16714 3 2.60015e-05 -4.11745
4655 1 46.8284 14.1675 1.16714 3 2.60015e-05 -4.11745
4656 1 16.9972 12.1411 46.6254 3 2.08718e-05 -4.11721
4657 1 19.47 12.1411 46.6254 3 2.08718e-05 -4.11721
4658 1 18.5387 12.1407 44.2926 3 2.14783e-05 -4.11711
4659 1 21.0114 12.1407 44.2926 3 2.14783e-05 -4.11711
4660 1 20.0785 12.1399 41.9603 3 2.27765e-05 -4.11694
4661 1 22.5513 12.1399 41.9603 3 2.27765e-05 -4.11694
4662 1 21.6157 12.1382 39.6288 3 2.48704e-05 -4.11668
4663 1 24.0885 12.1382 39.6288 3 2.48704e-05 -4.11668
4664 1 23.1495 12.1352 37.2983 3 2.80027e-05 -4.11632
4665 1 25.6223 12.1352 37.2983 3 2.80027e-05 -4.11632
4666 1 24.6794 12.1306 34.9685 3 3.3698e-05 -4.11585
4667 1 27.1522 12.1306 34.9685 3 3.3698e-05 -4.11585
4668 1 26.2053 12.1249 32.6389 3 4.29304e-05 -4.11534
4669 1 28.6781 12.1249 32.6389 3 4.29304e-05 -4.11534
4670 1 27.7281 12.1189 30.3088 3 4.8972e-05 -4.11486
4671 1 30.2009 12.1189 30.3088 3 4.8972e-05 -4.11486
4672 1 29.2488 12.114 27.9776 3 4.63183e-05 -4.1145
4673 1 31.7216 12.114 27.9776 3 4.63183e-05 -4.1145
4674 1 30.7684 12.1112 25.6455 3 4.04781e-05 -4.11431
4675 1 33.2412 12.1112 25.6455 3 4.04781e-05 -4.11431
4676 1 32.2876 12.1112 23.3131 3 4.04781e-05 -4.11431
4677 1 34.7604 12.1112 23.3131 3 4.04781e-05 -4.11431
4678 1 33.8072 12.114 20.981 3 4.63183e-05 -4.1145
4679 1 36.28 12.114 20.981 3 4.63182e-05 -4.1145
4680 1 35.3279 12.1189 18.6499 3 4.8972e-05 -4.11486
4681 1 37.8006 12.1189 18.6499 3 4.8972e-05 -4.11486
4682 1 36.8507 12.1249 16.3197 3 4.29304e-05 -4.11534
4683 1 39.3234 12.1249 16.3197 3 4.29304e-05 -4.11534
4684 1 38.3766 12.1306 13.9902 3 3.36981e-05 -4.11585
4685 1 40.8494 12.1306 13.9902 3 3.36981e-05 -4.11585
4686 1 39.9065 12.1352 11.6604 3 2.80028e-05 -4.11632
4687 1 42.3793 12.1352 11.6604 3 2.80028e-05 -4.11632
4688 1 41.4403 12.1382 9.32983 3 2.48705e-05 -4.11668
4689 1 43.9131 12.1382 9.32983 3 2.48705e-05 -4.11668
4690 1 42.9775 12.1399 6.99836 3 2.27765e-05 -4.11694
4691 1 45.4503 12.1399 6.99836 3 2.27765e-05 -4.11694
4692 1 44.5173 12.1407 4.66607 3 2.14783e-05 -4.11711
4693 1 46.9901 12.1407 4.66607 3 2.14783e-05 -4.11711
4694 1 46.0588 12.1411 2.33318 3 2.08718e-05 -4.11721
4695 1 48.5316 12.1411 2.33318 3 2.08718e-05 -4.11721
4696 1 47.6011 12.1412 6.21114e-09 3 2.06877e-05 -4.11724
4697 1 50.0739 12.1412 6.18315e-09 3 2.06877e-05 -4.11724
4698 1 18.6975 10.1138 47.7925 3 1.59529e-05 -4.11702
4699 1 21.1703 10.1138 47.7925 3 1.59529e-05 -4.11702
4700 1 20.2368 10.1136 45.4603 3 1.54783e-05 -4.11697
4701 1 22.7096 10.1136 45.4603 3 1.54783e-05 -4.11697
4702 1 21.7751 10.1131 43.1284 3 1.49876e-05 -4.11685
4703 1 24.2479 10.1131 43.1284 3 1.49876e-05 -4.11685
4704 1 23.3116 10.1119 40.7971 3 1.53535e-05 -4.11667
4705 1 25.7844 10.1119 40.7971 3 1.53535e-05 -4.11667
4706 1 24.8458 10.1101 38.4664 3 1.79658e-05 -4.11641
4707 1 27.3185 10.1101 38.4664 3 1.79658e-05 -4.11641
4708 1 26.377 10.1072 36.1361 3 2.37569e-05 -4.11607
4709 1 28.8498 10.1072 36.1361 3 2.37569e-05 -4.11607
4710 1 27.9054 10.1037 33.806 3 3.09937e-05 -4.11568
4711 1 30.3782 10.1037 33.806 3 3.09937e-05 -4.11568
4712 1 29.4313 10.0998 31.4755 3 3.39978e-05 -4.11529
4713 1 31.9041 10.0998 31.4755 3 3.39978e-05 -4.11529
4714 1 30.9554 10.0963 29.1441 3 2.94958e-05 -4.11497
4715 1 33.4282 10.0963 29.1441 3 2.94958e-05 -4.11497
4716 1 32.4783 10.0939 26.812 3 2.15714e-05 -4.11475
4717 1 34.9511 10.0939 26.812 3 2.15714e-05 -4.11475
4718 1 34.0008 10.0931 24.4793 3 1.77539e-05 -4.11468
4719 1 36.4736 10.0931 24.4793 3 1.77539e-05 -4.11468
4720 1 35.5232 10.0939 22.1466 3 2.15714e-05 -4.11475
4721 1 37.996 10.0939 22.1466 3 2.15714e-05 -4.11475
4722 1 37.0462 10.0963 19.8145 3 2.94958e-05 -4.11497
4723 1 39.519 10.0963 19.8145 3 2.94958e-05 -4.11497
4724 1 38.5702 10.0998 17.4832 3 3.39978e-05 -4.11529
4725 1 41.043 10.0998 17.4832 3 3.39978e-05 -4.11529
4726 1 40.0961 10.1037 15.1526 3 3.09937e-05 -4.11568
4727 1 42.5689 10.1037 15.1526 3 3.09937e-05 -4.11568
4728 1 41.6245 10.1072 12.8225 3 2.37569e-05 -4.11607
4729 1 44.0973 10.1072 12.8225 3 2.37569e-05 -4.11607
4730 1 43.1558 10.1101 10.4922 3 1.79658e-05 -4.11641
4731 1 45.6286 10.1101 10.4922 3 1.79658e-05 -4.11641
4732 1 44.6899 10.1119 8.16153 3 1.53536e-05 -4.11667
4733 1 47.1627 10.1119 8.16153 3 1.53536e-05 -4.11667
4734 1 46.2265 10.1131 5.83022 3 1.49876e-05 -4.11685
4735 1 48.6992 10.1131 5.83022 3 1.49876e-05 -4.11685
4736 1 47.7647 10.1136 3.49837 3 1.54783e-05 -4.11697
4737 1 50.2375 10.1136 3.49837 3 1.54783e-05 -4.11697
4738 1 49.304 10.1138 1.16616 3 1.59529e-05 -4.11702
4739 1 51.7768 10.1138 1.16616 3 1.59529e-05 -4.11702
4740 1 21.9376 8.0857 46.627 3 1.16e-05 -4.11731
4741 1 24.4104 8.0857 46.627 3 1.16e-05 -4.11731
4742 1 23.4742 8.08542 44.2954 3 1.05633e-05 -4.11722
4743 1 25.947 8.08542 44.2954 3 1.05633e-05 -4.11722
4744 1 25.0098 8.08489 41.9642 3 1.03533e-05 -4.11706
4745 1 27.4826 8.08489 41.9642 3 1.03532e-05 -4.11706
4746 1 26.5439 8.084 39.6332 3 1.28943e-05 -4.11683
4747 1 29.0167 8.084 39.6332 3 1.28943e-05 -4.11683
4748 1 28.076 8.0827 37.3025 3 1.88848e-05 -4.11652
4749 1 30.5488 8.0827 37.3025 3 1.88848e-05 -4.11652
4750 1 29.6061 8.08102 34.9719 3 2.55864e-05 -4.11616
4751 1 32.0789 8.08102 34.9719 3 2.55864e-05 -4.11616
4752 1 31.1343 8.07917 32.641 3 2.77711e-05 -4.11577
4753 1 33.6071 8.07917 32.641 3 2.77711e-05 -4.11577
4754 1 32.6609 8.07741 30.3097 3 2.32112e-05 -4.11542
4755 1 35.1337 8.07741 30.3097 3 2.32113e-05 -4.11542
4756 1 34.1864 8.07606 27.9778 3 1.53105e-05 -4.11515
4757 1 36.6592 8.07606 27.9778 3 1.53105e-05 -4.11515
4758 1 35.7113 8.07532 25.6455 3 9.6003e-06 -4.115
4759 1 38.184 8.07532 25.6455 3 9.6003e-06 -4.115
4760 1 37.2359 8.07532 23.3131 3 9.6003e-06 -4.115
4761 1 39.7087 8.07532 23.3131 3 9.60026e-06 -4.115
4762 1 38.7607 8.07606 20.9808 3 1.53105e-05 -4.11515
4763 1 41.2335 8.07606 20.9808 3 1.53105e-05 -4.11515
4764 1 40.2862 8.07741 18.6489 3 2.32112e-05 -4.11542
4765 1 42.759 8.07741 18.6489 3 2.32112e-05 -4.11542
4766 1 41.8128 8.07917 16.3176 3 2.77711e-05 -4.11577
4767 1 44.2856 8.07917 16.3176 3 2.77711e-05 -4.11577
4768 1 43.341 8.08102 13.9867 3 2.55864e-05 -4.11616
4769 1 45.8138 8.08102 13.9867 3 2.55864e-05 -4.11616
4770 1 44.8711 8.0827 11.6561 3 1.88849e-05 -4.11652
4771 1 47.3439 8.0827 11.6561 3 1.88849e-05 -4.11652
4772 1 46.4033 8.084 9.3254 3 1.28943e-05 -4.11683
4773 1 48.876 8.084 9.3254 3 1.28943e-05 -4.11683
4774 1 47.9373 8.08489 6.99446 3 1.03533e-05 -4.11706
4775 1 50.4101 8.08489 6.99446 3 1.03533e-05 -4.11706
4776 1 49.4729 8.08542 4.66319 3 1.05633e-05 -4.11722
4777 1 51.9457 8.08542 4.66319 3 1.05633e-05 -4.11722
4778 1 51.0095 8.0857 2.33167 3 1.16e-05 -4.11731
4779 1 53.4823 8.0857 2.33167 3 1.16e-05 -4.11731
4780 1 52.5467 8.08578 3.46721e-09 3 1.20963e-05 -4.11734
4781 1 55.0194 8.08578 3.30467e-09 3 1.20964e-05 -4.11734
4782 1 23.6408 6.05706 47.7929 3 0.000192152 -4.11661
4783 1 26.1135 6.05706 47.7929 3 0.000192152 -4.11661
4784 1 25.1756 6.05706 45.4616 3 0.000190055 -4.11656
4785 1 27.6484 6.05706 45.4616 3 0.000190055 -4.11656
4786 1 26.71 6.05706 43.1302 3 0.000182136 -4.11648
4787 1 29.1827 6.05706 43.1302 3 0.000182135 -4.11648
4788 1 28.2435 6.05706 40.7989 3 0.000163309 -4.11634
4789 1 30.7163 6.05706 40.7989 3 0.000163309 -4.11634
4790 1 29.776 6.05706 38.4675 3 0.000131568 -4.11616
4791 1 32.2488 6.05706 38.4675 3 0.000131568 -4.11616
4792 1 31.3073 6.05706 36.1361 3 9.19266e-05 -4.11595
4793 1 33.78 6.05706 36.1361 3 9.19266e-05 -4.11595
4794 1 32.8372 6.05706 33.8048 3 5.47059e-05 -4.11573
4795 1 35.31 6.05706 33.8048 3 5.47059e-05 -4.11573
4796 1 34.3659 6.05706 31.4734 3 2.81608e-05 -4.11553
4797 1 36.8386 6.05706 31.4734 3 2.81608e-05 -4.11553
4798 1 35.8934 6.05706 29.142 3 1.34712e-05 -4.11537
4799 1 38.3662 6.05706 29.142 3 1.34713e-05 -4.11537
4800 1 37.4201 6.05706 26.8107 3 7.01602e-06 -4.11526
4801 1 39.8929 6.05706 26.8107 3 7.01598e-06 -4.11526
4802 1 38.9463 6.05706 24.4793 3 5.26906e-06 -4.11523
4803 1 41.4191 6.05706 24.4793 3 5.26909e-06 -4.11523
4804 1 40.4726 6.05706 22.1479 3 7.01612e-06 -4.11526
4805 1 42.9454 6.05706 22.1479 3 7.01611e-06 -4.11526
4806 1 41.9993 6.05706 19.8166 3 1.34715e-05 -4.11537
4807 1 44.4721 6.05706 19.8166 3 1.34715e-05 -4.11537
4808 1 43.5268 6.05706 17.4852 3 2.81613e-05 -4.11553
4809 1 45.9996 6.05706 17.4852 3 2.81612e-05 -4.11553
4810 1 45.0555 6.05706 15.1539 3 5.47065e-05 -4.11573
4811 1 47.5283 6.05706 15.1539 3 5.47065e-05 -4.11573
4812 1 46.5854 6.05706 12.8225 3 9.19273e-05 -4.11595
4813 1 49.0582 6.05706 12.8225 3 9.19273e-05 -4.11595
4814 1 48.1167 6.05706 10.4911 3 0.000131568 -4.11616
4815 1 50.5895 6.05706 10.4911 3 0.000131569 -4.11616
4816 1 49.6492 6.05706 8.15977 3 0.000163309 -4.11634
4817 1 52.122 6.05706 8.15977 3 0.000163309 -4.11634
4818 1 51.1827 6.05706 5.82841 3 0.000182136 -4.11648
4819 1 53.6555 6.05706 5.82841 3 0.000182136 -4.11648
4820 1 52.7171 6.05706 3.49704 3 0.000190055 -4.11656
4821 1 55.1899 6.05706 3.49704 3 0.000190055 -4.11656
4822 1 54.2519 6.05706 1.16568 3 0.000192152 -4.11661
4823 1 56.7247 6.05706 1.16568 3 0.000192152 -4.11661
4824 1 26.8801 4.03804 46.6273 3 1.41686e-06 -4.11576
4825 1 29.3529 4.03804 46.6273 3 1.41686e-06 -4.11576
4826 1 28.4139 4.03804 44.2959 3 1.43102e-06 -4.11573
4827 1 30.8866 4.03804 44.2959 3 1.43101e-06 -4.11573
4828 1 29.9471 4.03804 41.9645 3 1.45409e-06 -4.11568
4829 1 32.4199 4.03804 41.9645 3 1.45409e-06 -4.11568
4830 1 31.4796 4.03804 39.6332 3 1.48585e-06 -4.11564
4831 1 33.9524 4.03804 39.6332 3 1.48585e-06 -4.11564
4832 1 33.0112 4.03804 37.3018 3 1.52674e-06 -4.11559
4833 1 35.484 4.03804 37.3018 3 1.52673e-06 -4.11559
4834 1 34.5419 4.03804 34.9704 3 1.57732e-06 -4.11556
4835 1 37.0146 4.03804 34.9704 3 1.57732e-06 -4.11556
4836 1 36.0715 4.03804 32.6391 3 1.63656e-06 -4.11554
4837 1 38.5442 4.03804 32.6391 3 1.63654e-06 -4.11554
4838 1 37.6001 4.03804 30.3077 3 1.69894e-06 -4.11552
4839 1 40.0729 4.03804 30.3077 3 1.69892e-06 -4.11552
4840 1 39.1281 4.03804 27.9764 3 1.75327e-06 -4.11552
4841 1 41.6008 4.03804 27.9764 3 1.75327e-06 -4.11552
4842 1 40.6555 4.03804 25.645 3 1.78547e-06 -4.11551
4843 1 43.1283 4.03804 25.645 3 1.78548e-06 -4.11551
4844 1 42.1828 4.03804 23.3136 3 1.7855e-06 -4.11551
4845 1 44.6556 4.03804 23.3136 3 1.78548e-06 -4.11551
4846 1 43.7102 4.03804 20.9823 3 1.75326e-06 -4.11552
4847 1 46.183 4.03804 20.9823 3 1.75329e-06 -4.11552
4848 1 45.2381 4.03804 18.6509 3 1.69894e-06 -4.11552
4849 1 47.7109 4.03804 18.6509 3 1.69892e-06 -4.11552
4850 1 46.7668 4.03804 16.3195 3 1.63656e-06 -4.11554
4851 1 49.2396 4.03804 16.3195 3 1.63654e-06 -4.11554
4852 1 48.2964 4.03804 13.9882 3 1.57729e-06 -4.11556
4853 1 50.7692 4.03804 13.9882 3 1.57733e-06 -4.11556
4854 1 49.827 4.03804 11.6568 3 1.52672e-06 -4.11559
4855 1 52.2998 4.03804 11.6568 3 1.52672e-06 -4.11559
4856 1 51.3586 4.03804 9.32545 3 1.48587e-06 -4.11564
4857 1 53.8314 4.03804 9.32545 3 1.48585e-06 -4.11564
4858 1 52.8912 4.03804 6.99409 3 1.4541e-06 -4.11568
4859 1 55.3639 4.03804 6.99409 3 1.4541e-06 -4.11568
4860 1 54.4244 4.03804 4.66273 3 1.43101e-06 -4.11573
4861 1 56.8972 4.03804 4.66273 3 1.43102e-06 -4.11573
4862 1 55.9582 4.03804 2.33136 3 1.41684e-06 -4.11576
4863 1 58.431 4.03804 2.33136 3 1.41686e-06 -4.11576
4864 1 57.4922 4.03804 0 3 1.41207e-06 -4.11577
4865 1 59.965 4.03804 0 3 1.41206e-06 -4.11577
4866 1 28.5855 2.01902 47.7929 3 8.63883e-07 -4.10005
4867 1 31.0583 2.01902 47.7929 3 8.63857e-07 -4.10005
4868 1 30.1187 2.01902 45.4616 3 8.67515e-07 -4.10002
4869 1 32.5915 2.01902 45.4616 3 8.67536e-07 -4.10002
4870 1 31.6516 2.01902 43.1302 3 8.74829e-07 -4.09998
4871 1 34.1244 2.01902 43.1302 3 8.74814e-07 -4.09998
4872 1 33.1841 2.01902 40.7989 3 8.86011e-07 -4.09991
4873 1 35.6568 2.01902 40.7989 3 8.85999e-07 -4.09991
4874 1 34.7158 2.01902 38.4675 3 9.01604e-07 -4.09983
4875 1 37.1886 2.01902 38.4675 3 9.01619e-07 -4.09983
4876 1 36.2469 2.01902 36.1361 3 9.22383e-07 -4.09974
4877 1 38.7196 2.01902 36.1361 3 9.22391e-07 -4.09974
4878 1 37.7771 2.01902 33.8048 3 9.48463e-07 -4.09964
4879 1 40.2499 2.01902 33.8048 3 9.48481e-07 -4.09964
4880 1 39.3066 2.01902 31.4734 3 9.78191e-07 -4.09956
4881 1 41.7794 2.01902 31.4734 3 9.78204e-07 -4.09956
4882 1 40.8354 2.01902 29.142 3 1.00711e-06 -4.09949
4883 1 43.3082 2.01902 29.142 3 1.00712e-06 -4.09949
4884 1 42.3638 2.01902 26.8107 3 1.02868e-06 -4.09945
4885 1 44.8366 2.01902 26.8107 3 1.02869e-06 -4.09945
4886 1 43.8919 2.01902 24.4793 3 1.03673e-06 -4.09944
4887 1 46.3647 2.01902 24.4793 3 1.0367e-06 -4.09944
4888 1 45.42 2.01902 22.1479 3 1.02868e-06 -4.09945
4889 1 47.8928 2.01902 22.1479 3 1.02869e-06 -4.09945
4890 1 46.9484 2.01902 19.8166 3 1.00711e-06 -4.09949
4891 1 49.4212 2.01902 19.8166 3 1.00712e-06 -4.09949
4892 1 48.4773 2.01902 17.4852 3 9.78191e-07 -4.09956
4893 1 50.95 2.01902 17.4852 3 9.78191e-07 -4.09956
4894 1 50.0067 2.01902 15.1539 3 9.48475e-07 -4.09964
4895 1 52.4795 2.01902 15.1539 3 9.48463e-07 -4.09964
4896 1 51.537 2.01902 12.8225 3 9.22383e-07 -4.09974
4897 1 54.0098 2.01902 12.8225 3 9.22407e-07 -4.09974
4898 1 53.068 2.01902 10.4911 3 9.01608e-07 -4.09983
4899 1 55.5408 2.01902 10.4911 3 9.01619e-07 -4.09983
4900 1 54.5998 2.01902 8.15977 3 8.85998e-07 -4.09991
4901 1 57.0726 2.01902 8.15977 3 8.86011e-07 -4.09991
4902 1 56.1322 2.01902 5.82841 3 8.74829e-07 -4.09998
4903 1 58.605 2.01902 5.82841 3 8.74814e-07 -4.09998
4904 1 57.6651 2.01902 3.49704 3 8.67521e-07 -4.10002
4905 1 60.1379 2.01902 3.49704 3 8.67515e-07 -4.10002
4906 1 59.1983 2.01902 1.16568 3 8.63869e-07 -4.10005
4907 1 61.6711 2.01902 1.16568 3 8.63883e-07 -4.10005
4908 1 31.8243 0 46.6273 5 6.02137 -3.54885
4909 1 34.2971 0 46.6273 5 6.02137 -3.54885
4910 1 33.3569 0 44.2959 5 6.02059 -3.54884
4911 1 35.8297 0 44.2959 5 6.02059 -3.54884
4912 1 34.8892 0 41.9645 5 6.01984 -3.54882
4913 1 37.362 0 41.9645 5 6.01984 -3.54882
4914 1 36.421 0 39.6332 5 6.0192 -3.5488
4915 1 38.8938 0 39.6332 5 6.0192 -3.5488
4916 1 37.9522 0 37.3018 5 6.01871 -3.54878
4917 1 40.425 0 37.3018 5 6.01871 -3.54878
4918 1 39.4829 0 34.9704 5 6.01843 -3.54876
4919 1 41.9557 0 34.9704 5 6.01843 -3.54876
4920 1 41.0129 0 32.6391 5 6.01838 -3.54873
4921 1 43.4857 0 32.6391 5 6.01838 -3.54873
4922 1 42.5425 0 30.3077 5 6.01858 -3.54871
4923 1 45.0152 0 30.3077 5 6.01858 -3.54871
4924 1 44.0715 0 27.9764 5 6.01902 -3.5487
4925 1 46.5443 0 27.9764 5 6.01902 -3.5487
4926 1 45.6003 0 25.645 5 6.01964 -3.54869
4927 1 48.0731 0 25.645 5 6.01964 -3.54869
4928 1 47.1291 0 23.3136 5 6.01964 -3.54869
4929 1 49.6018 0 23.3136 5 6.01964 -3.54869
4930 1 48.6579 0 20.9823 5 6.01902 -3.5487
4931 1 51.1306 0 20.9823 5 6.01902 -3.5487
4932 1 50.1869 0 18.6509 5 6.01858 -3.54871
4933 1 52.6597 0 18.6509 5 6.01858 -3.54871
4934 1 51.7165 0 16.3195 5 6.01838 -3.54873
4935 1 54.1893 0 16.3195 5 6.01838 -3.54873
4936 1 53.2465 0 13.9882 5 6.01843 -3.54876
4937 1 55.7193 0 13.9882 5 6.01843 -3.54876
4938 1 54.7772 0 11.6568 5 6.01871 -3.54878
4939 1 57.25 0 11.6568 5 6.01871 -3.54878
4940 1 56.3084 0 9.32545 5 6.0192 -3.5488
4941 1 58.7812 0 9.32545 5 6.0192 -3.5488
4942 1 57.8402 0 6.99409 5 6.01984 -3.54882
4943 1 60.313 0 6.99409 5 6.01984 -3.54882
4944 1 59.3725 0 4.66273 5 6.02059 -3.54884
4945 1 61.8453 0 4.66273 5 6.02059 -3.54884
4946 1 60.9051 0 2.33136 5 6.02137 -3.54885
4947 1 1.44675 56.5406 2.33165 3 2.19143e-06 -4.12177
4948 1 0.618196 56.5407 48.9586 3 1.81017e-06 -4.12175
4949 1 3.09098 56.5407 48.9586 3 1.81015e-06 -4.12175
4950 1 1.45462 54.5283 5.82911 3 5.81593e-06 -4.12221
4951 1 0.626041 54.5293 3.49738 3 4.47753e-06 -4.12218
4952 1 3.09883 54.5293 3.49738 3 4.47753e-06 -4.12218
4953 1 2.26943 54.5298 1.16578 3 3.89996e-06 -4.12217
4954 1 4.74221 54.5298 1.16578 3 3.89996e-06 -4.12217
4955 1 1.46304 52.5132 9.32602 3 1.15574e-05 -4.12226
4956 1 0.635846 52.5157 6.99411 3 9.67676e-06 -4.12221
4957 1 3.10863 52.5157 6.99411 3 9.67676e-06 -4.12221
4958 1 2.2796 52.5174 4.66251 3 8.29609e-06 -4.12218
4959 1 4.75239 52.5174 4.66251 3 8.29609e-06 -4.12218
4960 1 3.92203 52.5183 2.33117 3 7.52735e-06 -4.12216
4961 1 6.39481 52.5183 2.33117 3 7.52735e-06 -4.12216
4962 1 5.56376 52.5186 48.9586 3 7.22159e-06 -4.12216
4963 1 8.03655 52.5186 48.9586 3 7.22158e-06 -4.12216
4964 1 1.47008 50.4938 12.8223 3 1.86664e-05 -4.12233
4965 1 0.645917 50.4987 10.4901 3 1.67305e-05 -4.12225
4966 1 3.1187 50.4987 10.4901 3 1.67305e-05 -4.12225
4967 1 2.29177 50.5023 8.15817 3 1.53589e-05 -4.1222
4968 1 4.76455 50.5023 8.15817 3 1.53589e-05 -4.1222
4969 1 3.9351 50.5048 5.82678 3 1.38767e-05 -4.12217
4970 1 6.40788 50.5048 5.82678 3 1.38767e-05 -4.12217
4971 1 5.57649 50.5062 3.49585 3 1.26248e-05 -4.12216
4972 1 8.04927 50.5062 3.49585 3 1.26248e-05 -4.12216
4973 1 7.21666 50.5068 1.16525 3 1.18952e-05 -4.12215
4974 1 9.68945 50.5068 1.16525 3 1.18952e-05 -4.12215
4975 1 1.47316 48.4693 16.3184 3 3.04307e-05 -4.12241
4976 1 0.653652 48.4767 13.9857 3 2.64237e-05 -4.12233
4977 1 3.12644 48.4767 13.9857 3 2.64237e-05 -4.12233
4978 1 2.30366 48.4832 11.6532 3 2.49439e-05 -4.12223
4979 1 4.77644 48.4832 11.6532 3 2.49439e-05 -4.12223
4980 1 3.95002 48.4881 9.32123 3 2.41335e-05 -4.12217
4981 1 6.42281 48.4881 9.32123 3 2.41335e-05 -4.12217
4982 1 5.593 48.4913 6.99006 3 2.20453e-05 -4.12215
4983 1 8.06579 48.4913 6.99006 3 2.20453e-05 -4.12215
4984 1 7.2333 48.4932 4.6596 3 1.96273e-05 -4.12214
4985 1 9.70608 48.4932 4.6596 3 1.96273e-05 -4.12214
4986 1 8.87177 48.4942 2.32967 3 1.78386e-05 -4.12214
4987 1 11.3446 48.4942 2.32967 3 1.78386e-05 -4.12214
4988 1 10.5093 48.4945 48.9586 3 1.72512e-05 -4.12214
4989 1 12.9821 48.4945 48.9586 3 1.72512e-05 -4.12214
4990 1 1.46881 46.4409 19.8148 3 6.04472e-05 -4.12248
4991 1 0.655408 46.4495 17.4818 3 4.82066e-05 -4.1224
4992 1 3.12819 46.4495 17.4818 3 4.82066e-05 -4.1224
4993 1 2.31167 46.4588 15.1485 3 4.07035e-05 -4.12231
4994 1 4.78446 46.4588 15.1485 3 4.07035e-05 -4.12231
4995 1 3.96377 46.467 12.8155 3 3.92759e-05 -4.12218
4996 1 6.43655 46.467 12.8155 3 3.92759e-05 -4.12218
4997 1 5.61105 46.4731 10.4833 3 3.8725e-05 -4.12212
4998 1 8.08383 46.4731 10.4833 3 3.8725e-05 -4.12212
4999 1 7.25383 46.4771 8.15231 3 3.46057e-05 -4.1221
5000 1 9.72661 46.4771 8.15231 3 3.46057e-05 -4.1221
5001 1 8.893 46.4794 5.82233 3 2.95039e-05 -4.12211
5002 1 11.3658 46.4794 5.82233 3 2.95039e-05 -4.12211
5003 1 10.5296 46.4807 3.4931 3 2.56145e-05 -4.12212
5004 1 13.0024 46.4807 3.4931 3 2.56145e-05 -4.12212
5005 1 12.1648 46.4812 1.16432 3 2.36101e-05 -4.12212
5006 1 14.6376 46.4812 1.16432 3 2.36101e-05 -4.12212
5007 1 1.452 44.4138 23.3127 3 0.000134837 -4.12254
5008 1 0.646116 44.4195 20.9791 3 0.000113302 -4.12248
5009 1 3.1189 44.4195 20.9791 3 0.000113302 -4.12248
5010 1 2.3107 44.429 18.6451 3 8.3298e-05 -4.12236
5011 1 4.78348 44.429 18.6451 3 8.3298e-05 -4.12236
5012 1 3.97131 44.44 16.3109 3 6.90114e-05 -4.12229
5013 1 6.44409 44.44 16.3109 3 6.90114e-05 -4.12229
5014 1 5.62658 44.4501 13.9771 3 6.6379e-05 -4.12208
5015 1 8.09937 44.4501 13.9771 3 6.6379e-05 -4.12208
5016 1 7.27538 44.4575 11.6445 3 6.50011e-05 -4.12201
5017 1 9.74817 44.4575 11.6445 3 6.50011e-05 -4.12201
5018 1 8.91817 44.4622 9.31364 3 5.52162e-05 -4.12202
5019 1 11.391 44.4622 9.31364 3 5.52162e-05 -4.12202
5020 1 10.5562 44.4648 6.9841 3 4.42897e-05 -4.12205
5021 1 13.029 44.4648 6.9841 3 4.42897e-05 -4.12205
5022 1 12.1909 44.4662 4.65555 3 3.62616e-05 -4.12207
5023 1 14.6636 44.4662 4.65555 3 3.62616e-05 -4.12207
5024 1 13.8234 44.4667 2.32763 3 3.16705e-05 -4.12209
5025 1 16.2962 44.4667 2.32763 3 3.16705e-05 -4.12209
5026 1 15.4549 44.4669 48.9586 3 3.02465e-05 -4.1221
5027 1 17.9277 44.4669 48.9586 3 3.02465e-05 -4.1221
5028 1 1.41597 42.3982 26.8146 3 0.000231706 -4.12249
5029 1 0.618196 42.3944 24.4793 3 0.00027212 -4.12258
5030 1 3.09098 42.3944 24.4793 3 0.00027212 -4.12258
5031 1 2.2932 42.3982 22.144 3 0.000231706 -4.12249
5032 1 4.76599 42.3982 22.144 3 0.000231706 -4.12249
5033 1 3.96543 42.408 19.8085 3 0.000154237 -4.12225
5034 1 6.43822 42.408 19.8085 3 0.000154237 -4.12225
5035 1 5.63239 42.4205 17.4732 3 0.000131069 -4.12226
5036 1 8.10517 42.4205 17.4732 3 0.000131069 -4.12226
5037 1 7.29252 42.4328 15.1382 3 0.000121899 -4.12189
5038 1 9.76531 42.4328 15.1382 3 0.000121899 -4.12189
5039 1 8.94374 42.4416 12.8051 3 0.000115746 -4.12183
5040 1 11.4165 42.4416 12.8051 3 0.000115746 -4.12183
5041 1 10.5868 42.4468 10.4743 3 9.11994e-05 -4.12188
5042 1 13.0596 42.4468 10.4743 3 9.11994e-05 -4.12188
5043 1 12.2237 42.4495 8.14516 3 6.79327e-05 -4.12195
5044 1 14.6965 42.4495 8.14516 3 6.79327e-05 -4.12195
5045 1 13.8562 42.4508 5.81726 3 5.21401e-05 -4.122
5046 1 16.329 42.4508 5.81726 3 5.21401e-05 -4.122
5047 1 15.4858 42.4513 3.4901 3 4.29685e-05 -4.12203
5048 1 17.9586 42.4513 3.4901 3 4.29685e-05 -4.12203
5049 1 17.1139 42.4514 1.16333 3 3.88216e-05 -4.12204
5050 1 19.5867 42.4514 1.16333 3 3.88216e-05 -4.12204
5051 1 1.36025 40.4005 30.3228 3 0.000290858 -4.12227
5052 1 0.563844 40.3872 27.9861 3 0.000307363 -4.122
5053 1 3.03663 40.3872 27.9861 3 0.000307363 -4.122
5054 1 2.24766 40.3784 25.6483 3 0.000523821 -4.12257
5055 1 4.72044 40.3784 25.6483 3 0.000523821 -4.12257
5056 1 3.9343 40.3784 23.3103 3 0.000523821 -4.12257
5057 1 6.40709 40.3784 23.3103 3 0.000523821 -4.12257
5058 1 5.61812 40.3872 20.9725 3 0.000307363 -4.122
5059 1 8.0909 40.3872 20.9725 3 0.000307363 -4.122
5060 1 7.2945 40.4005 18.6358 3 0.000290858 -4.12227
5061 1 9.76728 40.4005 18.6358 3 0.000290858 -4.12227
5062 1 8.96223 40.4155 16.2992 3 0.000248953 -4.12152
5063 1 11.435 40.4155 16.2992 3 0.000248953 -4.12152
5064 1 10.6172 40.4256 13.9654 3 0.000221816 -4.1215
5065 1 13.09 40.4256 13.9654 3 0.000221816 -4.1215
5066 1 12.261 40.431 11.6346 3 0.000158298 -4.12165
5067 1 14.7337 40.431 11.6346 3 0.000158298 -4.12165
5068 1 13.8965 40.4336 9.306 3 0.000108536 -4.12178
5069 1 16.3693 40.4336 9.306 3 0.000108536 -4.12178
5070 1 15.5265 40.4346 6.97871 3 7.80201e-05 -4.12187
5071 1 17.9993 40.4346 6.97871 3 7.80201e-05 -4.12187
5072 1 17.153 40.4348 4.65217 3 6.06629e-05 -4.12193
5073 1 19.6257 40.4348 4.65217 3 6.06629e-05 -4.12193
5074 1 18.7772 40.4348 2.326 3 5.18024e-05 -4.12196
5075 1 21.25 40.4348 2.326 3 5.18024e-05 -4.12196
5076 1 20.4005 40.4348 48.9586 3 4.90573e-05 -4.12197
5077 1 22.8733 40.4348 48.9586 3 4.90573e-05 -4.12197
5078 1 1.30277 38.4098 33.8328 3 0.000468568 -4.12089
5079 1 0.490728 38.3984 31.4983 3 0.00059098 -4.12071
5080 1 2.96351 38.3984 31.4983 3 0.00059098 -4.12071
5081 1 2.17093 38.3799 29.1594 3 0.000820378 -4.12241
5082 1 4.64372 38.3799 29.1594 3 0.000820378 -4.12241
5083 1 3.86176 38.3679 26.8212 3 0.000708783 -4.12138
5084 1 6.33455 38.3679 26.8212 3 0.000708783 -4.12138
5085 1 5.56376 38.3626 24.4793 3 0.00124499 -4.12296
5086 1 8.03655 38.3626 24.4793 3 0.00124499 -4.12296
5087 1 7.26576 38.3679 22.1374 3 0.000708783 -4.12138
5088 1 9.73855 38.3679 22.1374 3 0.000708783 -4.12138
5089 1 8.9566 38.3799 19.7992 3 0.000820378 -4.12241
5090 1 11.4294 38.3799 19.7992 3 0.000820378 -4.12241
5091 1 10.6368 38.3984 17.4603 3 0.00059098 -4.12071
5092 1 13.1096 38.3984 17.4603 3 0.00059098 -4.12071
5093 1 12.2975 38.4098 15.1259 3 0.000468568 -4.12089
5094 1 14.7703 38.4098 15.1259 3 0.000468568 -4.12089
5095 1 13.9423 38.4151 12.7954 3 0.000293667 -4.12125
5096 1 16.4151 38.4151 12.7954 3 0.000293667 -4.12125
5097 1 15.5763 38.4172 10.4675 3 0.000183731 -4.12151
5098 1 18.0491 38.4172 10.4675 3 0.000183731 -4.12151
5099 1 17.2033 38.4177 8.14077 3 0.00012367 -4.12167
5100 1 19.6761 38.4177 8.14077 3 0.00012367 -4.12167
5101 1 18.826 38.4176 5.81463 3 9.07642e-05 -4.12177
5102 1 21.2988 38.4176 5.81463 3 9.07642e-05 -4.12177
5103 1 20.4459 38.4173 3.48873 3 7.3238e-05 -4.12182
5104 1 22.9187 38.4173 3.48873 3 7.3238e-05 -4.12182
5105 1 22.0643 38.4171 1.16291 3 6.55492e-05 -4.12185
5106 1 24.5371 38.4171 1.16291 3 6.55492e-05 -4.12185
5107 1 1.28046 36.4004 37.3276 3 0.000333509 -4.12101
5108 1 0.439252 36.3992 35.0006 3 0.000598223 -4.12049
5109 1 2.91204 36.3992 35.0006 3 0.000598223 -4.12049
5110 1 2.08504 36.3945 32.6711 3 0.00114061 -4.1196
5111 1 4.55782 36.3945 32.6711 3 0.00114061 -4.1196
5112 1 3.75466 36.3823 30.3364 3 0.00177736 -4.11866
5113 1 6.22744 36.3823 30.3364 3 0.00177736 -4.11866
5114 1 5.45737 36.3588 27.9942 3 0.00336124 -4.12315
5115 1 7.93015 36.3588 27.9942 3 0.00336124 -4.12315
5116 1 7.17166 36.3546 25.6544 3 0.00208926 -4.12065
5117 1 9.64445 36.3546 25.6544 3 0.00208926 -4.12065
5118 1 8.90143 36.3546 23.3043 3 0.00208926 -4.12065
5119 1 11.3742 36.3546 23.3043 3 0.00208926 -4.12065
5120 1 10.6157 36.3588 20.9644 3 0.00336124 -4.12315
5121 1 13.0885 36.3588 20.9644 3 0.00336124 -4.12315
5122 1 12.3184 36.3823 18.6222 3 0.00177737 -4.11866
5123 1 14.7912 36.3823 18.6222 3 0.00177737 -4.11866
5124 1 13.9881 36.3945 16.2875 3 0.00114061 -4.1196
5125 1 16.4608 36.3945 16.2875 3 0.00114061 -4.1196
5126 1 15.6338 36.3992 13.9581 3 0.000598223 -4.12049
5127 1 18.1066 36.3992 13.9581 3 0.000598223 -4.12049
5128 1 17.2654 36.4004 11.631 3 0.00033351 -4.12101
5129 1 19.7382 36.4004 11.631 3 0.00033351 -4.12101
5130 1 18.8885 36.4003 9.30478 3 0.000206702 -4.12131
5131 1 21.3613 36.4003 9.30478 3 0.000206702 -4.12131
5132 1 20.5065 36.3997 6.97872 3 0.000142159 -4.1215
5133 1 22.9792 36.3997 6.97872 3 0.000142159 -4.1215
5134 1 22.1212 36.399 4.65258 3 0.000108355 -4.12161
5135 1 24.594 36.399 4.65258 3 0.000108355 -4.12161
5136 1 23.734 36.3986 2.32633 3 9.18568e-05 -4.12168
5137 1 26.2068 36.3986 2.32633 3 9.18568e-05 -4.12168
5138 1 25.346 36.3984 2.28088e-09 3 8.69562e-05 -4.12169
5139 1 27.8188 36.3984 2.28736e-09 3 8.69562e-05 -4.12169
5140 1 1.29496 34.3813 40.8125 3 0.000219406 -4.12107
5141 1 0.433769 34.3823 38.4858 3 0.00034635 -4.12071
5142 1 2.90655 34.3823 38.4858 3 0.00034635 -4.12071
5143 1 2.05088 34.3831 36.1595 3 0.000630913 -4.12007
5144 1 4.52366 34.3831 36.1595 3 0.000630913 -4.12007
5145 1 3.67762 34.383 33.8334 3 0.00135468 -4.11886
5146 1 6.1504 34.383 33.8334 3 0.00135468 -4.11886
5147 1 5.32272 34.3799 31.5058 3 0.00346241 -4.11633
5148 1 7.7955 34.3799 31.5058 3 0.00346241 -4.11633
5149 1 7.00578 34.3684 29.1724 3 0.00841238 -4.11182
5150 1 9.47856 34.3684 29.1724 3 0.00841238 -4.11182
5151 1 8.75907 34.339 26.8251 3 0.0361452 -4.12628
5152 1 11.2319 34.339 26.8251 3 0.0361452 -4.12628
5153 1 10.5093 34.3611 24.4793 3 0.0111429 -4.10153
5154 1 12.9821 34.3611 24.4793 3 0.0111429 -4.10153
5155 1 12.2596 34.339 22.1335 3 0.0361452 -4.12628
5156 1 14.7324 34.339 22.1335 3 0.0361452 -4.12628
5157 1 14.0129 34.3684 19.7862 3 0.00841238 -4.11182
5158 1 16.4857 34.3684 19.7862 3 0.00841238 -4.11182
5159 1 15.6959 34.3799 17.4528 3 0.00346242 -4.11633
5160 1 18.1687 34.3799 17.4528 3 0.00346242 -4.11633
5161 1 17.341 34.383 15.1253 3 0.00135468 -4.11886
5162 1 19.8138 34.383 15.1253 3 0.00135468 -4.11886
5163 1 18.9678 34.3831 12.7991 3 0.000630913 -4.12007
5164 1 21.4406 34.3831 12.7991 3 0.000630913 -4.12007
5165 1 20.5849 34.3823 10.4728 3 0.00034635 -4.12071
5166 1 23.0577 34.3823 10.4728 3 0.00034635 -4.12071
5167 1 22.1965 34.3813 8.14609 3 0.000219406 -4.12107
5168 1 24.6693 34.3813 8.14609 3 0.000219406 -4.12107
5169 1 23.8048 34.3803 5.81895 3 0.000158073 -4.12129
5170 1 26.2776 34.3803 5.81895 3 0.000158073 -4.12129
5171 1 25.4111 34.3796 3.49149 3 0.000127924 -4.12141
5172 1 27.8839 34.3796 3.49149 3 0.000127924 -4.12141
5173 1 27.0164 34.3792 1.16385 3 0.000115414 -4.12147
5174 1 29.4891 34.3792 1.16385 3 0.000115414 -4.12147
5175 1 1.34032 32.3605 44.299 3 0.000163748 -4.12102
5176 1 0.465992 32.3615 41.9694 3 0.000209208 -4.12082
5177 1 2.93878 32.3615 41.9694 3 0.000209208 -4.12082
5178 1 2.0659 32.3628 39.64 3 0.00030275 -4.12045
5179 1 4.53868 32.3628 39.64 3 0.00030275 -4.12045
5180 1 3.66827 32.3642 37.3111 3 0.00051239 -4.11977
5181 1 6.14105 32.3642 37.3111 3 0.00051239 -4.11977
5182 1 5.27495 32.3657 34.9828 3 0.00106837 -4.11841
5183 1 7.74773 32.3657 34.9828 3 0.00106837 -4.11841
5184 1 6.89001 32.3668 32.6555 3 0.00296101 -4.11528
5185 1 9.3628 32.3668 32.6555 3 0.00296101 -4.11528
5186 1 8.52451 32.3659 30.3292 3 0.0128667 -4.10575
5187 1 10.9973 32.3659 30.3292 3 0.0128667 -4.10575
5188 1 10.2193 32.3588 28.0005 3 0.140712 -4.0469
5189 1 12.6921 32.3588 28.0005 3 0.140712 -4.0469
5190 1 12.1828 32.3521 25.6463 5 5.31346 -4.04848
5191 1 14.6556 32.3521 25.6463 5 5.31346 -4.04848
5192 1 13.7814 32.3521 23.3123 5 5.31346 -4.04848
5193 1 16.2542 32.3521 23.3123 5 5.31346 -4.04848
5194 1 15.7449 32.3588 20.9581 3 0.140712 -4.0469
5195 1 18.2177 32.3588 20.9581 3 0.140712 -4.0469
5196 1 17.4397 32.3659 18.6294 3 0.0128667 -4.10575
5197 1 19.9125 32.3659 18.6294 3 0.0128667 -4.10575
5198 1 19.0742 32.3668 16.3031 3 0.00296101 -4.11528
5199 1 21.547 32.3668 16.3031 3 0.00296101 -4.11528
5200 1 20.6893 32.3657 13.9758 3 0.00106837 -4.11841
5201 1 23.1621 32.3657 13.9758 3 0.00106837 -4.11841
5202 1 22.296 32.3642 11.6475 3 0.00051239 -4.11977
5203 1 24.7688 32.3642 11.6475 3 0.00051239 -4.11977
5204 1 23.8983 32.3628 9.31858 3 0.00030275 -4.12045
5205 1 26.3711 32.3628 9.31858 3 0.00030275 -4.12045
5206 1 25.4982 32.3615 6.98921 3 0.000209208 -4.12082
5207 1 27.971 32.3615 6.98921 3 0.000209208 -4.12082
5208 1 27.0967 32.3605 4.65959 3 0.000163749 -4.12102
5209 1 29.5695 32.3605 4.65959 3 0.000163749 -4.12102
5210 1 28.6943 32.3599 2.32983 3 0.000142377 -4.12113
5211 1 31.1671 32.3599 2.32983 3 0.000142377 -4.12113
5212 1 30.2916 32.3597 2.86862e-09 3 0.00013603 -4.12116
5213 1 32.7644 32.3597 2.87974e-09 3 0.00013603 -4.12116
5214 1 1.41276 30.3403 47.7924 3 0.000141586 -4.12074
5215 1 0.529113 30.3408 45.46 3 0.000154623 -4.12067
5216 1 3.0019 30.3408 45.46 3 0.000154623 -4.12067
5217 1 2.11825 30.3417 43.1275 3 0.00018524 -4.12051
5218 1 4.59104 30.3417 43.1275 3 0.00018524 -4.12051
5219 1 3.70738 30.343 40.7947 3 0.000246691 -4.12024
5220 1 6.18017 30.343 40.7947 3 0.000246691 -4.12024
5221 1 5.29645 30.3448 38.4616 3 0.000372786 -4.11979
5222 1 7.76924 30.3448 38.4616 3 0.000372786 -4.11979
5223 1 6.88536 30.3469 36.1279 3 0.000661326 -4.11905
5224 1 9.35814 30.3469 36.1279 3 0.000661326 -4.11905
5225 1 8.47382 30.3494 33.7931 3 0.00146478 -4.1177
5226 1 10.9466 30.3494 33.7931 3 0.00146478 -4.1177
5227 1 10.0613 30.3523 31.4565 3 0.00450872 -4.11471
5228 1 12.5341 30.3523 31.4565 3 0.00450872 -4.11471
5229 1 11.645 30.3548 29.1174 3 0.0254563 -4.10472
5230 1 14.1178 30.3548 29.1174 3 0.0254563 -4.10472
5231 1 13.186 30.3458 26.7868 5 7.69492 -4.05571
5232 1 15.6588 30.3458 26.7868 5 7.69492 -4.05571
5233 1 14.2185 30.3079 24.4793 5 2.29704 -3.99361
5234 1 16.6913 30.3079 24.4793 5 2.29704 -3.99361
5235 1 15.251 30.3458 22.1719 5 7.69492 -4.05571
5236 1 17.7238 30.3458 22.1719 5 7.69492 -4.05571
5237 1 16.792 30.3548 19.8412 3 0.0254563 -4.10472
5238 1 19.2648 30.3548 19.8412 3 0.0254563 -4.10472
5239 1 18.3757 30.3523 17.5021 3 0.00450872 -4.11471
5240 1 20.8485 30.3523 17.5021 3 0.00450872 -4.11471
5241 1 19.9632 30.3494 15.1655 3 0.00146478 -4.1177
5242 1 22.436 30.3494 15.1655 3 0.00146478 -4.1177
5243 1 21.5517 30.3469 12.8307 3 0.000661326 -4.11905
5244 1 24.0244 30.3469 12.8307 3 0.000661326 -4.11905
5245 1 23.1406 30.3448 10.497 3 0.000372786 -4.11979
5246 1 25.6133 30.3448 10.497 3 0.000372786 -4.11979
5247 1 24.7296 30.343 8.16388 3 0.000246692 -4.12024
5248 1 27.2024 30.343 8.16388 3 0.000246692 -4.12024
5249 1 26.3188 30.3417 5.83113 3 0.00018524 -4.12051
5250 1 28.7915 30.3417 5.83113 3 0.00018524 -4.12051
5251 1 27.9079 30.3408 3.4986 3 0.000154623 -4.12067
5252 1 30.3807 30.3408 3.4986 3 0.000154623 -4.12067
5253 1 29.497 30.3403 1.16619 3 0.000141586 -4.12074
5254 1 31.9698 30.3403 1.16619 3 0.000141586 -4.12074
5255 1 2.19939 28.3211 46.6239 3 0.000129519 -4.1202
5256 1 4.67218 28.3211 46.6239 3 0.000129519 -4.1202
5257 1 3.78027 28.3219 44.2889 3 0.000149472 -4.12007
5258 1 6.25305 28.3219 44.2889 3 0.000149472 -4.12007
5259 1 5.36043 28.3233 41.9536 3 0.000191447 -4.11982
5260 1 7.83322 28.3233 41.9536 3 0.000191447 -4.11982
5261 1 6.93932 28.3251 39.6177 3 0.000275951 -4.11942
5262 1 9.4121 28.3251 39.6177 3 0.000275951 -4.11942
5263 1 8.51603 28.3274 37.2809 3 0.000456136 -4.11879
5264 1 10.9888 28.3274 37.2809 3 0.000456136 -4.11879
5265 1 10.0889 28.3302 34.943 3 0.000890241 -4.11774
5266 1 12.5617 28.3302 34.943 3 0.000890241 -4.11774
5267 1 11.6546 28.3332 32.6038 3 0.00219321 -4.11591
5268 1 14.1274 28.3332 32.6038 3 0.00219321 -4.11591
5269 1 13.2043 28.3349 30.2646 3 0.00787771 -4.1127
5270 1 15.677 28.3349 30.2646 3 0.00787771 -4.1127
5271 1 14.7075 28.3262 27.9331 3 0.04025 -4.10128
5272 1 17.1803 28.3262 27.9331 3 0.04025 -4.10128
5273 1 16.0583 28.2786 25.6293 3 0.0799124 -4.03666
5274 1 18.531 28.2786 25.6293 3 0.0799124 -4.03666
5275 1 17.3243 28.2786 23.3294 3 0.0799124 -4.03666
5276 1 19.7971 28.2786 23.3294 3 0.0799124 -4.03666
5277 1 18.675 28.3262 21.0255 3 0.04025 -4.10128
5278 1 21.1478 28.3262 21.0255 3 0.04025 -4.10128
5279 1 20.1783 28.3349 18.694 3 0.00787771 -4.1127
5280 1 22.6511 28.3349 18.694 3 0.00787771 -4.1127
5281 1 21.728 28.3332 16.3548 3 0.00219322 -4.11591
5282 1 24.2007 28.3332 16.3548 3 0.00219322 -4.11591
5283 1 23.2936 28.3302 14.0157 3 0.000890241 -4.11774
5284 1 25.7664 28.3302 14.0157 3 0.000890241 -4.11774
5285 1 24.8666 28.3274 11.6777 3 0.000456136 -4.11879
5286 1 27.3393 28.3274 11.6777 3 0.000456136 -4.11879
5287 1 26.4433 28.3251 9.34094 3 0.000275951 -4.11942
5288 1 28.916 28.3251 9.34094 3 0.000275951 -4.11942
5289 1 28.0222 28.3233 7.00503 3 0.000191447 -4.11982
5290 1 30.4949 28.3233 7.00503 3 0.000191447 -4.11982
5291 1 29.6023 28.3219 4.66972 3 0.000149472 -4.12007
5292 1 32.0751 28.3219 4.66972 3 0.000149472 -4.12007
5293 1 31.1832 28.3211 2.33477 3 0.000129519 -4.1202
5294 1 33.656 28.3211 2.33477 3 0.000129519 -4.1202
5295 1 32.7644 28.3209 4.61005e-09 3 0.000123538 -4.12024
5296 1 35.2372 28.3209 4.59713e-09 3 0.000123538 -4.12024
5297 1 3.87797 26.3015 47.7904 3 9.91672e-05 -4.11967
5298 1 6.35076 26.3015 47.7904 3 9.91672e-05 -4.11967
5299 1 5.45168 26.3021 45.4538 3 0.000109496 -4.11957
5300 1 7.92446 26.3021 45.4538 3 0.000109496 -4.11957
5301 1 7.02453 26.3032 43.117 3 0.000133537 -4.11936
5302 1 9.49732 26.3032 43.117 3 0.000133537 -4.11936
5303 1 8.59577 26.3049 40.7797 3 0.000180367 -4.11901
5304 1 11.0686 26.3049 40.7797 3 0.000180367 -4.11901
5305 1 10.1643 26.307 38.4419 3 0.000271562 -4.11847
5306 1 12.6371 26.307 38.4419 3 0.000271562 -4.11847
5307 1 11.7283 26.3093 36.1037 3 0.000464591 -4.11763
5308 1 14.2011 26.3093 36.1037 3 0.000464591 -4.11763
5309 1 13.2845 26.3112 33.7656 3 0.000951108 -4.11627
5310 1 15.7572 26.3112 33.7656 3 0.000951108 -4.11627
5311 1 14.8255 26.3104 31.4299 3 0.00245828 -4.11406
5312 1 17.2982 26.3104 31.4299 3 0.00245828 -4.11406
5313 1 16.3344 26.3002 29.1027 3 0.00637848 -4.10946
5314 1 18.8072 26.3002 29.1027 3 0.00637848 -4.10946
5315 1 17.7791 26.2669 26.7934 3 0.00997197 -4.09174
5316 1 20.2518 26.2669 26.7934 3 0.00997197 -4.09174
5317 1 19.1641 26.2457 24.4793 3 0.0166214 -4.08223
5318 1 21.6369 26.2457 24.4793 3 0.0166214 -4.08223
5319 1 20.5491 26.2669 22.1652 3 0.00997198 -4.09174
5320 1 23.0219 26.2669 22.1652 3 0.00997198 -4.09174
5321 1 21.9937 26.3002 19.8559 3 0.00637848 -4.10946
5322 1 24.4665 26.3002 19.8559 3 0.00637848 -4.10946
5323 1 23.5027 26.3104 17.5287 3 0.00245828 -4.11406
5324 1 25.9755 26.3104 17.5287 3 0.00245828 -4.11406
5325 1 25.0437 26.3112 15.193 3 0.000951108 -4.11627
5326 1 27.5165 26.3112 15.193 3 0.000951108 -4.11627
5327 1 26.5998 26.3093 12.8549 3 0.000464591 -4.11763
5328 1 29.0726 26.3093 12.8549 3 0.000464591 -4.11763
5329 1 28.1638 26.307 10.5167 3 0.000271562 -4.11847
5330 1 30.6366 26.307 10.5167 3 0.000271562 -4.11847
5331 1 29.7324 26.3049 8.17893 3 0.000180367 -4.11901
5332 1 32.2052 26.3049 8.17893 3 0.000180367 -4.11901
5333 1 31.3036 26.3032 5.84167 3 0.000133537 -4.11936
5334 1 33.7764 26.3032 5.84167 3 0.000133537 -4.11936
5335 1 32.8765 26.3021 3.50483 3 0.000109496 -4.11957
5336 1 35.3493 26.3021 3.50483 3 0.000109496 -4.11957
5337 1 34.4502 26.3015 1.16825 3 9.91672e-05 -4.11967
5338 1 36.923 26.3015 1.16825 3 9.91672e-05 -4.11967
5339 1 7.13122 24.2818 46.6212 3 7.83887e-05 -4.11909
5340 1 9.604 24.2818 46.6212 3 7.83887e-05 -4.11909
5341 1 8.69797 24.2827 44.2836 3 9.09683e-05 -4.11894
5342 1 11.1708 24.2827 44.2836 3 9.09683e-05 -4.11894
5343 1 10.2632 24.2841 41.9459 3 0.000116215 -4.11866
5344 1 12.736 24.2841 41.9459 3 0.000116215 -4.11866
5345 1 11.8258 24.2858 39.6081 3 0.000164011 -4.11823
5346 1 14.2986 24.2858 39.6081 3 0.000164011 -4.11823
5347 1 13.3842 24.2874 37.2705 3 0.000260539 -4.11759
5348 1 15.857 24.2874 37.2705 3 0.000260539 -4.11759
5349 1 14.9354 24.2879 34.9338 3 0.000482604 -4.11663
5350 1 17.4082 24.2879 34.9338 3 0.000482604 -4.11663
5351 1 16.4741 24.2854 32.6002 3 0.00101185 -4.11517
5352 1 18.9469 24.2854 32.6002 3 0.00101185 -4.11517
5353 1 17.9907 24.275 30.2733 3 0.00186199 -4.11259
5354 1 20.4635 24.275 30.2733 3 0.00186199 -4.11259
5355 1 19.4718 24.2507 27.9568 3 0.00236274 -4.10559
5356 1 21.9446 24.2507 27.9568 3 0.00236274 -4.10559
5357 1 20.9199 24.2286 25.64 3 0.0045529 -4.09981
5358 1 23.3927 24.2286 25.64 3 0.0045529 -4.09981
5359 1 22.3538 24.2286 23.3186 3 0.0045529 -4.09981
5360 1 24.8266 24.2286 23.3186 3 0.0045529 -4.09981
5361 1 23.8019 24.2507 21.0019 3 0.00236274 -4.10559
5362 1 26.2747 24.2507 21.0019 3 0.00236274 -4.10559
5363 1 25.283 24.275 18.6853 3 0.00186199 -4.11259
5364 1 27.7558 24.275 18.6853 3 0.00186199 -4.11259
5365 1 26.7996 24.2854 16.3584 3 0.00101185 -4.11517
5366 1 29.2724 24.2854 16.3584 3 0.00101185 -4.11517
5367 1 28.3383 24.2879 14.0248 3 0.000482604 -4.11663
5368 1 30.8111 24.2879 14.0248 3 0.000482604 -4.11663
5369 1 29.8895 24.2874 11.6882 3 0.000260539 -4.11759
5370 1 32.3623 24.2874 11.6882 3 0.000260539 -4.11759
5371 1 31.4479 24.2858 9.35054 3 0.000164011 -4.11823
5372 1 33.9207 24.2858 9.35054 3 0.000164011 -4.11823
5373 1 33.0105 24.2841 7.01272 3 0.000116216 -4.11866
5374 1 35.4833 24.2841 7.01272 3 0.000116216 -4.11866
5375 1 34.5757 24.2827 4.67502 3 9.09683e-05 -4.11894
5376 1 37.0485 24.2827 4.67502 3 9.09683e-05 -4.11894
5377 1 36.1425 24.2818 2.33746 3 7.83887e-05 -4.11909
5378 1 38.6153 24.2818 2.33746 3 7.83887e-05 -4.11909
5379 1 37.71 24.2815 7.93967e-09 3 7.45992e-05 -4.11914
5380 1 40.1827 24.2815 7.92939e-09 3 7.45992e-05 -4.11914
5381 1 8.8175 22.261 47.7898 3 5.81635e-05 -4.11867
5382 1 11.2903 22.261 47.7898 3 5.81635e-05 -4.11867
5383 1 10.379 22.2615 45.4521 3 6.41046e-05 -4.11857
5384 1 12.8518 22.2615 45.4521 3 6.41046e-05 -4.11857
5385 1 11.9393 22.2625 43.1146 3 7.79181e-05 -4.11836
5386 1 14.4121 22.2625 43.1146 3 7.79181e-05 -4.11836
5387 1 13.4973 22.2637 40.7772 3 0.000104555 -4.11804
5388 1 15.9701 22.2637 40.7772 3 0.000104555 -4.11804
5389 1 15.0516 22.2646 38.4403 3 0.000157093 -4.11755
5390 1 17.5244 22.2646 38.4403 3 0.000157093 -4.11755
5391 1 16.5998 22.2642 36.1048 3 0.000266142 -4.11685
5392 1 19.0725 22.2642 36.1048 3 0.000266142 -4.11685
5393 1 18.1381 22.2608 33.7722 3 0.000471623 -4.11582
5394 1 20.6108 22.2608 33.7722 3 0.000471623 -4.11582
5395 1 19.6606 22.2512 31.4446 3 0.000701874 -4.11412
5396 1 22.1334 22.2512 31.4446 3 0.000701874 -4.11412
5397 1 21.1611 22.2327 29.1232 3 0.000811247 -4.11062
5398 1 23.6339 22.2327 29.1232 3 0.000811247 -4.11062
5399 1 22.6414 22.2131 26.8028 3 0.00142287 -4.10738
5400 1 25.1142 22.2131 26.8028 3 0.00142287 -4.10738
5401 1 24.1096 22.2049 24.4793 3 0.00172072 -4.10623
5402 1 26.5824 22.2049 24.4793 3 0.00172072 -4.10623
5403 1 25.5779 22.2131 22.1558 3 0.00142287 -4.10738
5404 1 28.0507 22.2131 22.1558 3 0.00142287 -4.10738
5405 1 27.0581 22.2327 19.8354 3 0.000811247 -4.11062
5406 1 29.5309 22.2327 19.8354 3 0.000811247 -4.11062
5407 1 28.5587 22.2512 17.514 3 0.000701874 -4.11412
5408 1 31.0315 22.2512 17.514 3 0.000701874 -4.11412
5409 1 30.0812 22.2608 15.1864 3 0.000471623 -4.11582
5410 1 32.554 22.2608 15.1864 3 0.000471623 -4.11582
5411 1 31.6195 22.2642 12.8538 3 0.000266141 -4.11685
5412 1 34.0923 22.2642 12.8538 3 0.000266141 -4.11685
5413 1 33.1677 22.2646 10.5183 3 0.000157093 -4.11755
5414 1 35.6405 22.2646 10.5183 3 0.000157093 -4.11755
5415 1 34.722 22.2637 8.18147 3 0.000104555 -4.11804
5416 1 37.1948 22.2637 8.18147 3 0.000104555 -4.11804
5417 1 36.28 22.2625 5.84407 3 7.79181e-05 -4.11836
5418 1 38.7528 22.2625 5.84407 3 7.79181e-05 -4.11836
5419 1 37.8403 22.2615 3.50648 3 6.41046e-05 -4.11857
5420 1 40.3131 22.2615 3.50648 3 6.41046e-05 -4.11857
5421 1 39.4018 22.261 1.16883 3 5.81635e-05 -4.11867
5422 1 41.8746 22.261 1.16883 3 5.81635e-05 -4.11867
5423 1 12.0662 20.2396 46.6214 3 4.80558e-05 -4.11824
5424 1 14.539 20.2396 46.6214 3 4.80558e-05 -4.11824
5425 1 13.6222 20.2402 44.2843 3 5.54392e-05 -4.1181
5426 1 16.095 20.2402 44.2843 3 5.54392e-05 -4.1181
5427 1 15.1764 20.2409 41.9475 3 7.05626e-05 -4.11786
5428 1 17.6492 20.2409 41.9475 3 7.05626e-05 -4.11786
5429 1 16.7275 20.2412 39.6115 3 9.97795e-05 -4.11749
5430 1 19.2002 20.2412 39.6115 3 9.97795e-05 -4.11749
5431 1 18.2735 20.2403 37.2769 3 0.000154051 -4.11696
5432 1 20.7463 20.2403 37.2769 3 0.000154051 -4.11696
5433 1 19.8118 20.2367 34.9447 3 0.000237837 -4.1162
5434 1 22.2845 20.2367 34.9447 3 0.000237837 -4.1162
5435 1 21.3386 20.2283 32.6161 3 0.000309047 -4.11501
5436 1 23.8114 20.2283 32.6161 3 0.000309047 -4.11501
5437 1 22.8508 20.2138 30.2916 3 0.000342001 -4.11299
5438 1 25.3236 20.2138 30.2916 3 0.000342001 -4.11299
5439 1 24.3495 20.1974 27.9681 3 0.000541395 -4.11102
5440 1 26.8222 20.1974 27.9681 3 0.000541395 -4.11102
5441 1 25.8392 20.1865 25.6426 3 0.000695882 -4.1099
5442 1 28.3119 20.1865 25.6426 3 0.000695882 -4.1099
5443 1 27.3257 20.1865 23.316 3 0.000695882 -4.1099
5444 1 29.7985 20.1865 23.316 3 0.000695882 -4.1099
5445 1 28.8154 20.1974 20.9906 3 0.000541395 -4.11102
5446 1 31.2882 20.1974 20.9906 3 0.000541395 -4.11102
5447 1 30.314 20.2138 18.667 3 0.000342001 -4.11299
5448 1 32.7868 20.2138 18.667 3 0.000342001 -4.11299
5449 1 31.8262 20.2283 16.3425 3 0.000309047 -4.11501
5450 1 34.299 20.2283 16.3425 3 0.000309047 -4.11501
5451 1 33.3531 20.2367 14.014 3 0.000237836 -4.1162
5452 1 35.8259 20.2367 14.014 3 0.000237836 -4.1162
5453 1 34.8914 20.2403 11.6818 3 0.000154051 -4.11696
5454 1 37.3642 20.2403 11.6818 3 0.000154051 -4.11696
5455 1 36.4374 20.2412 9.34714 3 9.97795e-05 -4.11749
5456 1 38.9102 20.2412 9.34714 3 9.97795e-05 -4.11749
5457 1 37.9884 20.2409 7.01111 3 7.05627e-05 -4.11786
5458 1 40.4612 20.2409 7.01111 3 7.05627e-05 -4.11786
5459 1 39.5426 20.2402 4.67436 3 5.54392e-05 -4.1181
5460 1 42.0154 20.2402 4.67436 3 5.54392e-05 -4.1181
5461 1 41.0986 20.2396 2.33725 3 4.80558e-05 -4.11824
5462 1 43.5714 20.2396 2.33725 3 4.80558e-05 -4.11824
5463 1 42.6555 20.2394 7.62738e-09 3 4.58252e-05 -4.11829
5464 1 45.1283 20.2394 7.62993e-09 3 4.58252e-05 -4.11829
5465 1 13.7584 18.2167 47.7904 3 3.80993e-05 -4.11796
5466 1 16.2312 18.2167 47.7904 3 3.80993e-05 -4.11796
5467 1 15.3107 18.2169 45.454 3 4.16723e-05 -4.11787
5468 1 17.7835 18.2169 45.454 3 4.16723e-05 -4.11787
5469 1 16.8615 18.2172 43.1181 3 4.99255e-05 -4.1177
5470 1 19.3343 18.2172 43.1181 3 4.99255e-05 -4.1177
5471 1 18.4098 18.2172 40.7829 3 6.57171e-05 -4.11742
5472 1 20.8826 18.2172 40.7829 3 6.57171e-05 -4.11742
5473 1 19.9541 18.216 38.4489 3 9.22624e-05 -4.11701
5474 1 22.4269 18.216 38.4489 3 9.22624e-05 -4.11701
5475 1 21.4924 18.2126 36.1169 3 0.000127291 -4.11643
5476 1 23.9651 18.2126 36.1169 3 0.000127291 -4.11643
5477 1 23.0222 18.2056 33.7876 3 0.000151781 -4.11557
5478 1 25.495 18.2056 33.7876 3 0.000151781 -4.11557
5479 1 24.5418 18.1942 31.4609 3 0.000165317 -4.11428
5480 1 27.0146 18.1942 31.4609 3 0.000165317 -4.11428
5481 1 26.0519 18.1808 29.135 3 0.000239462 -4.11297
5482 1 28.5247 18.1808 29.135 3 0.000239462 -4.11297
5483 1 27.5552 18.1699 26.8079 3 0.000309455 -4.11207
5484 1 30.028 18.1699 26.8079 3 0.000309455 -4.11207
5485 1 29.0552 18.1658 24.4793 3 0.000334306 -4.11174
5486 1 31.528 18.1658 24.4793 3 0.000334306 -4.11174
5487 1 30.5552 18.1699 22.1507 3 0.000309455 -4.11207
5488 1 33.028 18.1699 22.1507 3 0.000309455 -4.11207
5489 1 32.0585 18.1808 19.8236 3 0.000239462 -4.11297
5490 1 34.5313 18.1808 19.8236 3 0.000239462 -4.11297
5491 1 33.5686 18.1942 17.4978 3 0.000165317 -4.11428
5492 1 36.0414 18.1942 17.4978 3 0.000165317 -4.11428
5493 1 35.0882 18.2056 15.171 3 0.000151781 -4.11557
5494 1 37.561 18.2056 15.171 3 0.000151781 -4.11557
5495 1 36.6181 18.2126 12.8417 3 0.000127292 -4.11643
5496 1 39.0908 18.2126 12.8417 3 0.000127292 -4.11643
5497 1 38.1563 18.216 10.5097 3 9.22624e-05 -4.11701
5498 1 40.6291 18.216 10.5097 3 9.22624e-05 -4.11701
5499 1 39.7006 18.2172 8.17577 3 6.57171e-05 -4.11742
5500 1 42.1734 18.2172 8.17577 3 6.57171e-05 -4.11742
5501 1 41.2489 18.2172 5.84054 3 4.99255e-05 -4.1177
5502 1 43.7217 18.2172 5.84054 3 4.99255e-05 -4.1177
5503 1 42.7997 18.2169 3.50458 3 4.16723e-05 -4.11787
5504 1 45.2725 18.2169 3.50458 3 4.16723e-05 -4.11787
5505 1 44.352 18.2167 1.16823 3 3.80993e-05 -4.11796
5506 1 46.8248 18.2167 1.16823 3 3.80993e-05 -4.11796
5507 1 17.0036 16.1927 46.6232 3 3.25865e-05 -4.11766
5508 1 19.4764 16.1927 46.6232 3 3.25865e-05 -4.11766
5509 1 18.5514 16.1928 44.2882 3 3.6577e-05 -4.11754
5510 1 21.0242 16.1928 44.2882 3 3.6577e-05 -4.11754
5511 1 20.0973 16.1925 41.9537 3 4.43745e-05 -4.11733
5512 1 22.5701 16.1925 41.9537 3 4.43745e-05 -4.11733
5513 1 21.6401 16.1913 39.6204 3 5.67156e-05 -4.11702
5514 1 24.1129 16.1913 39.6204 3 5.67156e-05 -4.11702
5515 1 23.1782 16.1884 37.2886 3 7.14129e-05 -4.11657
5516 1 25.6509 16.1884 37.2886 3 7.14129e-05 -4.11657
5517 1 24.71 16.1827 34.9586 3 8.10424e-05 -4.11593
5518 1 27.1828 16.1827 34.9586 3 8.10424e-05 -4.11593
5519 1 26.2345 16.174 32.6304 3 8.87972e-05 -4.11504
5520 1 28.7073 16.174 32.6304 3 8.87972e-05 -4.11504
5521 1 27.752 16.1633 30.3028 3 0.000119747 -4.11412
5522 1 30.2248 16.1633 30.3028 3 0.000119747 -4.11412
5523 1 29.2643 16.1536 27.9744 3 0.000151325 -4.1134
5524 1 31.7371 16.1536 27.9744 3 0.000151325 -4.1134
5525 1 30.7737 16.1478 25.6446 3 0.000163251 -4.11301
5526 1 33.2465 16.1478 25.6446 3 0.000163251 -4.11301
5527 1 32.2822 16.1478 23.3141 3 0.000163251 -4.11301
5528 1 34.755 16.1478 23.3141 3 0.000163251 -4.11301
5529 1 33.7917 16.1536 20.9843 3 0.000151325 -4.1134
5530 1 36.2645 16.1536 20.9843 3 0.000151325 -4.1134
5531 1 35.304 16.1633 18.6558 3 0.000119747 -4.11412
5532 1 37.7768 16.1633 18.6558 3 0.000119747 -4.11412
5533 1 36.8215 16.174 16.3282 3 8.87972e-05 -4.11504
5534 1 39.2943 16.174 16.3282 3 8.87972e-05 -4.11504
5535 1 38.346 16.1827 14 3 8.10424e-05 -4.11593
5536 1 40.8188 16.1827 14 3 8.10424e-05 -4.11593
5537 1 39.8778 16.1884 11.6701 3 7.1413e-05 -4.11657
5538 1 42.3506 16.1884 11.6701 3 7.1413e-05 -4.11657
5539 1 41.4159 16.1913 9.33825 3 5.67156e-05 -4.11702
5540 1 43.8887 16.1913 9.33825 3 5.67156e-05 -4.11702
5541 1 42.9586 16.1925 7.00489 3 4.43745e-05 -4.11733
5542 1 45.4314 16.1925 7.00489 3 4.43745e-05 -4.11733
5543 1 44.5045 16.1928 4.67046 3 3.6577e-05 -4.11754
5544 1 46.9773 16.1928 4.67046 3 3.6577e-05 -4.11754
5545 1 46.0524 16.1927 2.33538 3 3.25865e-05 -4.11766
5546 1 48.5251 16.1927 2.33538 3 3.25865e-05 -4.11766
5547 1 47.6011 16.1927 7.37607e-09 3 3.13416e-05 -4.1177
5548 1 50.0739 16.1927 7.39677e-09 3 3.13416e-05 -4.1177
5549 1 18.7004 14.1675 47.7915 3 2.60015e-05 -4.11745
5550 1 21.1732 14.1675 47.7915 3 2.60015e-05 -4.11745
5551 1 20.2454 14.1674 45.4574 3 2.74318e-05 -4.11738
5552 1 22.7182 14.1674 45.4574 3 2.74318e-05 -4.11738
5553 1 21.789 14.167 43.1237 3 3.05819e-05 -4.11723
5554 1 24.2618 14.167 43.1237 3 3.05819e-05 -4.11723
5555 1 23.3303 14.166 40.7909 3 3.56114e-05 -4.11699
5556 1 25.8031 14.166 40.7909 3 3.56114e-05 -4.11699
5557 1 24.8681 14.1636 38.4592 3 4.15637e-05 -4.11665
5558 1 27.3408 14.1636 38.4592 3 4.15637e-05 -4.11665
5559 1 26.4012 14.1593 36.1289 3 4.62847e-05 -4.11616
5560 1 28.8739 14.1593 36.1289 3 4.62847e-05 -4.11616
5561 1 27.9288 14.1528 33.7998 3 5.23261e-05 -4.11553
5562 1 30.4016 14.1528 33.7998 3 5.23261e-05 -4.11553
5563 1 29.4514 14.1447 31.471 3 6.74147e-05 -4.11484
5564 1 31.9241 14.1447 31.471 3 6.74147e-05 -4.11484
5565 1 30.9699 14.1367 29.1415 3 8.12689e-05 -4.11426
5566 1 33.4426 14.1367 29.1415 3 8.12689e-05 -4.11426
5567 1 32.4859 14.1309 26.8109 3 8.36351e-05 -4.11388
5568 1 34.9587 14.1309 26.8109 3 8.36351e-05 -4.11388
5569 1 34.0008 14.1288 24.4793 3 8.17937e-05 -4.11375
5570 1 36.4736 14.1288 24.4793 3 8.17936e-05 -4.11375
5571 1 35.5157 14.1309 22.1477 3 8.36351e-05 -4.11388
5572 1 37.9885 14.1309 22.1477 3 8.36351e-05 -4.11388
5573 1 37.0317 14.1367 19.8171 3 8.12689e-05 -4.11426
5574 1 39.5045 14.1367 19.8171 3 8.12689e-05 -4.11426
5575 1 38.5502 14.1447 17.4876 3 6.74147e-05 -4.11484
5576 1 41.023 14.1447 17.4876 3 6.74147e-05 -4.11484
5577 1 40.0727 14.1528 15.1588 3 5.23261e-05 -4.11553
5578 1 42.5455 14.1528 15.1588 3 5.23261e-05 -4.11553
5579 1 41.6004 14.1593 12.8297 3 4.62847e-05 -4.11616
5580 1 44.0732 14.1593 12.8297 3 4.62847e-05 -4.11616
5581 1 43.1335 14.1636 10.4994 3 4.15638e-05 -4.11665
5582 1 45.6063 14.1636 10.4994 3 4.15638e-05 -4.11665
5583 1 44.6712 14.166 8.16773 3 3.56115e-05 -4.11699
5584 1 47.144 14.166 8.16773 3 3.56115e-05 -4.11699
5585 1 46.2125 14.167 5.83492 3 3.05818e-05 -4.11723
5586 1 48.6853 14.167 5.83492 3 3.05818e-05 -4.11723
5587 1 47.7562 14.1674 3.50127 3 2.74318e-05 -4.11738
5588 1 50.2289 14.1674 3.50127 3 2.74318e-05 -4.11738
5589 1 49.3012 14.1675 1.16714 3 2.60015e-05 -4.11745
5590 1 51.7739 14.1675 1.16714 3 2.60015e-05 -4.11745
5591 1 21.9428 12.1411 46.6254 3 2.08718e-05 -4.11721
5592 1 24.4155 12.1411 46.6254 3 2.08718e-05 -4.11721
5593 1 23.4842 12.1407 44.2926 3 2.14783e-05 -4.11711
5594 1 25.957 12.1407 44.2926 3 2.14783e-05 -4.11711
5595 1 25.024 12.1399 41.9603 3 2.27765e-05 -4.11694
5596 1 27.4968 12.1399 41.9603 3 2.27765e-05 -4.11694
5597 1 26.5613 12.1382 39.6288 3 2.48704e-05 -4.11668
5598 1 29.0341 12.1382 39.6288 3 2.48704e-05 -4.11668
5599 1 28.0951 12.1352 37.2983 3 2.80027e-05 -4.11632
5600 1 30.5679 12.1352 37.2983 3 2.80027e-05 -4.11632
5601 1 29.6249 12.1306 34.9685 3 3.3698e-05 -4.11585
5602 1 32.0977 12.1306 34.9685 3 3.3698e-05 -4.11585
5603 1 31.1509 12.1249 32.6389 3 4.29304e-05 -4.11534
5604 1 33.6237 12.1249 32.6389 3 4.29304e-05 -4.11534
5605 1 32.6737 12.1189 30.3088 3 4.8972e-05 -4.11486
5606 1 35.1465 12.1189 30.3088 3 4.8972e-05 -4.11486
5607 1 34.1944 12.114 27.9776 3 4.63183e-05 -4.1145
5608 1 36.6672 12.114 27.9776 3 4.63183e-05 -4.1145
5609 1 35.714 12.1112 25.6455 3 4.04781e-05 -4.11431
5610 1 38.1867 12.1112 25.6455 3 4.04781e-05 -4.11431
5611 1 37.2332 12.1112 23.3131 3 4.04781e-05 -4.11431
5612 1 39.706 12.1112 23.3131 3 4.04781e-05 -4.11431
5613 1 38.7527 12.114 20.981 3 4.63182e-05 -4.1145
5614 1 41.2255 12.114 20.981 3 4.63182e-05 -4.1145
5615 1 40.2734 12.1189 18.6499 3 4.8972e-05 -4.11486
5616 1 42.7462 12.1189 18.6499 3 4.8972e-05 -4.11486
5617 1 41.7962 12.1249 16.3197 3 4.29304e-05 -4.11534
5618 1 44.269 12.1249 16.3197 3 4.29304e-05 -4.11534
5619 1 43.3222 12.1306 13.9902 3 3.36981e-05 -4.11585
5620 1 45.795 12.1306 13.9902 3 3.36981e-05 -4.11585
5621 1 44.852 12.1352 11.6604 3 2.80028e-05 -4.11632
5622 1 47.3248 12.1352 11.6604 3 2.80028e-05 -4.11632
5623 1 46.3859 12.1382 9.32983 3 2.48705e-05 -4.11668
5624 1 48.8586 12.1382 9.32983 3 2.48705e-05 -4.11668
5625 1 47.9231 12.1399 6.99836 3 2.27765e-05 -4.11694
5626 1 50.3959 12.1399 6.99836 3 2.27765e-05 -4.11694
5627 1 49.4629 12.1407 4.66607 3 2.14783e-05 -4.11711
5628 1 51.9357 12.1407 4.66607 3 2.14783e-05 -4.11711
5629 1 51.0044 12.1411 2.33318 3 2.08718e-05 -4.11721
5630 1 53.4772 12.1411 2.33318 3 2.08718e-05 -4.11721
5631 1 52.5467 12.1412 6.13501e-09 3 2.06877e-05 -4.11724
5632 1 55.0194 12.1412 6.22758e-09 3 2.06877e-05 -4.11724
5633 1 23.6431 10.1138 47.7925 3 1.59529e-05 -4.11702
5634 1 26.1159 10.1138 47.7925 3 1.59529e-05 -4.11702
5635 1 25.1824 10.1136 45.4603 3 1.54783e-05 -4.11697
5636 1 27.6552 10.1136 45.4603 3 1.54783e-05 -4.11697
5637 1 26.7207 10.1131 43.1284 3 1.49876e-05 -4.11685
5638 1 29.1935 10.1131 43.1284 3 1.49876e-05 -4.11685
5639 1 28.2572 10.1119 40.7971 3 1.53535e-05 -4.11667
5640 1 30.73 10.1119 40.7971 3 1.53535e-05 -4.11667
5641 1 29.7913 10.1101 38.4664 3 1.79658e-05 -4.11641
5642 1 32.2641 10.1101 38.4664 3 1.79658e-05 -4.11641
5643 1 31.3226 10.1072 36.1361 3 2.37569e-05 -4.11607
5644 1 33.7954 10.1072 36.1361 3 2.37569e-05 -4.11607
5645 1 32.851 10.1037 33.806 3 3.09937e-05 -4.11568
5646 1 35.3238 10.1037 33.806 3 3.09937e-05 -4.11568
5647 1 34.3769 10.0998 31.4755 3 3.39978e-05 -4.11529
5648 1 36.8497 10.0998 31.4755 3 3.39978e-05 -4.11529
5649 1 35.9009 10.0963 29.1441 3 2.94958e-05 -4.11497
5650 1 38.3737 10.0963 29.1441 3 2.94958e-05 -4.11497
5651 1 37.4239 10.0939 26.812 3 2.15714e-05 -4.11475
5652 1 39.8967 10.0939 26.812 3 2.15714e-05 -4.11475
5653 1 38.9463 10.0931 24.4793 3 1.77539e-05 -4.11468
5654 1 41.4191 10.0931 24.4793 3 1.77539e-05 -4.11468
5655 1 40.4688 10.0939 22.1466 3 2.15714e-05 -4.11475
5656 1 42.9416 10.0939 22.1466 3 2.15714e-05 -4.11475
5657 1 41.9918 10.0963 19.8145 3 2.94958e-05 -4.11497
5658 1 44.4645 10.0963 19.8145 3 2.94958e-05 -4.11497
5659 1 43.5158 10.0998 17.4832 3 3.39978e-05 -4.11529
5660 1 45.9886 10.0998 17.4832 3 3.39978e-05 -4.11529
5661 1 45.0417 10.1037 15.1526 3 3.09937e-05 -4.11568
5662 1 47.5145 10.1037 15.1526 3 3.09937e-05 -4.11568
5663 1 46.5701 10.1072 12.8225 3 2.37569e-05 -4.11607
5664 1 49.0429 10.1072 12.8225 3 2.37569e-05 -4.11607
5665 1 48.1014 10.1101 10.4922 3 1.79658e-05 -4.11641
5666 1 50.5742 10.1101 10.4922 3 1.79658e-05 -4.11641
5667 1 49.6355 10.1119 8.16153 3 1.53536e-05 -4.11667
5668 1 52.1083 10.1119 8.16153 3 1.53536e-05 -4.11667
5669 1 51.172 10.1131 5.83022 3 1.49876e-05 -4.11685
5670 1 53.6448 10.1131 5.83022 3 1.49876e-05 -4.11685
5671 1 52.7103 10.1136 3.49837 3 1.54783e-05 -4.11697
5672 1 55.1831 10.1136 3.49837 3 1.54783e-05 -4.11697
5673 1 54.2496 10.1138 1.16616 3 1.59529e-05 -4.11702
5674 1 56.7224 10.1138 1.16616 3 1.59529e-05 -4.11702
5675 1 26.8832 8.0857 46.627 3 1.16e-05 -4.11731
5676 1 29.356 8.0857 46.627 3 1.16e-05 -4.11731
5677 1 28.4198 8.08542 44.2954 3 1.05633e-05 -4.11722
5678 1 30.8926 8.08542 44.2954 3 1.05633e-05 -4.11722
5679 1 29.9554 8.08489 41.9642 3 1.03533e-05 -4.11706
5680 1 32.4282 8.08489 41.9642 3 1.03532e-05 -4.11706
5681 1 31.4894 8.084 39.6332 3 1.28943e-05 -4.11683
5682 1 33.9622 8.084 39.6332 3 1.28943e-05 -4.11683
5683 1 33.0216 8.0827 37.3025 3 1.88848e-05 -4.11652
5684 1 35.4944 8.0827 37.3025 3 1.88848e-05 -4.11652
5685 1 34.5517 8.08102 34.9719 3 2.55864e-05 -4.11616
5686 1 37.0245 8.08102 34.9719 3 2.55864e-05 -4.11616
5687 1 36.0799 8.07917 32.641 3 2.77711e-05 -4.11577
5688 1 38.5527 8.07917 32.641 3 2.77711e-05 -4.11577
5689 1 37.6065 8.07741 30.3097 3 2.32112e-05 -4.11542
5690 1 40.0793 8.07741 30.3097 3 2.32113e-05 -4.11542
5691 1 39.132 8.07606 27.9778 3 1.53105e-05 -4.11515
5692 1 41.6048 8.07606 27.9778 3 1.53105e-05 -4.11515
5693 1 40.6568 8.07532 25.6455 3 9.6003e-06 -4.115
5694 1 43.1296 8.07532 25.6455 3 9.6003e-06 -4.115
5695 1 42.1814 8.07532 23.3131 3 9.60026e-06 -4.115
5696 1 44.6542 8.07532 23.3131 3 9.6003e-06 -4.115
5697 1 43.7063 8.07606 20.9808 3 1.53105e-05 -4.11515
5698 1 46.1791 8.07606 20.9808 3 1.53104e-05 -4.11515
5699 1 45.2318 8.07741 18.6489 3 2.32112e-05 -4.11542
5700 1 47.7045 8.07741 18.6489 3 2.32112e-05 -4.11542
5701 1 46.7584 8.07917 16.3176 3 2.77711e-05 -4.11577
5702 1 49.2312 8.07917 16.3176 3 2.77711e-05 -4.11577
5703 1 48.2866 8.08102 13.9867 3 2.55864e-05 -4.11616
5704 1 50.7593 8.08102 13.9867 3 2.55864e-05 -4.11616
5705 1 49.8167 8.0827 11.6561 3 1.88849e-05 -4.11652
5706 1 52.2895 8.0827 11.6561 3 1.88849e-05 -4.11652
5707 1 51.3488 8.084 9.3254 3 1.28943e-05 -4.11683
5708 1 53.8216 8.084 9.3254 3 1.28943e-05 -4.11683
5709 1 52.8829 8.08489 6.99446 3 1.03533e-05 -4.11706
5710 1 55.3557 8.08489 6.99446 3 1.03533e-05 -4.11706
5711 1 54.4185 8.08542 4.66319 3 1.05633e-05 -4.11722
5712 1 56.8912 8.08542 4.66319 3 1.05633e-05 -4.11722
5713 1 55.9551 8.0857 2.33167 3 1.16e-05 -4.11731
5714 1 58.4279 8.0857 2.33167 3 1.16e-05 -4.11731
5715 1 57.4922 8.08578 3.70893e-09 3 1.20963e-05 -4.11734
5716 1 59.965 8.08578 3.14237e-09 3 1.20963e-05 -4.11734
5717 1 28.5863 6.05706 47.7929 3 0.000192152 -4.11661
5718 1 31.0591 6.05706 47.7929 3 0.000192152 -4.11661
5719 1 30.1212 6.05706 45.4616 3 0.000190055 -4.11656
5720 1 32.594 6.05706 45.4616 3 0.000190055 -4.11656
5721 1 31.6555 6.05706 43.1302 3 0.000182136 -4.11648
5722 1 34.1283 6.05706 43.1302 3 0.000182135 -4.11648
5723 1 33.1891 6.05706 40.7989 3 0.000163309 -4.11634
5724 1 35.6619 6.05706 40.7989 3 0.000163309 -4.11634
5725 1 34.7216 6.05706 38.4675 3 0.000131568 -4.11616
5726 1 37.1944 6.05706 38.4675 3 0.000131568 -4.11616
5727 1 36.2528 6.05706 36.1361 3 9.19267e-05 -4.11595
5728 1 38.7256 6.05706 36.1361 3 9.19266e-05 -4.11595
5729 1 37.7828 6.05706 33.8048 3 5.4706e-05 -4.11573
5730 1 40.2556 6.05706 33.8048 3 5.4706e-05 -4.11573
5731 1 39.3114 6.05706 31.4734 3 2.81609e-05 -4.11553
5732 1 41.7842 6.05706 31.4734 3 2.81608e-05 -4.11553
5733 1 40.839 6.05706 29.142 3 1.34712e-05 -4.11537
5734 1 43.3117 6.05706 29.142 3 1.34712e-05 -4.11537
5735 1 42.3657 6.05706 26.8107 3 7.01601e-06 -4.11526
5736 1 44.8384 6.05706 26.8107 3 7.01599e-06 -4.11526
5737 1 43.8919 6.05706 24.4793 3 5.26906e-06 -4.11523
5738 1 46.3647 6.05706 24.4793 3 5.26909e-06 -4.11523
5739 1 45.4182 6.05706 22.1479 3 7.01613e-06 -4.11526
5740 1 47.891 6.05706 22.1479 3 7.0161e-06 -4.11526
5741 1 46.9449 6.05706 19.8166 3 1.34715e-05 -4.11537
5742 1 49.4177 6.05706 19.8166 3 1.34715e-05 -4.11537
5743 1 48.4724 6.05706 17.4852 3 2.81612e-05 -4.11553
5744 1 50.9452 6.05706 17.4852 3 2.81612e-05 -4.11553
5745 1 50.0011 6.05706 15.1539 3 5.47065e-05 -4.11573
5746 1 52.4738 6.05706 15.1539 3 5.47064e-05 -4.11573
5747 1 51.531 6.05706 12.8225 3 9.19272e-05 -4.11595
5748 1 54.0038 6.05706 12.8225 3 9.19273e-05 -4.11595
5749 1 53.0623 6.05706 10.4911 3 0.000131569 -4.11616
5750 1 55.535 6.05706 10.4911 3 0.000131569 -4.11616
5751 1 54.5948 6.05706 8.15977 3 0.000163309 -4.11634
5752 1 57.0675 6.05706 8.15977 3 0.000163309 -4.11634
5753 1 56.1283 6.05706 5.82841 3 0.000182136 -4.11648
5754 1 58.6011 6.05706 5.82841 3 0.000182136 -4.11648
5755 1 57.6627 6.05706 3.49704 3 0.000190055 -4.11656
5756 1 60.1354 6.05706 3.49704 3 0.000190055 -4.11656
5757 1 59.1975 6.05706 1.16568 3 0.000192152 -4.11661
5758 1 61.6703 6.05706 1.16568 3 0.000192152 -4.11661
5759 1 31.8256 4.03804 46.6273 3 1.41686e-06 -4.11576
5760 1 34.2984 4.03804 46.6273 3 1.41684e-06 -4.11576
5761 1 33.3594 4.03804 44.2959 3 1.43102e-06 -4.11573
5762 1 35.8322 4.03804 44.2959 3 1.43101e-06 -4.11573
5763 1 34.8927 4.03804 41.9645 3 1.4541e-06 -4.11568
5764 1 37.3655 4.03804 41.9645 3 1.45411e-06 -4.11568
5765 1 36.4252 4.03804 39.6332 3 1.48587e-06 -4.11564
5766 1 38.898 4.03804 39.6332 3 1.48585e-06 -4.11564
5767 1 37.9568 4.03804 37.3018 3 1.52673e-06 -4.11559
5768 1 40.4296 4.03804 37.3018 3 1.52672e-06 -4.11559
5769 1 39.4874 4.03804 34.9704 3 1.57732e-06 -4.11556
5770 1 41.9602 4.03804 34.9704 3 1.57729e-06 -4.11556
5771 1 41.017 4.03804 32.6391 3 1.63656e-06 -4.11554
5772 1 43.4898 4.03804 32.6391 3 1.63654e-06 -4.11554
5773 1 42.5457 4.03804 30.3077 3 1.69895e-06 -4.11552
5774 1 45.0185 4.03804 30.3077 3 1.69894e-06 -4.11552
5775 1 44.0736 4.03804 27.9764 3 1.75327e-06 -4.11552
5776 1 46.5464 4.03804 27.9764 3 1.75326e-06 -4.11552
5777 1 45.6011 4.03804 25.645 3 1.78548e-06 -4.11551
5778 1 48.0738 4.03804 25.645 3 1.7855e-06 -4.11551
5779 1 47.1283 4.03804 23.3136 3 1.78548e-06 -4.11551
5780 1 49.6011 4.03804 23.3136 3 1.78548e-06 -4.11551
5781 1 48.6558 4.03804 20.9823 3 1.75327e-06 -4.11552
5782 1 51.1286 4.03804 20.9823 3 1.75326e-06 -4.11552
5783 1 50.1837 4.03804 18.6509 3 1.69896e-06 -4.11552
5784 1 52.6565 4.03804 18.6509 3 1.69894e-06 -4.11552
5785 1 51.7124 4.03804 16.3195 3 1.63656e-06 -4.11554
5786 1 54.1852 4.03804 16.3195 3 1.63654e-06 -4.11554
5787 1 53.242 4.03804 13.9882 3 1.57732e-06 -4.11556
5788 1 55.7148 4.03804 13.9882 3 1.57732e-06 -4.11556
5789 1 54.7726 4.03804 11.6568 3 1.52674e-06 -4.11559
5790 1 57.2454 4.03804 11.6568 3 1.52674e-06 -4.11559
5791 1 56.3042 4.03804 9.32545 3 1.48587e-06 -4.11564
5792 1 58.777 4.03804 9.32545 3 1.48585e-06 -4.11564
5793 1 57.8367 4.03804 6.99409 3 1.4541e-06 -4.11568
5794 1 60.3095 4.03804 6.99409 3 1.4541e-06 -4.11568
5795 1 59.37 4.03804 4.66273 3 1.43101e-06 -4.11573
5796 1 61.8428 4.03804 4.66273 3 1.43101e-06 -4.11573
5797 1 60.9038 4.03804 2.33136 3 1.41686e-06 -4.11576
5798 1 33.5311 2.01902 47.7929 3 8.63883e-07 -4.10005
5799 1 36.0038 2.01902 47.7929 3 8.63869e-07 -4.10005
5800 1 35.0643 2.01902 45.4616 3 8.67506e-07 -4.10002
5801 1 37.5371 2.01902 45.4616 3 8.67515e-07 -4.10002
5802 1 36.5972 2.01902 43.1302 3 8.74834e-07 -4.09998
5803 1 39.07 2.01902 43.1302 3 8.74829e-07 -4.09998
5804 1 38.1296 2.01902 40.7989 3 8.85998e-07 -4.09991
5805 1 40.6024 2.01902 40.7989 3 8.86011e-07 -4.09991
5806 1 39.6614 2.01902 38.4675 3 9.01615e-07 -4.09983
5807 1 42.1342 2.01902 38.4675 3 9.01634e-07 -4.09983
5808 1 41.1924 2.01902 36.1361 3 9.22375e-07 -4.09974
5809 1 43.6652 2.01902 36.1361 3 9.22398e-07 -4.09974
5810 1 42.7227 2.01902 33.8048 3 9.48475e-07 -4.09964
5811 1 45.1954 2.01902 33.8048 3 9.48463e-07 -4.09964
5812 1 44.2521 2.01902 31.4734 3 9.78174e-07 -4.09956
5813 1 46.7249 2.01902 31.4734 3 9.78204e-07 -4.09956
5814 1 45.781 2.01902 29.142 3 1.00713e-06 -4.09949
5815 1 48.2538 2.01902 29.142 3 1.00712e-06 -4.09949
5816 1 47.3094 2.01902 26.8107 3 1.02868e-06 -4.09945
5817 1 49.7821 2.01902 26.8107 3 1.02868e-06 -4.09945
5818 1 48.8375 2.01902 24.4793 3 1.03673e-06 -4.09944
5819 1 51.3103 2.01902 24.4793 3 1.03671e-06 -4.09944
5820 1 50.3656 2.01902 22.1479 3 1.02866e-06 -4.09945
5821 1 52.8384 2.01902 22.1479 3 1.02869e-06 -4.09945
5822 1 51.894 2.01902 19.8166 3 1.00712e-06 -4.09949
5823 1 54.3668 2.01902 19.8166 3 1.00712e-06 -4.09949
5824 1 53.4228 2.01902 17.4852 3 9.78204e-07 -4.09956
5825 1 55.8956 2.01902 17.4852 3 9.78189e-07 -4.09956
5826 1 54.9523 2.01902 15.1539 3 9.48478e-07 -4.09964
5827 1 57.4251 2.01902 15.1539 3 9.4846e-07 -4.09964
5828 1 56.4825 2.01902 12.8225 3 9.22375e-07 -4.09974
5829 1 58.9553 2.01902 12.8225 3 9.22391e-07 -4.09974
5830 1 58.0136 2.01902 10.4911 3 9.01608e-07 -4.09983
5831 1 60.4864 2.01902 10.4911 3 9.01619e-07 -4.09983
5832 1 59.5453 2.01902 8.15977 3 8.86011e-07 -4.09991
5833 1 62.0181 2.01902 8.15977 3 8.85998e-07 -4.09991
5834 1 61.0778 2.01902 5.82841 3 8.74839e-07 -4.09998
5835 1 36.7699 0 46.6273 5 6.02137 -3.54885
5836 1 39.2427 0 46.6273 5 6.02137 -3.54885
5837 1 38.3025 0 44.2959 5 6.02059 -3.54884
5838 1 40.7753 0 44.2959 5 6.02059 -3.54884
5839 1 39.8347 0 41.9645 5 6.01984 -3.54882
5840 1 42.3075 0 41.9645 5 6.01984 -3.54882
5841 1 41.3665 0 39.6332 5 6.0192 -3.5488
5842 1 43.8393 0 39.6332 5 6.0192 -3.5488
5843 1 42.8978 0 37.3018 5 6.01871 -3.54878
5844 1 45.3706 0 37.3018 5 6.01871 -3.54878
5845 1 44.4284 0 34.9704 5 6.01843 -3.54876
5846 1 46.9012 0 34.9704 5 6.01843 -3.54876
5847 1 45.9585 0 32.6391 5 6.01838 -3.54873
5848 1 48.4313 0 32.6391 5 6.01838 -3.54873
5849 1 47.488 0 30.3077 5 6.01858 -3.54871
5850 1 49.9608 0 30.3077 5 6.01858 -3.54871
5851 1 49.0171 0 27.9764 5 6.01902 -3.5487
5852 1 51.4899 0 27.9764 5 6.01902 -3.5487
5853 1 50.5459 0 25.645 5 6.01964 -3.54869
5854 1 53.0187 0 25.645 5 6.01964 -3.54869
5855 1 52.0746 0 23.3136 5 6.01964 -3.54869
5856 1 54.5474 0 23.3136 5 6.01964 -3.54869
5857 1 53.6034 0 20.9823 5 6.01902 -3.5487
5858 1 56.0762 0 20.9823 5 6.01902 -3.5487
5859 1 55.1325 0 18.6509 5 6.01858 -3.54871
5860 1 57.6053 0 18.6509 5 6.01858 -3.54871
5861 1 56.662 0 16.3195 5 6.01838 -3.54873
5862 1 59.1348 0 16.3195 5 6.01838 -3.54873
5863 1 58.1921 0 13.9882 5 6.01843 -3.54876
5864 1 60.6649 0 13.9882 5 6.01843 -3.54876
5865 1 59.7227 0 11.6568 5 6.01871 -3.54878
5866 1 62.1955 0 11.6568 5 6.01871 -3.54878
5867 1 61.254 0 9.32545 5 6.0192 -3.5488
5868 1 1.44522 60.5706 2.33136 3 1.02056e-06 -4.10666
5869 1 0.618196 60.5706 0 3 1.01799e-06 -4.10667
5870 1 3.09098 60.5706 0 3 1.01801e-06 -4.10667
5871 1 1.45072 58.5516 5.82841 3 0.000110457 -4.12234
5872 1 0.623441 58.5516 3.49704 3 0.000125533 -4.12231
5873 1 3.09622 58.5516 3.49704 3 0.000125533 -4.12231
5874 1 2.26852 58.5516 1.16568 3 0.000133584 -4.1223
5875 1 4.7413 58.5516 1.16568 3 0.000133584 -4.1223
5876 1 1.45564 56.5386 9.32688 3 9.06614e-06 -4.122
5877 1 0.629411 56.5395 6.99509 3 5.88395e-06 -4.1219
5878 1 3.10219 56.5395 6.99509 3 5.88396e-06 -4.1219
5879 1 2.27487 56.5402 4.66334 3 3.49757e-06 -4.12182
5880 1 4.74766 56.5402 4.66334 3 3.49758e-06 -4.12182
5881 1 3.91953 56.5406 2.33165 3 2.19145e-06 -4.12177
5882 1 6.39231 56.5406 2.33165 3 2.19143e-06 -4.12177
5883 1 5.56376 56.5407 48.9586 3 1.81015e-06 -4.12175
5884 1 8.03655 56.5407 48.9586 3 1.81017e-06 -4.12175
5885 1 1.45898 54.5221 12.8249 3 1.34554e-05 -4.12238
5886 1 0.634871 54.5247 10.493 3 1.0958e-05 -4.12232
5887 1 3.10765 54.5247 10.493 3 1.0958e-05 -4.12232
5888 1 2.28191 54.5268 8.16101 3 8.05886e-06 -4.12226
5889 1 4.7547 54.5268 8.16101 3 8.05887e-06 -4.12226
5890 1 3.9274 54.5283 5.82911 3 5.81593e-06 -4.12221
5891 1 6.40018 54.5283 5.82911 3 5.81593e-06 -4.12221
5892 1 5.57161 54.5293 3.49738 3 4.47753e-06 -4.12218
5893 1 8.04439 54.5293 3.49738 3 4.47753e-06 -4.12218
5894 1 7.215 54.5298 1.16578 3 3.89996e-06 -4.12217
5895 1 9.68778 54.5298 1.16578 3 3.89996e-06 -4.12217
5896 1 1.45969 52.5014 16.322 3 1.70391e-05 -4.12245
5897 1 0.63838 52.5057 13.9902 3 1.63502e-05 -4.12239
5898 1 3.11116 52.5057 13.9902 3 1.63502e-05 -4.12239
5899 1 2.28813 52.5098 11.6581 3 1.40121e-05 -4.12233
5900 1 4.76091 52.5098 11.6581 3 1.40121e-05 -4.12233
5901 1 3.93582 52.5132 9.32602 3 1.15574e-05 -4.12226
5902 1 6.4086 52.5132 9.32602 3 1.15574e-05 -4.12226
5903 1 5.58141 52.5157 6.99411 3 9.67676e-06 -4.12221
5904 1 8.0542 52.5157 6.99411 3 9.67676e-06 -4.12221
5905 1 7.22517 52.5174 4.66251 3 8.29609e-06 -4.12218
5906 1 9.69796 52.5174 4.66251 3 8.29609e-06 -4.12218
5907 1 8.8676 52.5183 2.33117 3 7.52735e-06 -4.12216
5908 1 11.3404 52.5183 2.33117 3 7.52735e-06 -4.12216
5909 1 10.5093 52.5186 48.9586 3 7.22159e-06 -4.12216
5910 1 12.9821 52.5186 48.9586 3 7.22158e-06 -4.12216
5911 1 1.45652 50.477 19.818 3 2.21126e-05 -4.12249
5912 1 0.638392 50.4822 17.4866 3 2.30165e-05 -4.12246
5913 1 3.11118 50.4822 17.4866 3 2.30165e-05 -4.12246
5914 1 2.29166 50.488 15.1546 3 2.12611e-05 -4.12241
5915 1 4.76444 50.488 15.1546 3 2.12611e-05 -4.12241
5916 1 3.94286 50.4938 12.8223 3 1.86664e-05 -4.12233
5917 1 6.41565 50.4938 12.8223 3 1.86664e-05 -4.12233
5918 1 5.59149 50.4987 10.4901 3 1.67305e-05 -4.12225
5919 1 8.06427 50.4987 10.4901 3 1.67305e-05 -4.12225
5920 1 7.23734 50.5023 8.15817 3 1.53589e-05 -4.1222
5921 1 9.71012 50.5023 8.15817 3 1.53589e-05 -4.1222
5922 1 8.88067 50.5048 5.82678 3 1.38767e-05 -4.12217
5923 1 11.3535 50.5048 5.82678 3 1.38767e-05 -4.12217
5924 1 10.5221 50.5062 3.49585 3 1.26248e-05 -4.12216
5925 1 12.9948 50.5062 3.49585 3 1.26248e-05 -4.12216
5926 1 12.1622 50.5068 1.16525 3 1.18952e-05 -4.12215
5927 1 14.635 50.5068 1.16525 3 1.18952e-05 -4.12215
5928 1 1.44739 48.4526 23.3138 3 3.66337e-05 -4.12251
5929 1 0.632778 48.456 20.9826 3 3.745e-05 -4.1225
5930 1 3.10556 48.456 20.9826 3 3.745e-05 -4.1225
5931 1 2.29016 48.4619 18.6508 3 3.52972e-05 -4.12247
5932 1 4.76294 48.4619 18.6508 3 3.52972e-05 -4.12247
5933 1 3.94595 48.4693 16.3184 3 3.04307e-05 -4.12241
5934 1 6.41873 48.4693 16.3184 3 3.04307e-05 -4.12241
5935 1 5.59922 48.4767 13.9857 3 2.64237e-05 -4.12233
5936 1 8.072 48.4767 13.9857 3 2.64237e-05 -4.12233
5937 1 7.24922 48.4832 11.6532 3 2.49439e-05 -4.12223
5938 1 9.72201 48.4832 11.6532 3 2.49439e-05 -4.12223
5939 1 8.89559 48.4881 9.32123 3 2.41335e-05 -4.12217
5940 1 11.3684 48.4881 9.32123 3 2.41335e-05 -4.12217
5941 1 10.5386 48.4913 6.99006 3 2.20453e-05 -4.12215
5942 1 13.0114 48.4913 6.99006 3 2.20453e-05 -4.12215
5943 1 12.1789 48.4932 4.6596 3 1.96273e-05 -4.12214
5944 1 14.6517 48.4932 4.6596 3 1.96273e-05 -4.12214
5945 1 13.8173 48.4942 2.32967 3 1.78386e-05 -4.12214
5946 1 16.2901 48.4942 2.32967 3 1.78386e-05 -4.12214
5947 1 15.4549 48.4945 48.9586 3 1.72512e-05 -4.12214
5948 1 17.9277 48.4945 48.9586 3 1.72512e-05 -4.12214
5949 1 1.42887 46.4347 26.8113 3 6.90738e-05 -4.12252
5950 1 0.618196 46.4324 24.4793 3 7.12415e-05 -4.12253
5951 1 3.09098 46.4324 24.4793 3 7.12415e-05 -4.12253
5952 1 2.28031 46.4347 22.1473 3 6.90738e-05 -4.12252
5953 1 4.75309 46.4347 22.1473 3 6.90738e-05 -4.12252
5954 1 3.94159 46.4409 19.8148 3 6.04472e-05 -4.12248
5955 1 6.41438 46.4409 19.8148 3 6.04472e-05 -4.12248
5956 1 5.60098 46.4495 17.4818 3 4.82066e-05 -4.1224
5957 1 8.07376 46.4495 17.4818 3 4.82066e-05 -4.1224
5958 1 7.25724 46.4588 15.1485 3 4.07035e-05 -4.12231
5959 1 9.73003 46.4588 15.1485 3 4.07035e-05 -4.12231
5960 1 8.90934 46.467 12.8155 3 3.92759e-05 -4.12218
5961 1 11.3821 46.467 12.8155 3 3.92759e-05 -4.12218
5962 1 10.5566 46.4731 10.4833 3 3.8725e-05 -4.12212
5963 1 13.0294 46.4731 10.4833 3 3.8725e-05 -4.12212
5964 1 12.1994 46.4771 8.15231 3 3.46057e-05 -4.1221
5965 1 14.6722 46.4771 8.15231 3 3.46057e-05 -4.1221
5966 1 13.8386 46.4794 5.82233 3 2.95039e-05 -4.12211
5967 1 16.3113 46.4794 5.82233 3 2.95039e-05 -4.12211
5968 1 15.4752 46.4807 3.4931 3 2.56145e-05 -4.12212
5969 1 17.948 46.4807 3.4931 3 2.56145e-05 -4.12212
5970 1 17.1104 46.4812 1.16432 3 2.36101e-05 -4.12212
5971 1 19.5831 46.4812 1.16432 3 2.36101e-05 -4.12212
5972 1 1.39848 44.429 30.3136 3 8.3298e-05 -4.12236
5973 1 0.590276 44.4195 27.9795 3 0.000113302 -4.12248
5974 1 3.06306 44.4195 27.9795 3 0.000113302 -4.12248
5975 1 2.25717 44.4138 25.646 3 0.000134837 -4.12254
5976 1 4.72996 44.4138 25.646 3 0.000134837 -4.12254
5977 1 3.92479 44.4138 23.3127 3 0.000134837 -4.12254
5978 1 6.39757 44.4138 23.3127 3 0.000134837 -4.12254
5979 1 5.59168 44.4195 20.9791 3 0.000113302 -4.12248
5980 1 8.06447 44.4195 20.9791 3 0.000113302 -4.12248
5981 1 7.25627 44.429 18.6451 3 8.3298e-05 -4.12236
5982 1 9.72905 44.429 18.6451 3 8.3298e-05 -4.12236
5983 1 8.91688 44.44 16.3109 3 6.90114e-05 -4.12229
5984 1 11.3897 44.44 16.3109 3 6.90114e-05 -4.12229
5985 1 10.5722 44.4501 13.9771 3 6.6379e-05 -4.12208
5986 1 13.0449 44.4501 13.9771 3 6.6379e-05 -4.12208
5987 1 12.2209 44.4575 11.6445 3 6.50011e-05 -4.12201
5988 1 14.6937 44.4575 11.6445 3 6.50011e-05 -4.12201
5989 1 13.8637 44.4622 9.31364 3 5.52162e-05 -4.12202
5990 1 16.3365 44.4622 9.31364 3 5.52162e-05 -4.12202
5991 1 15.5018 44.4648 6.9841 3 4.42897e-05 -4.12205
5992 1 17.9746 44.4648 6.9841 3 4.42897e-05 -4.12205
5993 1 17.1364 44.4662 4.65555 3 3.62616e-05 -4.12207
5994 1 19.6092 44.4662 4.65555 3 3.62616e-05 -4.12207
5995 1 18.769 44.4667 2.32763 3 3.16705e-05 -4.12209
5996 1 21.2417 44.4667 2.32763 3 3.16705e-05 -4.12209
5997 1 20.4005 44.4669 48.9586 3 3.02465e-05 -4.1221
5998 1 22.8733 44.4669 48.9586 3 3.02465e-05 -4.1221
5999 1 1.36222 42.4328 33.8204 3 0.000121899 -4.12189
6000 1 0.54957 42.4205 31.4854 3 0.000131069 -4.12226
6001 1 3.02235 42.4205 31.4854 3 0.000131069 -4.12226
6002 1 2.21653 42.408 29.1501 3 0.000154237 -4.12225
6003 1 4.68931 42.408 29.1501 3 0.000154237 -4.12225
6004 1 3.88876 42.3982 26.8146 3 0.000231706 -4.12249
6005 1 6.36154 42.3982 26.8146 3 0.000231706 -4.12249
6006 1 5.56376 42.3944 24.4793 3 0.00027212 -4.12258
6007 1 8.03655 42.3944 24.4793 3 0.00027212 -4.12258
6008 1 7.23877 42.3982 22.144 3 0.000231706 -4.12249
6009 1 9.71155 42.3982 22.144 3 0.000231706 -4.12249
6010 1 8.911 42.408 19.8085 3 0.000154237 -4.12225
6011 1 11.3838 42.408 19.8085 3 0.000154237 -4.12225
6012 1 10.578 42.4205 17.4732 3 0.000131069 -4.12226
6013 1 13.0507 42.4205 17.4732 3 0.000131069 -4.12226
6014 1 12.2381 42.4328 15.1382 3 0.000121899 -4.12189
6015 1 14.7109 42.4328 15.1382 3 0.000121899 -4.12189
6016 1 13.8893 42.4416 12.8051 3 0.000115746 -4.12183
6017 1 16.3621 42.4416 12.8051 3 0.000115746 -4.12183
6018 1 15.5324 42.4468 10.4743 3 9.11994e-05 -4.12188
6019 1 18.0052 42.4468 10.4743 3 9.11994e-05 -4.12188
6020 1 17.1693 42.4495 8.14516 3 6.79327e-05 -4.12195
6021 1 19.642 42.4495 8.14516 3 6.79327e-05 -4.12195
6022 1 18.8017 42.4508 5.81726 3 5.21401e-05 -4.122
6023 1 21.2745 42.4508 5.81726 3 5.21401e-05 -4.122
6024 1 20.4314 42.4513 3.4901 3 4.29685e-05 -4.12203
6025 1 22.9042 42.4513 3.4901 3 4.29685e-05 -4.12203
6026 1 22.0595 42.4514 1.16333 3 3.88216e-05 -4.12204
6027 1 24.5323 42.4514 1.16333 3 3.88216e-05 -4.12204
6028 1 1.33936 40.431 37.324 3 0.000158298 -4.12165
6029 1 0.510325 40.4256 34.9932 3 0.000221815 -4.1215
6030 1 2.98311 40.4256 34.9932 3 0.000221815 -4.1215
6031 1 2.1653 40.4155 32.6594 3 0.000248953 -4.12152
6032 1 4.63808 40.4155 32.6594 3 0.000248953 -4.12152
6033 1 3.83303 40.4005 30.3228 3 0.000290858 -4.12227
6034 1 6.30581 40.4005 30.3228 3 0.000290858 -4.12227
6035 1 5.50941 40.3872 27.9861 3 0.000307363 -4.122
6036 1 7.9822 40.3872 27.9861 3 0.000307363 -4.122
6037 1 7.19322 40.3784 25.6483 3 0.000523821 -4.12257
6038 1 9.66601 40.3784 25.6483 3 0.000523821 -4.12257
6039 1 8.87987 40.3784 23.3103 3 0.000523821 -4.12257
6040 1 11.3527 40.3784 23.3103 3 0.000523821 -4.12257
6041 1 10.5637 40.3872 20.9725 3 0.000307363 -4.122
6042 1 13.0365 40.3872 20.9725 3 0.000307363 -4.122
6043 1 12.2401 40.4005 18.6358 3 0.000290858 -4.12227
6044 1 14.7128 40.4005 18.6358 3 0.000290858 -4.12227
6045 1 13.9078 40.4155 16.2992 3 0.000248953 -4.12152
6046 1 16.3806 40.4155 16.2992 3 0.000248953 -4.12152
6047 1 15.5628 40.4256 13.9654 3 0.000221816 -4.1215
6048 1 18.0356 40.4256 13.9654 3 0.000221816 -4.1215
6049 1 17.2065 40.431 11.6346 3 0.000158298 -4.12165
6050 1 19.6793 40.431 11.6346 3 0.000158298 -4.12165
6051 1 18.8421 40.4336 9.306 3 0.000108536 -4.12178
6052 1 21.3149 40.4336 9.306 3 0.000108536 -4.12178
6053 1 20.4721 40.4346 6.97871 3 7.80201e-05 -4.12187
6054 1 22.9449 40.4346 6.97871 3 7.80201e-05 -4.12187
6055 1 22.0985 40.4348 4.65217 3 6.06629e-05 -4.12193
6056 1 24.5713 40.4348 4.65217 3 6.06629e-05 -4.12193
6057 1 23.7228 40.4348 2.326 3 5.18024e-05 -4.12196
6058 1 26.1956 40.4348 2.326 3 5.18024e-05 -4.12196
6059 1 25.346 40.4348 48.9586 3 4.90573e-05 -4.12197
6060 1 27.8188 40.4348 48.9586 3 4.90573e-05 -4.12197
6061 1 1.34254 38.4177 40.8179 3 0.00012367 -4.12167
6062 1 0.496806 38.4172 38.4912 3 0.000183731 -4.12151
6063 1 2.96959 38.4172 38.4912 3 0.000183731 -4.12151
6064 1 2.1308 38.4151 36.1632 3 0.000293667 -4.12125
6065 1 4.60358 38.4151 36.1632 3 0.000293667 -4.12125
6066 1 3.77556 38.4098 33.8328 3 0.000468568 -4.12089
6067 1 6.24834 38.4098 33.8328 3 0.000468568 -4.12089
6068 1 5.4363 38.3984 31.4983 3 0.00059098 -4.12071
6069 1 7.90908 38.3984 31.4983 3 0.00059098 -4.12071
6070 1 7.1165 38.3799 29.1594 3 0.000820378 -4.12241
6071 1 9.58928 38.3799 29.1594 3 0.000820378 -4.12241
6072 1 8.80733 38.3679 26.8212 3 0.000708783 -4.12138
6073 1 11.2801 38.3679 26.8212 3 0.000708783 -4.12138
6074 1 10.5093 38.3626 24.4793 3 0.00124499 -4.12296
6075 1 12.9821 38.3626 24.4793 3 0.00124499 -4.12296
6076 1 12.2113 38.3679 22.1374 3 0.000708783 -4.12138
6077 1 14.6841 38.3679 22.1374 3 0.000708783 -4.12138
6078 1 13.9022 38.3799 19.7992 3 0.000820378 -4.12241
6079 1 16.3749 38.3799 19.7992 3 0.000820378 -4.12241
6080 1 15.5824 38.3984 17.4603 3 0.00059098 -4.12071
6081 1 18.0552 38.3984 17.4603 3 0.00059098 -4.12071
6082 1 17.2431 38.4098 15.1259 3 0.000468568 -4.12089
6083 1 19.7159 38.4098 15.1259 3 0.000468568 -4.12089
6084 1 18.8879 38.4151 12.7954 3 0.000293667 -4.12125
6085 1 21.3607 38.4151 12.7954 3 0.000293667 -4.12125
6086 1 20.5219 38.4172 10.4675 3 0.000183731 -4.12151
6087 1 22.9946 38.4172 10.4675 3 0.000183731 -4.12151
6088 1 22.1489 38.4177 8.14077 3 0.00012367 -4.12167
6089 1 24.6217 38.4177 8.14077 3 0.00012367 -4.12167
6090 1 23.7715 38.4176 5.81463 3 9.07642e-05 -4.12177
6091 1 26.2443 38.4176 5.81463 3 9.07642e-05 -4.12177
6092 1 25.3914 38.4173 3.48873 3 7.3238e-05 -4.12182
6093 1 27.8642 38.4173 3.48873 3 7.3238e-05 -4.12182
6094 1 27.0099 38.4171 1.16291 3 6.55492e-05 -4.12185
6095 1 29.4826 38.4171 1.16291 3 6.55492e-05 -4.12185
6096 1 1.37027 36.399 44.306 3 0.000108355 -4.12161
6097 1 0.512207 36.3997 41.9799 3 0.000142159 -4.1215
6098 1 2.98499 36.3997 41.9799 3 0.000142159 -4.1215
6099 1 2.13013 36.4003 39.6538 3 0.000206701 -4.12131
6100 1 4.60291 36.4003 39.6538 3 0.000206701 -4.12131
6101 1 3.75324 36.4004 37.3276 3 0.000333509 -4.12101
6102 1 6.22603 36.4004 37.3276 3 0.000333509 -4.12101
6103 1 5.38482 36.3992 35.0006 3 0.000598223 -4.12049
6104 1 7.8576 36.3992 35.0006 3 0.000598223 -4.12049
6105 1 7.03061 36.3945 32.6711 3 0.00114061 -4.1196
6106 1 9.50339 36.3945 32.6711 3 0.00114061 -4.1196
6107 1 8.70022 36.3823 30.3364 3 0.00177736 -4.11866
6108 1 11.173 36.3823 30.3364 3 0.00177736 -4.11866
6109 1 10.4029 36.3588 27.9942 3 0.00336124 -4.12315
6110 1 12.8757 36.3588 27.9942 3 0.00336124 -4.12315
6111 1 12.1172 36.3546 25.6544 3 0.00208926 -4.12065
6112 1 14.59 36.3546 25.6544 3 0.00208926 -4.12065
6113 1 13.847 36.3546 23.3043 3 0.00208926 -4.12065
6114 1 16.3198 36.3546 23.3043 3 0.00208926 -4.12065
6115 1 15.5613 36.3588 20.9644 3 0.00336124 -4.12315
6116 1 18.0341 36.3588 20.9644 3 0.00336124 -4.12315
6117 1 17.264 36.3823 18.6222 3 0.00177737 -4.11866
6118 1 19.7368 36.3823 18.6222 3 0.00177737 -4.11866
6119 1 18.9336 36.3945 16.2875 3 0.00114061 -4.1196
6120 1 21.4064 36.3945 16.2875 3 0.00114061 -4.1196
6121 1 20.5794 36.3992 13.9581 3 0.000598223 -4.12049
6122 1 23.0522 36.3992 13.9581 3 0.000598223 -4.12049
6123 1 22.211 36.4004 11.631 3 0.00033351 -4.12101
6124 1 24.6838 36.4004 11.631 3 0.00033351 -4.12101
6125 1 23.8341 36.4003 9.30478 3 0.000206702 -4.12131
6126 1 26.3069 36.4003 9.30478 3 0.000206702 -4.12131
6127 1 25.452 36.3997 6.97872 3 0.000142159 -4.1215
6128 1 27.9248 36.3997 6.97872 3 0.000142159 -4.1215
6129 1 27.0668 36.399 4.65258 3 0.000108355 -4.12161
6130 1 29.5395 36.399 4.65258 3 0.000108355 -4.12161
6131 1 28.6796 36.3986 2.32633 3 9.18568e-05 -4.12168
6132 1 31.1524 36.3986 2.32633 3 9.18568e-05 -4.12168
6133 1 30.2916 36.3984 2.27774e-09 3 8.69562e-05 -4.12169
6134 1 32.7644 36.3984 2.2855e-09 3 8.69562e-05 -4.12169
6135 1 1.42066 34.3792 47.7948 3 0.000115414 -4.12147
6136 1 0.553149 34.3796 45.4671 3 0.000127924 -4.12141
6137 1 3.02593 34.3796 45.4671 3 0.000127924 -4.12141
6138 1 2.15947 34.3803 43.1397 3 0.000158073 -4.12129
6139 1 4.63225 34.3803 43.1397 3 0.000158073 -4.12129
6140 1 3.76775 34.3813 40.8125 3 0.000219406 -4.12107
6141 1 6.24053 34.3813 40.8125 3 0.000219406 -4.12107
6142 1 5.37934 34.3823 38.4858 3 0.00034635 -4.12071
6143 1 7.85212 34.3823 38.4858 3 0.00034635 -4.12071
6144 1 6.99645 34.3831 36.1595 3 0.000630913 -4.12007
6145 1 9.46923 34.3831 36.1595 3 0.000630913 -4.12007
6146 1 8.62319 34.383 33.8334 3 0.00135468 -4.11886
6147 1 11.096 34.383 33.8334 3 0.00135468 -4.11886
6148 1 10.2683 34.3799 31.5058 3 0.00346241 -4.11633
6149 1 12.7411 34.3799 31.5058 3 0.00346241 -4.11633
6150 1 11.9513 34.3684 29.1724 3 0.00841238 -4.11182
6151 1 14.4241 34.3684 29.1724 3 0.00841238 -4.11182
6152 1 13.7046 34.339 26.8251 3 0.0361452 -4.12628
6153 1 16.1774 34.339 26.8251 3 0.0361452 -4.12628
6154 1 15.4549 34.3611 24.4793 3 0.0111429 -4.10153
6155 1 17.9277 34.3611 24.4793 3 0.0111429 -4.10153
6156 1 17.2052 34.339 22.1335 3 0.0361452 -4.12628
6157 1 19.6779 34.339 22.1335 3 0.0361452 -4.12628
6158 1 18.9585 34.3684 19.7862 3 0.00841238 -4.11182
6159 1 21.4312 34.3684 19.7862 3 0.00841238 -4.11182
6160 1 20.6415 34.3799 17.4528 3 0.00346242 -4.11633
6161 1 23.1143 34.3799 17.4528 3 0.00346242 -4.11633
6162 1 22.2866 34.383 15.1253 3 0.00135468 -4.11886
6163 1 24.7594 34.383 15.1253 3 0.00135468 -4.11886
6164 1 23.9134 34.3831 12.7991 3 0.000630913 -4.12007
6165 1 26.3861 34.3831 12.7991 3 0.000630913 -4.12007
6166 1 25.5305 34.3823 10.4728 3 0.00034635 -4.12071
6167 1 28.0032 34.3823 10.4728 3 0.00034635 -4.12071
6168 1 27.1421 34.3813 8.14609 3 0.000219406 -4.12107
6169 1 29.6148 34.3813 8.14609 3 0.000219406 -4.12107
6170 1 28.7503 34.3803 5.81895 3 0.000158073 -4.12129
6171 1 31.2231 34.3803 5.81895 3 0.000158073 -4.12129
6172 1 30.3567 34.3796 3.49149 3 0.000127924 -4.12141
6173 1 32.8294 34.3796 3.49149 3 0.000127924 -4.12141
6174 1 31.9619 34.3792 1.16385 3 0.000115414 -4.12147
6175 1 34.4347 34.3792 1.16385 3 0.000115414 -4.12147
6176 1 2.21546 32.3599 46.6288 3 0.000142377 -4.12113
6177 1 4.68824 32.3599 46.6288 3 0.000142377 -4.12113
6178 1 3.8131 32.3605 44.299 3 0.000163748 -4.12102
6179 1 6.28588 32.3605 44.299 3 0.000163748 -4.12102
6180 1 5.41156 32.3615 41.9694 3 0.000209208 -4.12082
6181 1 7.88434 32.3615 41.9694 3 0.000209208 -4.12082
6182 1 7.01147 32.3628 39.64 3 0.00030275 -4.12045
6183 1 9.48425 32.3628 39.64 3 0.00030275 -4.12045
6184 1 8.61383 32.3642 37.3111 3 0.00051239 -4.11977
6185 1 11.0866 32.3642 37.3111 3 0.00051239 -4.11977
6186 1 10.2205 32.3657 34.9828 3 0.00106837 -4.11841
6187 1 12.6933 32.3657 34.9828 3 0.00106837 -4.11841
6188 1 11.8356 32.3668 32.6555 3 0.00296101 -4.11528
6189 1 14.3084 32.3668 32.6555 3 0.00296101 -4.11528
6190 1 13.4701 32.3659 30.3292 3 0.0128667 -4.10575
6191 1 15.9429 32.3659 30.3292 3 0.0128667 -4.10575
6192 1 15.1649 32.3588 28.0005 3 0.140712 -4.0469
6193 1 17.6377 32.3588 28.0005 3 0.140712 -4.0469
6194 1 17.1284 32.3521 25.6463 5 5.31346 -4.04848
6195 1 19.6012 32.3521 25.6463 5 5.31346 -4.04848
6196 1 18.727 32.3521 23.3123 5 5.31346 -4.04848
6197 1 21.1998 32.3521 23.3123 5 5.31346 -4.04848
6198 1 20.6905 32.3588 20.9581 3 0.140712 -4.0469
6199 1 23.1632 32.3588 20.9581 3 0.140712 -4.0469
6200 1 22.3853 32.3659 18.6294 3 0.0128667 -4.10575
6201 1 24.8581 32.3659 18.6294 3 0.0128667 -4.10575
6202 1 24.0198 32.3668 16.3031 3 0.00296101 -4.11528
6203 1 26.4926 32.3668 16.3031 3 0.00296101 -4.11528
6204 1 25.6349 32.3657 13.9758 3 0.00106837 -4.11841
6205 1 28.1076 32.3657 13.9758 3 0.00106837 -4.11841
6206 1 27.2415 32.3642 11.6475 3 0.00051239 -4.11977
6207 1 29.7143 32.3642 11.6475 3 0.00051239 -4.11977
6208 1 28.8439 32.3628 9.31858 3 0.00030275 -4.12045
6209 1 31.3167 32.3628 9.31858 3 0.00030275 -4.12045
6210 1 30.4438 32.3615 6.98921 3 0.000209208 -4.12082
6211 1 32.9166 32.3615 6.98921 3 0.000209208 -4.12082
6212 1 32.0423 32.3605 4.65959 3 0.000163749 -4.12102
6213 1 34.5151 32.3605 4.65959 3 0.000163749 -4.12102
6214 1 33.6399 32.3599 2.32983 3 0.000142377 -4.12113
6215 1 36.1127 32.3599 2.32983 3 0.000142377 -4.12113
6216 1 35.2372 32.3597 2.86813e-09 3 0.00013603 -4.12116
6217 1 37.71 32.3597 2.87909e-09 3 0.00013603 -4.12116
6218 1 3.88555 30.3403 47.7924 3 0.000141586 -4.12074
6219 1 6.35833 30.3403 47.7924 3 0.000141586 -4.12074
6220 1 5.47468 30.3408 45.46 3 0.000154623 -4.12067
6221 1 7.94747 30.3408 45.46 3 0.000154623 -4.12067
6222 1 7.06382 30.3417 43.1275 3 0.00018524 -4.12051
6223 1 9.5366 30.3417 43.1275 3 0.00018524 -4.12051
6224 1 8.65295 30.343 40.7947 3 0.000246691 -4.12024
6225 1 11.1257 30.343 40.7947 3 0.000246691 -4.12024
6226 1 10.242 30.3448 38.4616 3 0.000372786 -4.11979
6227 1 12.7148 30.3448 38.4616 3 0.000372786 -4.11979
6228 1 11.8309 30.3469 36.1279 3 0.000661326 -4.11905
6229 1 14.3037 30.3469 36.1279 3 0.000661326 -4.11905
6230 1 13.4194 30.3494 33.7931 3 0.00146478 -4.1177
6231 1 15.8922 30.3494 33.7931 3 0.00146478 -4.1177
6232 1 15.0069 30.3523 31.4565 3 0.00450872 -4.11471
6233 1 17.4797 30.3523 31.4565 3 0.00450872 -4.11471
6234 1 16.5906 30.3548 29.1174 3 0.0254563 -4.10472
6235 1 19.0634 30.3548 29.1174 3 0.0254563 -4.10472
6236 1 18.1316 30.3458 26.7868 5 7.69492 -4.05571
6237 1 20.6044 30.3458 26.7868 5 7.69492 -4.05571
6238 1 19.1641 30.3079 24.4793 5 2.29704 -3.99361
6239 1 21.6369 30.3079 24.4793 5 2.29704 -3.99361
6240 1 20.1965 30.3458 22.1719 5 7.69492 -4.05571
6241 1 22.6693 30.3458 22.1719 5 7.69492 -4.05571
6242 1 21.7376 30.3548 19.8412 3 0.0254563 -4.10472
6243 1 24.2104 30.3548 19.8412 3 0.0254563 -4.10472
6244 1 23.3213 30.3523 17.5021 3 0.00450872 -4.11471
6245 1 25.7941 30.3523 17.5021 3 0.00450872 -4.11471
6246 1 24.9088 30.3494 15.1655 3 0.00146478 -4.1177
6247 1 27.3815 30.3494 15.1655 3 0.00146478 -4.1177
6248 1 26.4972 30.3469 12.8307 3 0.000661326 -4.11905
6249 1 28.97 30.3469 12.8307 3 0.000661326 -4.11905
6250 1 28.0861 30.3448 10.497 3 0.000372786 -4.11979
6251 1 30.5589 30.3448 10.497 3 0.000372786 -4.11979
6252 1 29.6752 30.343 8.16388 3 0.000246692 -4.12024
6253 1 32.148 30.343 8.16388 3 0.000246692 -4.12024
6254 1 31.2643 30.3417 5.83113 3 0.00018524 -4.12051
6255 1 33.7371 30.3417 5.83113 3 0.00018524 -4.12051
6256 1 32.8535 30.3408 3.4986 3 0.000154623 -4.12067
6257 1 35.3263 30.3408 3.4986 3 0.000154623 -4.12067
6258 1 34.4426 30.3403 1.16619 3 0.000141586 -4.12074
6259 1 36.9154 30.3403 1.16619 3 0.000141586 -4.12074
6260 1 7.14496 28.3211 46.6239 3 0.000129519 -4.1202
6261 1 9.61775 28.3211 46.6239 3 0.000129519 -4.1202
6262 1 8.72584 28.3219 44.2889 3 0.000149472 -4.12007
6263 1 11.1986 28.3219 44.2889 3 0.000149472 -4.12007
6264 1 10.306 28.3233 41.9536 3 0.000191447 -4.11982
6265 1 12.7788 28.3233 41.9536 3 0.000191447 -4.11982
6266 1 11.8849 28.3251 39.6177 3 0.000275951 -4.11942
6267 1 14.3577 28.3251 39.6177 3 0.000275951 -4.11942
6268 1 13.4616 28.3274 37.2809 3 0.000456136 -4.11879
6269 1 15.9344 28.3274 37.2809 3 0.000456136 -4.11879
6270 1 15.0345 28.3302 34.943 3 0.000890241 -4.11774
6271 1 17.5073 28.3302 34.943 3 0.000890241 -4.11774
6272 1 16.6002 28.3332 32.6038 3 0.00219321 -4.11591
6273 1 19.073 28.3332 32.6038 3 0.00219321 -4.11591
6274 1 18.1498 28.3349 30.2646 3 0.00787771 -4.1127
6275 1 20.6226 28.3349 30.2646 3 0.00787771 -4.1127
6276 1 19.6531 28.3262 27.9331 3 0.04025 -4.10128
6277 1 22.1259 28.3262 27.9331 3 0.04025 -4.10128
6278 1 21.0038 28.2786 25.6293 3 0.0799124 -4.03666
6279 1 23.4766 28.2786 25.6293 3 0.0799124 -4.03666
6280 1 22.2699 28.2786 23.3294 3 0.0799124 -4.03666
6281 1 24.7427 28.2786 23.3294 3 0.0799124 -4.03666
6282 1 23.6206 28.3262 21.0255 3 0.04025 -4.10128
6283 1 26.0934 28.3262 21.0255 3 0.04025 -4.10128
6284 1 25.1239 28.3349 18.694 3 0.00787771 -4.1127
6285 1 27.5967 28.3349 18.694 3 0.00787771 -4.1127
6286 1 26.6735 28.3332 16.3548 3 0.00219322 -4.11591
6287 1 29.1463 28.3332 16.3548 3 0.00219322 -4.11591
6288 1 28.2392 28.3302 14.0157 3 0.000890241 -4.11774
6289 1 30.712 28.3302 14.0157 3 0.000890241 -4.11774
6290 1 29.8121 28.3274 11.6777 3 0.000456136 -4.11879
6291 1 32.2849 28.3274 11.6777 3 0.000456136 -4.11879
6292 1 31.3888 28.3251 9.34094 3 0.000275951 -4.11942
6293 1 33.8616 28.3251 9.34094 3 0.000275951 -4.11942
6294 1 32.9677 28.3233 7.00503 3 0.000191447 -4.11982
6295 1 35.4405 28.3233 7.00503 3 0.000191447 -4.11982
6296 1 34.5479 28.3219 4.66972 3 0.000149472 -4.12007
6297 1 37.0207 28.3219 4.66972 3 0.000149472 -4.12007
6298 1 36.1288 28.3211 2.33477 3 0.000129519 -4.1202
6299 1 38.6015 28.3211 2.33477 3 0.000129519 -4.1202
6300 1 37.71 28.3209 4.60814e-09 3 0.000123538 -4.12024
6301 1 40.1827 28.3209 4.59628e-09 3 0.000123538 -4.12024
6302 1 8.82354 26.3015 47.7904 3 9.91672e-05 -4.11967
6303 1 11.2963 26.3015 47.7904 3 9.91672e-05 -4.11967
6304 1 10.3972 26.3021 45.4538 3 0.000109496 -4.11957
6305 1 12.87 26.3021 45.4538 3 0.000109496 -4.11957
6306 1 11.9701 26.3032 43.117 3 0.000133537 -4.11936
6307 1 14.4429 26.3032 43.117 3 0.000133537 -4.11936
6308 1 13.5413 26.3049 40.7797 3 0.000180367 -4.11901
6309 1 16.0141 26.3049 40.7797 3 0.000180367 -4.11901
6310 1 15.1099 26.307 38.4419 3 0.000271562 -4.11847
6311 1 17.5827 26.307 38.4419 3 0.000271562 -4.11847
6312 1 16.6739 26.3093 36.1037 3 0.000464591 -4.11763
6313 1 19.1467 26.3093 36.1037 3 0.000464591 -4.11763
6314 1 18.23 26.3112 33.7656 3 0.000951108 -4.11627
6315 1 20.7028 26.3112 33.7656 3 0.000951108 -4.11627
6316 1 19.771 26.3104 31.4299 3 0.00245828 -4.11406
6317 1 22.2438 26.3104 31.4299 3 0.00245828 -4.11406
6318 1 21.28 26.3002 29.1027 3 0.00637848 -4.10946
6319 1 23.7528 26.3002 29.1027 3 0.00637848 -4.10946
6320 1 22.7246 26.2669 26.7934 3 0.00997197 -4.09174
6321 1 25.1974 26.2669 26.7934 3 0.00997197 -4.09174
6322 1 24.1096 26.2457 24.4793 3 0.0166214 -4.08223
6323 1 26.5824 26.2457 24.4793 3 0.0166214 -4.08223
6324 1 25.4947 26.2669 22.1652 3 0.00997198 -4.09174
6325 1 27.9674 26.2669 22.1652 3 0.00997198 -4.09174
6326 1 26.9393 26.3002 19.8559 3 0.00637848 -4.10946
6327 1 29.4121 26.3002 19.8559 3 0.00637848 -4.10946
6328 1 28.4483 26.3104 17.5287 3 0.00245828 -4.11406
6329 1 30.921 26.3104 17.5287 3 0.00245828 -4.11406
6330 1 29.9893 26.3112 15.193 3 0.000951108 -4.11627
6331 1 32.462 26.3112 15.193 3 0.000951108 -4.11627
6332 1 31.5454 26.3093 12.8549 3 0.000464591 -4.11763
6333 1 34.0182 26.3093 12.8549 3 0.000464591 -4.11763
6334 1 33.1094 26.307 10.5167 3 0.000271562 -4.11847
6335 1 35.5822 26.307 10.5167 3 0.000271562 -4.11847
6336 1 34.6779 26.3049 8.17893 3 0.000180367 -4.11901
6337 1 37.1507 26.3049 8.17893 3 0.000180367 -4.11901
6338 1 36.2492 26.3032 5.84167 3 0.000133537 -4.11936
6339 1 38.722 26.3032 5.84167 3 0.000133537 -4.11936
6340 1 37.822 26.3021 3.50483 3 0.000109496 -4.11957
6341 1 40.2948 26.3021 3.50483 3 0.000109496 -4.11957
6342 1 39.3957 26.3015 1.16825 3 9.91672e-05 -4.11967
6343 1 41.8685 26.3015 1.16825 3 9.91672e-05 -4.11967
6344 1 12.0768 24.2818 46.6212 3 7.83887e-05 -4.11909
6345 1 14.5496 24.2818 46.6212 3 7.83887e-05 -4.11909
6346 1 13.6435 24.2827 44.2836 3 9.09683e-05 -4.11894
6347 1 16.1163 24.2827 44.2836 3 9.09683e-05 -4.11894
6348 1 15.2088 24.2841 41.9459 3 0.000116215 -4.11866
6349 1 17.6816 24.2841 41.9459 3 0.000116215 -4.11866
6350 1 16.7714 24.2858 39.6081 3 0.000164011 -4.11823
6351 1 19.2442 24.2858 39.6081 3 0.000164011 -4.11823
6352 1 18.3297 24.2874 37.2705 3 0.000260539 -4.11759
6353 1 20.8025 24.2874 37.2705 3 0.000260539 -4.11759
6354 1 19.8809 24.2879 34.9338 3 0.000482604 -4.11663
6355 1 22.3537 24.2879 34.9338 3 0.000482604 -4.11663
6356 1 21.4197 24.2854 32.6002 3 0.00101185 -4.11517
6357 1 23.8925 24.2854 32.6002 3 0.00101185 -4.11517
6358 1 22.9363 24.275 30.2733 3 0.00186199 -4.11259
6359 1 25.4091 24.275 30.2733 3 0.00186199 -4.11259
6360 1 24.4174 24.2507 27.9568 3 0.00236274 -4.10559
6361 1 26.8902 24.2507 27.9568 3 0.00236274 -4.10559
6362 1 25.8655 24.2286 25.64 3 0.0045529 -4.09981
6363 1 28.3383 24.2286 25.64 3 0.0045529 -4.09981
6364 1 27.2994 24.2286 23.3186 3 0.0045529 -4.09981
6365 1 29.7722 24.2286 23.3186 3 0.0045529 -4.09981
6366 1 28.7475 24.2507 21.0019 3 0.00236274 -4.10559
6367 1 31.2203 24.2507 21.0019 3 0.00236274 -4.10559
6368 1 30.2286 24.275 18.6853 3 0.00186199 -4.11259
6369 1 32.7014 24.275 18.6853 3 0.00186199 -4.11259
6370 1 31.7452 24.2854 16.3584 3 0.00101185 -4.11517
6371 1 34.2179 24.2854 16.3584 3 0.00101185 -4.11517
6372 1 33.2839 24.2879 14.0248 3 0.000482604 -4.11663
6373 1 35.7567 24.2879 14.0248 3 0.000482604 -4.11663
6374 1 34.8351 24.2874 11.6882 3 0.000260539 -4.11759
6375 1 37.3079 24.2874 11.6882 3 0.000260539 -4.11759
6376 1 36.3934 24.2858 9.35054 3 0.000164011 -4.11823
6377 1 38.8662 24.2858 9.35054 3 0.000164011 -4.11823
6378 1 37.9561 24.2841 7.01272 3 0.000116216 -4.11866
6379 1 40.4289 24.2841 7.01272 3 0.000116216 -4.11866
6380 1 39.5213 24.2827 4.67502 3 9.09683e-05 -4.11894
6381 1 41.9941 24.2827 4.67502 3 9.09683e-05 -4.11894
6382 1 41.0881 24.2818 2.33746 3 7.83887e-05 -4.11909
6383 1 43.5609 24.2818 2.33746 3 7.83887e-05 -4.11909
6384 1 42.6555 24.2815 7.93102e-09 3 7.45992e-05 -4.11914
6385 1 45.1283 24.2815 7.92637e-09 3 7.45992e-05 -4.11914
6386 1 13.7631 22.261 47.7898 3 5.81635e-05 -4.11867
6387 1 16.2359 22.261 47.7898 3 5.81635e-05 -4.11867
6388 1 15.3246 22.2615 45.4521 3 6.41046e-05 -4.11857
6389 1 17.7974 22.2615 45.4521 3 6.41046e-05 -4.11857
6390 1 16.8849 22.2625 43.1146 3 7.79181e-05 -4.11836
6391 1 19.3577 22.2625 43.1146 3 7.79181e-05 -4.11836
6392 1 18.4429 22.2637 40.7772 3 0.000104555 -4.11804
6393 1 20.9157 22.2637 40.7772 3 0.000104555 -4.11804
6394 1 19.9971 22.2646 38.4403 3 0.000157093 -4.11755
6395 1 22.4699 22.2646 38.4403 3 0.000157093 -4.11755
6396 1 21.5453 22.2642 36.1048 3 0.000266142 -4.11685
6397 1 24.0181 22.2642 36.1048 3 0.000266142 -4.11685
6398 1 23.0836 22.2608 33.7722 3 0.000471623 -4.11582
6399 1 25.5564 22.2608 33.7722 3 0.000471623 -4.11582
6400 1 24.6062 22.2512 31.4446 3 0.000701874 -4.11412
6401 1 27.079 22.2512 31.4446 3 0.000701874 -4.11412
6402 1 26.1067 22.2327 29.1232 3 0.000811247 -4.11062
6403 1 28.5795 22.2327 29.1232 3 0.000811247 -4.11062
6404 1 27.587 22.2131 26.8028 3 0.00142287 -4.10738
6405 1 30.0597 22.2131 26.8028 3 0.00142287 -4.10738
6406 1 29.0552 22.2049 24.4793 3 0.00172072 -4.10623
6407 1 31.528 22.2049 24.4793 3 0.00172072 -4.10623
6408 1 30.5235 22.2131 22.1558 3 0.00142287 -4.10738
6409 1 32.9962 22.2131 22.1558 3 0.00142287 -4.10738
6410 1 32.0037 22.2327 19.8354 3 0.000811247 -4.11062
6411 1 34.4765 22.2327 19.8354 3 0.000811247 -4.11062
6412 1 33.5042 22.2512 17.514 3 0.000701874 -4.11412
6413 1 35.977 22.2512 17.514 3 0.000701874 -4.11412
6414 1 35.0268 22.2608 15.1864 3 0.000471623 -4.11582
6415 1 37.4996 22.2608 15.1864 3 0.000471623 -4.11582
6416 1 36.5651 22.2642 12.8538 3 0.000266141 -4.11685
6417 1 39.0379 22.2642 12.8538 3 0.000266141 -4.11685
6418 1 38.1133 22.2646 10.5183 3 0.000157093 -4.11755
6419 1 40.5861 22.2646 10.5183 3 0.000157093 -4.11755
6420 1 39.6675 22.2637 8.18147 3 0.000104555 -4.11804
6421 1 42.1403 22.2637 8.18147 3 0.000104555 -4.11804
6422 1 41.2255 22.2625 5.84407 3 7.79181e-05 -4.11836
6423 1 43.6983 22.2625 5.84407 3 7.79181e-05 -4.11836
6424 1 42.7858 22.2615 3.50648 3 6.41046e-05 -4.11857
6425 1 45.2586 22.2615 3.50648 3 6.41046e-05 -4.11857
6426 1 44.3474 22.261 1.16883 3 5.81635e-05 -4.11867
6427 1 46.8201 22.261 1.16883 3 5.81635e-05 -4.11867
6428 1 17.0118 20.2396 46.6214 3 4.80558e-05 -4.11824
6429 1 19.4846 20.2396 46.6214 3 4.80558e-05 -4.11824
6430 1 18.5678 20.2402 44.2843 3 5.54392e-05 -4.1181
6431 1 21.0406 20.2402 44.2843 3 5.54392e-05 -4.1181
6432 1 20.122 20.2409 41.9475 3 7.05626e-05 -4.11786
6433 1 22.5948 20.2409 41.9475 3 7.05626e-05 -4.11786
6434 1 21.673 20.2412 39.6115 3 9.97795e-05 -4.11749
6435 1 24.1458 20.2412 39.6115 3 9.97795e-05 -4.11749
6436 1 23.2191 20.2403 37.2769 3 0.000154051 -4.11696
6437 1 25.6918 20.2403 37.2769 3 0.000154051 -4.11696
6438 1 24.7573 20.2367 34.9447 3 0.000237837 -4.1162
6439 1 27.2301 20.2367 34.9447 3 0.000237837 -4.1162
6440 1 26.2842 20.2283 32.6161 3 0.000309047 -4.11501
6441 1 28.757 20.2283 32.6161 3 0.000309047 -4.11501
6442 1 27.7964 20.2138 30.2916 3 0.000342001 -4.11299
6443 1 30.2692 20.2138 30.2916 3 0.000342001 -4.11299
6444 1 29.295 20.1974 27.9681 3 0.000541395 -4.11102
6445 1 31.7678 20.1974 27.9681 3 0.000541395 -4.11102
6446 1 30.7847 20.1865 25.6426 3 0.000695882 -4.1099
6447 1 33.2575 20.1865 25.6426 3 0.000695882 -4.1099
6448 1 32.2713 20.1865 23.316 3 0.000695882 -4.1099
6449 1 34.744 20.1865 23.316 3 0.000695882 -4.1099
6450 1 33.761 20.1974 20.9906 3 0.000541395 -4.11102
6451 1 36.2337 20.1974 20.9906 3 0.000541395 -4.11102
6452 1 35.2596 20.2138 18.667 3 0.000342001 -4.11299
6453 1 37.7324 20.2138 18.667 3 0.000342001 -4.11299
6454 1 36.7718 20.2283 16.3425 3 0.000309047 -4.11501
6455 1 39.2446 20.2283 16.3425 3 0.000309047 -4.11501
6456 1 38.2987 20.2367 14.014 3 0.000237836 -4.1162
6457 1 40.7714 20.2367 14.014 3 0.000237836 -4.1162
6458 1 39.8369 20.2403 11.6818 3 0.000154051 -4.11696
6459 1 42.3097 20.2403 11.6818 3 0.000154051 -4.11696
6460 1 41.383 20.2412 9.34714 3 9.97795e-05 -4.11749
6461 1 43.8558 20.2412 9.34714 3 9.97795e-05 -4.11749
6462 1 42.934 20.2409 7.01111 3 7.05627e-05 -4.11786
6463 1 45.4068 20.2409 7.01111 3 7.05627e-05 -4.11786
6464 1 44.4882 20.2402 4.67436 3 5.54392e-05 -4.1181
6465 1 46.961 20.2402 4.67436 3 5.54392e-05 -4.1181
6466 1 46.0442 20.2396 2.33725 3 4.80558e-05 -4.11824
6467 1 48.517 20.2396 2.33725 3 4.80558e-05 -4.11824
6468 1 47.6011 20.2394 7.6479e-09 3 4.58252e-05 -4.11829
6469 1 50.0739 20.2394 7.65992e-09 3 4.58252e-05 -4.11829
6470 1 18.704 18.2167 47.7904 3 3.80993e-05 -4.11796
6471 1 21.1768 18.2167 47.7904 3 3.80993e-05 -4.11796
6472 1 20.2562 18.2169 45.454 3 4.16723e-05 -4.11787
6473 1 22.729 18.2169 45.454 3 4.16723e-05 -4.11787
6474 1 21.8071 18.2172 43.1181 3 4.99255e-05 -4.1177
6475 1 24.2799 18.2172 43.1181 3 4.99255e-05 -4.1177
6476 1 23.3554 18.2172 40.7829 3 6.57171e-05 -4.11742
6477 1 25.8282 18.2172 40.7829 3 6.57171e-05 -4.11742
6478 1 24.8997 18.216 38.4489 3 9.22624e-05 -4.11701
6479 1 27.3725 18.216 38.4489 3 9.22624e-05 -4.11701
6480 1 26.4379 18.2126 36.1169 3 0.000127291 -4.11643
6481 1 28.9107 18.2126 36.1169 3 0.000127291 -4.11643
6482 1 27.9678 18.2056 33.7876 3 0.000151781 -4.11557
6483 1 30.4406 18.2056 33.7876 3 0.000151781 -4.11557
6484 1 29.4874 18.1942 31.4609 3 0.000165317 -4.11428
6485 1 31.9602 18.1942 31.4609 3 0.000165317 -4.11428
6486 1 30.9974 18.1808 29.135 3 0.000239462 -4.11297
6487 1 33.4702 18.1808 29.135 3 0.000239462 -4.11297
6488 1 32.5008 18.1699 26.8079 3 0.000309455 -4.11207
6489 1 34.9736 18.1699 26.8079 3 0.000309455 -4.11207
6490 1 34.0008 18.1658 24.4793 3 0.000334306 -4.11174
6491 1 36.4736 18.1658 24.4793 3 0.000334306 -4.11174
6492 1 35.5008 18.1699 22.1507 3 0.000309455 -4.11207
6493 1 37.9736 18.1699 22.1507 3 0.000309455 -4.11207
6494 1 37.0041 18.1808 19.8236 3 0.000239462 -4.11297
6495 1 39.4769 18.1808 19.8236 3 0.000239462 -4.11297
6496 1 38.5142 18.1942 17.4978 3 0.000165317 -4.11428
6497 1 40.9869 18.1942 17.4978 3 0.000165317 -4.11428
6498 1 40.0338 18.2056 15.171 3 0.000151781 -4.11557
6499 1 42.5066 18.2056 15.171 3 0.000151781 -4.11557
6500 1 41.5636 18.2126 12.8417 3 0.000127292 -4.11643
6501 1 44.0364 18.2126 12.8417 3 0.000127292 -4.11643
6502 1 43.1019 18.216 10.5097 3 9.22624e-05 -4.11701
6503 1 45.5747 18.216 10.5097 3 9.22624e-05 -4.11701
6504 1 44.6462 18.2172 8.17577 3 6.57171e-05 -4.11742
6505 1 47.1189 18.2172 8.17577 3 6.57171e-05 -4.11742
6506 1 46.1945 18.2172 5.84054 3 4.99255e-05 -4.1177
6507 1 48.6673 18.2172 5.84054 3 4.99255e-05 -4.1177
6508 1 47.7453 18.2169 3.50458 3 4.16723e-05 -4.11787
6509 1 50.2181 18.2169 3.50458 3 4.16723e-05 -4.11787
6510 1 49.2975 18.2167 1.16823 3 3.80993e-05 -4.11796
6511 1 51.7703 18.2167 1.16823 3 3.80993e-05 -4.11796
6512 1 21.9492 16.1927 46.6232 3 3.25865e-05 -4.11766
6513 1 24.422 16.1927 46.6232 3 3.25865e-05 -4.11766
6514 1 23.497 16.1928 44.2882 3 3.6577e-05 -4.11754
6515 1 25.9698 16.1928 44.2882 3 3.6577e-05 -4.11754
6516 1 25.0429 16.1925 41.9537 3 4.43745e-05 -4.11733
6517 1 27.5157 16.1925 41.9537 3 4.43745e-05 -4.11733
6518 1 26.5856 16.1913 39.6204 3 5.67156e-05 -4.11702
6519 1 29.0584 16.1913 39.6204 3 5.67156e-05 -4.11702
6520 1 28.1237 16.1884 37.2886 3 7.14129e-05 -4.11657
6521 1 30.5965 16.1884 37.2886 3 7.14129e-05 -4.11657
6522 1 29.6556 16.1827 34.9586 3 8.10424e-05 -4.11593
6523 1 32.1284 16.1827 34.9586 3 8.10424e-05 -4.11593
6524 1 31.18 16.174 32.6304 3 8.87972e-05 -4.11504
6525 1 33.6528 16.174 32.6304 3 8.87972e-05 -4.11504
6526 1 32.6975 16.1633 30.3028 3 0.000119747 -4.11412
6527 1 35.1703 16.1633 30.3028 3 0.000119747 -4.11412
6528 1 34.2099 16.1536 27.9744 3 0.000151325 -4.1134
6529 1 36.6827 16.1536 27.9744 3 0.000151325 -4.1134
6530 1 35.7193 16.1478 25.6446 3 0.000163251 -4.11301
6531 1 38.1921 16.1478 25.6446 3 0.000163251 -4.11301
6532 1 37.2278 16.1478 23.3141 3 0.000163251 -4.11301
6533 1 39.7006 16.1478 23.3141 3 0.000163251 -4.11301
6534 1 38.7372 16.1536 20.9843 3 0.000151325 -4.1134
6535 1 41.21 16.1536 20.9843 3 0.000151325 -4.1134
6536 1 40.2496 16.1633 18.6558 3 0.000119747 -4.11412
6537 1 42.7224 16.1633 18.6558 3 0.000119747 -4.11412
6538 1 41.7671 16.174 16.3282 3 8.87972e-05 -4.11504
6539 1 44.2399 16.174 16.3282 3 8.87972e-05 -4.11504
6540 1 43.2916 16.1827 14 3 8.10424e-05 -4.11593
6541 1 45.7643 16.1827 14 3 8.10424e-05 -4.11593
6542 1 44.8234 16.1884 11.6701 3 7.1413e-05 -4.11657
6543 1 47.2962 16.1884 11.6701 3 7.1413e-05 -4.11657
6544 1 46.3615 16.1913 9.33825 3 5.67156e-05 -4.11702
6545 1 48.8343 16.1913 9.33825 3 5.67156e-05 -4.11702
6546 1 47.9042 16.1925 7.00489 3 4.43745e-05 -4.11733
6547 1 50.377 16.1925 7.00489 3 4.43745e-05 -4.11733
6548 1 49.4501 16.1928 4.67046 3 3.6577e-05 -4.11754
6549 1 51.9229 16.1928 4.67046 3 3.6577e-05 -4.11754
6550 1 50.9979 16.1927 2.33538 3 3.25865e-05 -4.11766
6551 1 53.4707 16.1927 2.33538 3 3.25865e-05 -4.11766
6552 1 52.5467 16.1927 7.3798e-09 3 3.13416e-05 -4.1177
6553 1 55.0194 16.1927 7.34208e-09 3 3.13416e-05 -4.1177
6554 1 23.646 14.1675 47.7915 3 2.60015e-05 -4.11745
6555 1 26.1188 14.1675 47.7915 3 2.60015e-05 -4.11745
6556 1 25.191 14.1674 45.4574 3 2.74318e-05 -4.11738
6557 1 27.6637 14.1674 45.4574 3 2.74318e-05 -4.11738
6558 1 26.7346 14.167 43.1237 3 3.05819e-05 -4.11723
6559 1 29.2074 14.167 43.1237 3 3.05819e-05 -4.11723
6560 1 28.2759 14.166 40.7909 3 3.56114e-05 -4.11699
6561 1 30.7487 14.166 40.7909 3 3.56114e-05 -4.11699
6562 1 29.8136 14.1636 38.4592 3 4.15637e-05 -4.11665
6563 1 32.2864 14.1636 38.4592 3 4.15637e-05 -4.11665
6564 1 31.3467 14.1593 36.1289 3 4.62847e-05 -4.11616
6565 1 33.8195 14.1593 36.1289 3 4.62847e-05 -4.11616
6566 1 32.8744 14.1528 33.7998 3 5.23261e-05 -4.11553
6567 1 35.3472 14.1528 33.7998 3 5.23261e-05 -4.11553
6568 1 34.3969 14.1447 31.471 3 6.74147e-05 -4.11484
6569 1 36.8697 14.1447 31.471 3 6.74147e-05 -4.11484
6570 1 35.9154 14.1367 29.1415 3 8.12689e-05 -4.11426
6571 1 38.3882 14.1367 29.1415 3 8.12689e-05 -4.11426
6572 1 37.4314 14.1309 26.8109 3 8.36351e-05 -4.11388
6573 1 39.9042 14.1309 26.8109 3 8.36351e-05 -4.11388
6574 1 38.9463 14.1288 24.4793 3 8.17936e-05 -4.11375
6575 1 41.4191 14.1288 24.4793 3 8.17936e-05 -4.11375
6576 1 40.4613 14.1309 22.1477 3 8.36351e-05 -4.11388
6577 1 42.934 14.1309 22.1477 3 8.36351e-05 -4.11388
6578 1 41.9773 14.1367 19.8171 3 8.12689e-05 -4.11426
6579 1 44.4501 14.1367 19.8171 3 8.12689e-05 -4.11426
6580 1 43.4958 14.1447 17.4876 3 6.74147e-05 -4.11484
6581 1 45.9686 14.1447 17.4876 3 6.74147e-05 -4.11484
6582 1 45.0183 14.1528 15.1588 3 5.23261e-05 -4.11553
6583 1 47.4911 14.1528 15.1588 3 5.23261e-05 -4.11553
6584 1 46.546 14.1593 12.8297 3 4.62847e-05 -4.11616
6585 1 49.0188 14.1593 12.8297 3 4.62847e-05 -4.11616
6586 1 48.0791 14.1636 10.4994 3 4.15638e-05 -4.11665
6587 1 50.5519 14.1636 10.4994 3 4.15638e-05 -4.11665
6588 1 49.6168 14.166 8.16773 3 3.56115e-05 -4.11699
6589 1 52.0896 14.166 8.16773 3 3.56115e-05 -4.11699
6590 1 51.1581 14.167 5.83492 3 3.05818e-05 -4.11723
6591 1 53.6309 14.167 5.83492 3 3.05818e-05 -4.11723
6592 1 52.7017 14.1674 3.50127 3 2.74318e-05 -4.11738
6593 1 55.1745 14.1674 3.50127 3 2.74318e-05 -4.11738
6594 1 54.2467 14.1675 1.16714 3 2.60015e-05 -4.11745
6595 1 56.7195 14.1675 1.16714 3 2.60015e-05 -4.11745
6596 1 26.8883 12.1411 46.6254 3 2.08718e-05 -4.11721
6597 1 29.3611 12.1411 46.6254 3 2.08718e-05 -4.11721
6598 1 28.4298 12.1407 44.2926 3 2.14783e-05 -4.11711
6599 1 30.9026 12.1407 44.2926 3 2.14783e-05 -4.11711
6600 1 29.9696 12.1399 41.9603 3 2.27765e-05 -4.11694
6601 1 32.4424 12.1399 41.9603 3 2.27765e-05 -4.11694
6602 1 31.5068 12.1382 39.6288 3 2.48704e-05 -4.11668
6603 1 33.9796 12.1382 39.6288 3 2.48704e-05 -4.11668
6604 1 33.0407 12.1352 37.2983 3 2.80027e-05 -4.11632
6605 1 35.5134 12.1352 37.2983 3 2.80027e-05 -4.11632
6606 1 34.5705 12.1306 34.9685 3 3.3698e-05 -4.11585
6607 1 37.0433 12.1306 34.9685 3 3.3698e-05 -4.11585
6608 1 36.0965 12.1249 32.6389 3 4.29304e-05 -4.11534
6609 1 38.5693 12.1249 32.6389 3 4.29304e-05 -4.11534
6610 1 37.6193 12.1189 30.3088 3 4.8972e-05 -4.11486
6611 1 40.0921 12.1189 30.3088 3 4.8972e-05 -4.11486
6612 1 39.14 12.114 27.9776 3 4.63183e-05 -4.1145
6613 1 41.6127 12.114 27.9776 3 4.63183e-05 -4.1145
6614 1 40.6595 12.1112 25.6455 3 4.04781e-05 -4.11431
6615 1 43.1323 12.1112 25.6455 3 4.04781e-05 -4.11431
6616 1 42.1787 12.1112 23.3131 3 4.04781e-05 -4.11431
6617 1 44.6515 12.1112 23.3131 3 4.04781e-05 -4.11431
6618 1 43.6983 12.114 20.981 3 4.63182e-05 -4.1145
6619 1 46.1711 12.114 20.981 3 4.63182e-05 -4.1145
6620 1 45.219 12.1189 18.6499 3 4.8972e-05 -4.11486
6621 1 47.6918 12.1189 18.6499 3 4.8972e-05 -4.11486
6622 1 46.7418 12.1249 16.3197 3 4.29304e-05 -4.11534
6623 1 49.2146 12.1249 16.3197 3 4.29304e-05 -4.11534
6624 1 48.2678 12.1306 13.9902 3 3.36981e-05 -4.11585
6625 1 50.7405 12.1306 13.9902 3 3.36981e-05 -4.11585
6626 1 49.7976 12.1352 11.6604 3 2.80028e-05 -4.11632
6627 1 52.2704 12.1352 11.6604 3 2.80028e-05 -4.11632
6628 1 51.3314 12.1382 9.32983 3 2.48705e-05 -4.11668
6629 1 53.8042 12.1382 9.32983 3 2.48705e-05 -4.11668
6630 1 52.8687 12.1399 6.99836 3 2.27765e-05 -4.11694
6631 1 55.3414 12.1399 6.99836 3 2.27765e-05 -4.11694
6632 1 54.4085 12.1407 4.66607 3 2.14783e-05 -4.11711
6633 1 56.8813 12.1407 4.66607 3 2.14783e-05 -4.11711
6634 1 55.9499 12.1411 2.33318 3 2.08718e-05 -4.11721
6635 1 58.4227 12.1411 2.33318 3 2.08718e-05 -4.11721
6636 1 57.4922 12.1412 6.07067e-09 3 2.06877e-05 -4.11724
6637 1 59.965 12.1412 6.22727e-09 3 2.06877e-05 -4.11724
6638 1 28.5887 10.1138 47.7925 3 1.59529e-05 -4.11702
6639 1 31.0614 10.1138 47.7925 3 1.59529e-05 -4.11702
6640 1 30.128 10.1136 45.4603 3 1.54783e-05 -4.11697
6641 1 32.6008 10.1136 45.4603 3 1.54783e-05 -4.11697
6642 1 31.6662 10.1131 43.1284 3 1.49876e-05 -4.11685
6643 1 34.139 10.1131 43.1284 3 1.49876e-05 -4.11685
6644 1 33.2028 10.1119 40.7971 3 1.53535e-05 -4.11667
6645 1 35.6756 10.1119 40.7971 3 1.53535e-05 -4.11667
6646 1 34.7369 10.1101 38.4664 3 1.79658e-05 -4.11641
6647 1 37.2097 10.1101 38.4664 3 1.79658e-05 -4.11641
6648 1 36.2682 10.1072 36.1361 3 2.37569e-05 -4.11607
6649 1 38.741 10.1072 36.1361 3 2.37569e-05 -4.11607
6650 1 37.7966 10.1037 33.806 3 3.09937e-05 -4.11568
6651 1 40.2693 10.1037 33.806 3 3.09937e-05 -4.11568
6652 1 39.3224 10.0998 31.4755 3 3.39978e-05 -4.11529
6653 1 41.7952 10.0998 31.4755 3 3.39978e-05 -4.11529
6654 1 40.8465 10.0963 29.1441 3 2.94958e-05 -4.11497
6655 1 43.3193 10.0963 29.1441 3 2.94958e-05 -4.11497
6656 1 42.3695 10.0939 26.812 3 2.15714e-05 -4.11475
6657 1 44.8422 10.0939 26.812 3 2.15714e-05 -4.11475
6658 1 43.8919 10.0931 24.4793 3 1.77539e-05 -4.11468
6659 1 46.3647 10.0931 24.4793 3 1.77539e-05 -4.11468
6660 1 45.4144 10.0939 22.1466 3 2.15714e-05 -4.11475
6661 1 47.8872 10.0939 22.1466 3 2.15714e-05 -4.11475
6662 1 46.9373 10.0963 19.8145 3 2.94958e-05 -4.11497
6663 1 49.4101 10.0963 19.8145 3 2.94958e-05 -4.11497
6664 1 48.4614 10.0998 17.4832 3 3.39978e-05 -4.11529
6665 1 50.9342 10.0998 17.4832 3 3.39978e-05 -4.11529
6666 1 49.9873 10.1037 15.1526 3 3.09937e-05 -4.11568
6667 1 52.4601 10.1037 15.1526 3 3.09937e-05 -4.11568
6668 1 51.5157 10.1072 12.8225 3 2.37569e-05 -4.11607
6669 1 53.9884 10.1072 12.8225 3 2.37569e-05 -4.11607
6670 1 53.0469 10.1101 10.4922 3 1.79658e-05 -4.11641
6671 1 55.5197 10.1101 10.4922 3 1.79658e-05 -4.11641
6672 1 54.5811 10.1119 8.16153 3 1.53536e-05 -4.11667
6673 1 57.0538 10.1119 8.16153 3 1.53536e-05 -4.11667
6674 1 56.1176 10.1131 5.83022 3 1.49876e-05 -4.11685
6675 1 58.5904 10.1131 5.83022 3 1.49876e-05 -4.11685
6676 1 57.6559 10.1136 3.49837 3 1.54783e-05 -4.11697
6677 1 60.1287 10.1136 3.49837 3 1.54783e-05 -4.11697
6678 1 59.1952 10.1138 1.16616 3 1.59529e-05 -4.11702
6679 1 61.668 10.1138 1.16616 3 1.59529e-05 -4.11702
6680 1 31.8288 8.0857 46.627 3 1.16e-05 -4.11731
6681 1 34.3015 8.0857 46.627 3 1.16e-05 -4.11731
6682 1 33.3654 8.08542 44.2954 3 1.05633e-05 -4.11722
6683 1 35.8382 8.08542 44.2954 3 1.05633e-05 -4.11722
6684 1 34.901 8.08489 41.9642 3 1.03533e-05 -4.11706
6685 1 37.3737 8.08489 41.9642 3 1.03533e-05 -4.11706
6686 1 36.435 8.084 39.6332 3 1.28943e-05 -4.11683
6687 1 38.9078 8.084 39.6332 3 1.28943e-05 -4.11683
6688 1 37.9672 8.0827 37.3025 3 1.88848e-05 -4.11652
6689 1 40.4399 8.0827 37.3025 3 1.88848e-05 -4.11652
6690 1 39.4973 8.08102 34.9719 3 2.55864e-05 -4.11616
6691 1 41.9701 8.08102 34.9719 3 2.55864e-05 -4.11616
6692 1 41.0255 8.07917 32.641 3 2.77711e-05 -4.11577
6693 1 43.4983 8.07917 32.641 3 2.77711e-05 -4.11577
6694 1 42.5521 8.07741 30.3097 3 2.32113e-05 -4.11542
6695 1 45.0249 8.07741 30.3097 3 2.32112e-05 -4.11542
6696 1 44.0776 8.07606 27.9778 3 1.53105e-05 -4.11515
6697 1 46.5503 8.07606 27.9778 3 1.53105e-05 -4.11515
6698 1 45.6024 8.07532 25.6455 3 9.6003e-06 -4.115
6699 1 48.0752 8.07532 25.6455 3 9.60026e-06 -4.115
6700 1 47.127 8.07532 23.3131 3 9.60026e-06 -4.115
6701 1 49.5998 8.07532 23.3131 3 9.6003e-06 -4.115
6702 1 48.6518 8.07606 20.9808 3 1.53105e-05 -4.11515
6703 1 51.1246 8.07606 20.9808 3 1.53105e-05 -4.11515
6704 1 50.1773 8.07741 18.6489 3 2.32112e-05 -4.11542
6705 1 52.6501 8.07741 18.6489 3 2.32112e-05 -4.11542
6706 1 51.7039 8.07917 16.3176 3 2.77711e-05 -4.11577
6707 1 54.1767 8.07917 16.3176 3 2.77711e-05 -4.11577
6708 1 53.2321 8.08102 13.9867 3 2.55865e-05 -4.11616
6709 1 55.7049 8.08102 13.9867 3 2.55864e-05 -4.11616
6710 1 54.7622 8.0827 11.6561 3 1.88849e-05 -4.11652
6711 1 57.235 8.0827 11.6561 3 1.88849e-05 -4.11652
6712 1 56.2944 8.084 9.3254 3 1.28943e-05 -4.11683
6713 1 58.7672 8.084 9.3254 3 1.28943e-05 -4.11683
6714 1 57.8284 8.08489 6.99446 3 1.03533e-05 -4.11706
6715 1 60.3012 8.08489 6.99446 3 1.03533e-05 -4.11706
6716 1 59.364 8.08542 4.66319 3 1.05633e-05 -4.11722
6717 1 61.8368 8.08542 4.66319 3 1.05633e-05 -4.11722
6718 1 60.9006 8.0857 2.33167 3 1.16e-05 -4.11731
6719 1 33.5319 6.05706 47.7929 3 0.000192152 -4.11661
6720 1 36.0047 6.05706 47.7929 3 0.000192152 -4.11661
6721 1 35.0667 6.05706 45.4616 3 0.000190055 -4.11656
6722 1 37.5395 6.05706 45.4616 3 0.000190055 -4.11656
6723 1 36.6011 6.05706 43.1302 3 0.000182136 -4.11648
6724 1 39.0739 6.05706 43.1302 3 0.000182136 -4.11648
6725 1 38.1346 6.05706 40.7989 3 0.000163309 -4.11634
6726 1 40.6074 6.05706 40.7989 3 0.000163309 -4.11634
6727 1 39.6671 6.05706 38.4675 3 0.000131568 -4.11616
6728 1 42.1399 6.05706 38.4675 3 0.000131568 -4.11616
6729 1 41.1984 6.05706 36.1361 3 9.19268e-05 -4.11595
6730 1 43.6712 6.05706 36.1361 3 9.19267e-05 -4.11595
6731 1 42.7283 6.05706 33.8048 3 5.4706e-05 -4.11573
6732 1 45.2011 6.05706 33.8048 3 5.4706e-05 -4.11573
6733 1 44.257 6.05706 31.4734 3 2.81608e-05 -4.11553
6734 1 46.7298 6.05706 31.4734 3 2.81608e-05 -4.11553
6735 1 45.7845 6.05706 29.142 3 1.34713e-05 -4.11537
6736 1 48.2573 6.05706 29.142 3 1.34712e-05 -4.11537
6737 1 47.3112 6.05706 26.8107 3 7.01598e-06 -4.11526
6738 1 49.784 6.05706 26.8107 3 7.01603e-06 -4.11526
6739 1 48.8375 6.05706 24.4793 3 5.26906e-06 -4.11523
6740 1 51.3103 6.05706 24.4793 3 5.26906e-06 -4.11523
6741 1 50.3637 6.05706 22.1479 3 7.01615e-06 -4.11526
6742 1 52.8365 6.05706 22.1479 3 7.01612e-06 -4.11526
6743 1 51.8904 6.05706 19.8166 3 1.34715e-05 -4.11537
6744 1 54.3632 6.05706 19.8166 3 1.34715e-05 -4.11537
6745 1 53.418 6.05706 17.4852 3 2.81612e-05 -4.11553
6746 1 55.8908 6.05706 17.4852 3 2.81613e-05 -4.11553
6747 1 54.9466 6.05706 15.1539 3 5.47065e-05 -4.11573
6748 1 57.4194 6.05706 15.1539 3 5.47065e-05 -4.11573
6749 1 56.4766 6.05706 12.8225 3 9.19271e-05 -4.11595
6750 1 58.9494 6.05706 12.8225 3 9.19273e-05 -4.11595
6751 1 58.0078 6.05706 10.4911 3 0.000131569 -4.11616
6752 1 60.4806 6.05706 10.4911 3 0.000131568 -4.11616
6753 1 59.5403 6.05706 8.15977 3 0.000163309 -4.11634
6754 1 62.0131 6.05706 8.15977 3 0.000163309 -4.11634
6755 1 61.0739 6.05706 5.82841 3 0.000182136 -4.11648
6756 1 36.7712 4.03804 46.6273 3 1.41684e-06 -4.11576
6757 1 39.244 4.03804 46.6273 3 1.41686e-06 -4.11576
6758 1 38.305 4.03804 44.2959 3 1.43102e-06 -4.11573
6759 1 40.7778 4.03804 44.2959 3 1.43102e-06 -4.11573
6760 1 39.8382 4.03804 41.9645 3 1.45409e-06 -4.11568
6761 1 42.311 4.03804 41.9645 3 1.45409e-06 -4.11568
6762 1 41.3708 4.03804 39.6332 3 1.48585e-06 -4.11564
6763 1 43.8435 4.03804 39.6332 3 1.48585e-06 -4.11564
6764 1 42.9024 4.03804 37.3018 3 1.52673e-06 -4.11559
6765 1 45.3752 4.03804 37.3018 3 1.52672e-06 -4.11559
6766 1 44.433 4.03804 34.9704 3 1.57732e-06 -4.11556
6767 1 46.9058 4.03804 34.9704 3 1.57732e-06 -4.11556
6768 1 45.9626 4.03804 32.6391 3 1.63654e-06 -4.11554
6769 1 48.4354 4.03804 32.6391 3 1.63656e-06 -4.11554
6770 1 47.4913 4.03804 30.3077 3 1.69894e-06 -4.11552
6771 1 49.964 4.03804 30.3077 3 1.69894e-06 -4.11552
6772 1 49.0192 4.03804 27.9764 3 1.75327e-06 -4.11552
6773 1 51.492 4.03804 27.9764 3 1.75327e-06 -4.11552
6774 1 50.5466 4.03804 25.645 3 1.78548e-06 -4.11551
6775 1 53.0194 4.03804 25.645 3 1.78549e-06 -4.11551
6776 1 52.0739 4.03804 23.3136 3 1.7855e-06 -4.11551
6777 1 54.5467 4.03804 23.3136 3 1.78548e-06 -4.11551
6778 1 53.6013 4.03804 20.9823 3 1.75327e-06 -4.11552
6779 1 56.0741 4.03804 20.9823 3 1.75326e-06 -4.11552
6780 1 55.1293 4.03804 18.6509 3 1.69892e-06 -4.11552
6781 1 57.6021 4.03804 18.6509 3 1.69894e-06 -4.11552
6782 1 56.6579 4.03804 16.3195 3 1.63654e-06 -4.11554
6783 1 59.1307 4.03804 16.3195 3 1.63656e-06 -4.11554
6784 1 58.1876 4.03804 13.9882 3 1.57731e-06 -4.11556
6785 1 60.6603 4.03804 13.9882 3 1.57729e-06 -4.11556
6786 1 59.7182 4.03804 11.6568 3 1.52672e-06 -4.11559
6787 1 62.1909 4.03804 11.6568 3 1.52674e-06 -4.11559
6788 1 61.2498 4.03804 9.32545 3 1.48585e-06 -4.11564
6789 1 38.4766 2.01902 47.7929 3 8.63871e-07 -4.10005
6790 1 40.9494 2.01902 47.7929 3 8.63883e-07 -4.10005
6791 1 40.0099 2.01902 45.4616 3 8.67536e-07 -4.10002
6792 1 42.4826 2.01902 45.4616 3 8.67506e-07 -4.10002
6793 1 41.5428 2.01902 43.1302 3 8.74814e-07 -4.09998
6794 1 44.0156 2.01902 43.1302 3 8.74844e-07 -4.09998
6795 1 43.0752 2.01902 40.7989 3 8.86012e-07 -4.09991
6796 1 45.548 2.01902 40.7989 3 8.86011e-07 -4.09991
6797 1 44.607 2.01902 38.4675 3 9.01619e-07 -4.09983
6798 1 47.0797 2.01902 38.4675 3 9.01604e-07 -4.09983
6799 1 46.138 2.01902 36.1361 3 9.22383e-07 -4.09974
6800 1 48.6108 2.01902 36.1361 3 9.22383e-07 -4.09974
6801 1 47.6682 2.01902 33.8048 3 9.48475e-07 -4.09964
6802 1 50.141 2.01902 33.8048 3 9.48463e-07 -4.09964
6803 1 49.1977 2.01902 31.4734 3 9.78174e-07 -4.09956
6804 1 51.6705 2.01902 31.4734 3 9.78191e-07 -4.09956
6805 1 50.7266 2.01902 29.142 3 1.00713e-06 -4.09949
6806 1 53.1993 2.01902 29.142 3 1.00711e-06 -4.09949
6807 1 52.2549 2.01902 26.8107 3 1.02868e-06 -4.09945
6808 1 54.7277 2.01902 26.8107 3 1.02867e-06 -4.09945
6809 1 53.7831 2.01902 24.4793 3 1.03671e-06 -4.09944
6810 1 56.2558 2.01902 24.4793 3 1.03673e-06 -4.09944
6811 1 55.3112 2.01902 22.1479 3 1.02868e-06 -4.09945
6812 1 57.784 2.01902 22.1479 3 1.02868e-06 -4.09945
6813 1 56.8395 2.01902 19.8166 3 1.00713e-06 -4.09949
6814 1 59.3123 2.01902 19.8166 3 1.00711e-06 -4.09949
6815 1 58.3684 2.01902 17.4852 3 9.78204e-07 -4.09956
6816 1 60.8412 2.01902 17.4852 3 9.78191e-07 -4.09956
6817 1 59.8979 2.01902 15.1539 3 9.48478e-07 -4.09964
6818 1 62.3707 2.01902 15.1539 3 9.48478e-07 -4.09964
6819 1 61.4281 2.01902 12.8225 3 9.22391e-07 -4.09974
6820 1 41.7155 0 46.6273 5 6.02137 -3.54885
6821 1 44.1883 0 46.6273 5 6.02137 -3.54885
6822 1 43.2481 0 44.2959 5 6.02059 -3.54884
6823 1 45.7208 0 44.2959 5 6.02059 -3.54884
6824 1 44.7803 0 41.9645 5 6.01984 -3.54882
6825 1 47.2531 0 41.9645 5 6.01984 -3.54882
6826 1 46.3121 0 39.6332 5 6.0192 -3.5488
6827 1 48.7849 0 39.6332 5 6.0192 -3.5488
6828 1 47.8434 0 37.3018 5 6.01871 -3.54878
6829 1 50.3161 0 37.3018 5 6.01871 -3.54878
6830 1 49.374 0 34.9704 5 6.01843 -3.54876
6831 1 51.8468 0 34.9704 5 6.01843 -3.54876
6832 1 50.9041 0 32.6391 5 6.01838 -3.54873
6833 1 53.3769 0 32.6391 5 6.01838 -3.54873
6834 1 52.4336 0 30.3077 5 6.01858 -3.54871
6835 1 54.9064 0 30.3077 5 6.01858 -3.54871
6836 1 53.9627 0 27.9764 5 6.01902 -3.5487
6837 1 56.4355 0 27.9764 5 6.01902 -3.5487
6838 1 55.4915 0 25.645 5 6.01964 -3.54869
6839 1 57.9643 0 25.645 5 6.01964 -3.54869
6840 1 57.0202 0 23.3136 5 6.01964 -3.54869
6841 1 59.493 0 23.3136 5 6.01964 -3.54869
6842 1 58.549 0 20.9823 5 6.01902 -3.5487
6843 1 61.0218 0 20.9823 5 6.01902 -3.5487
6844 1 60.0781 0 18.6509 5 6.01858 -3.54871
6845 1 62.5509 0 18.6509 5 6.01858 -3.54871
6846 1 61.6076 0 16.3195 5 6.01838 -3.54873
6847 1 1.44743 62.5896 5.82841 5 6.11184 -3.54474
6848 1 0.621355 62.5896 3.49704 5 6.11233 -3.54476
6849 1 3.09414 62.5896 3.49704 5 6.11233 -3.54476
6850 1 2.2678 62.5896 1.16568 5 6.11303 -3.54477
6851 1 4.74059 62.5896 1.16568 5 6.11303 -3.54477
6852 1 1.45131 60.5706 9.32545 3 1.05862e-06 -4.10657
6853 1 0.625585 60.5706 6.99409 3 1.04078e-06 -4.10661
6854 1 3.09837 60.5706 6.99409 3 1.04075e-06 -4.10661
6855 1 2.27202 60.5706 4.66273 3 1.02815e-06 -4.10664
6856 1 4.7448 60.5706 4.66273 3 1.02817e-06 -4.10664
6857 1 3.91801 60.5706 2.33136 3 1.02054e-06 -4.10666
6858 1 6.39079 60.5706 2.33136 3 1.02054e-06 -4.10666
6859 1 5.56376 60.5706 0 3 1.01799e-06 -4.10667
6860 1 8.03655 60.5706 0 3 1.01799e-06 -4.10667
6861 1 1.45488 58.5516 12.8225 3 5.08314e-05 -4.12243
6862 1 0.630229 58.5516 10.4911 3 6.97656e-05 -4.1224
6863 1 3.10301 58.5516 10.4911 3 6.97657e-05 -4.1224
6864 1 2.27732 58.5516 8.15977 3 9.07157e-05 -4.12237
6865 1 4.7501 58.5516 8.15977 3 9.07157e-05 -4.12237
6866 1 3.92351 58.5516 5.82841 3 0.000110457 -4.12234
6867 1 6.39629 58.5516 5.82841 3 0.000110457 -4.12234
6868 1 5.56901 58.5516 3.49704 3 0.000125533 -4.12231
6869 1 8.04179 58.5516 3.49704 3 0.000125533 -4.12231
6870 1 7.21408 58.5516 1.16568 3 0.000133584 -4.1223
6871 1 9.68687 58.5516 1.16568 3 0.000133584 -4.1223
6872 1 1.45409 56.5348 16.3216 3 1.11233e-05 -4.12233
6873 1 0.631532 56.5361 13.9902 3 1.27621e-05 -4.12223
6874 1 3.10432 56.5361 13.9902 3 1.27621e-05 -4.12223
6875 1 2.28061 56.5374 11.6586 3 1.18619e-05 -4.12212
6876 1 4.75339 56.5374 11.6586 3 1.18619e-05 -4.12212
6877 1 3.92842 56.5386 9.32688 3 9.06614e-06 -4.122
6878 1 6.40121 56.5386 9.32688 3 9.06615e-06 -4.122
6879 1 5.57498 56.5395 6.99509 3 5.88395e-06 -4.1219
6880 1 8.04776 56.5395 6.99509 3 5.88395e-06 -4.1219
6881 1 7.22044 56.5402 4.66334 3 3.49757e-06 -4.12182
6882 1 9.69323 56.5402 4.66334 3 3.49757e-06 -4.12182
6883 1 8.8651 56.5406 2.33165 3 2.19145e-06 -4.12177
6884 1 11.3379 56.5406 2.33165 3 2.19143e-06 -4.12177
6885 1 10.5093 56.5407 48.9586 3 1.81015e-06 -4.12175
6886 1 12.9821 56.5407 48.9586 3 1.81017e-06 -4.12175
6887 1 1.45092 54.5144 19.8188 3 7.87666e-06 -4.12248
6888 1 0.630295 54.5166 17.4879 3 1.19593e-05 -4.12246
6889 1 3.10308 54.5166 17.4879 3 1.19593e-05 -4.12246
6890 1 2.28162 54.5193 15.1566 3 1.40704e-05 -4.12243
6891 1 4.75441 54.5193 15.1566 3 1.40704e-05 -4.12243
6892 1 3.93177 54.5221 12.8249 3 1.34554e-05 -4.12238
6893 1 6.40455 54.5221 12.8249 3 1.34554e-05 -4.12238
6894 1 5.58044 54.5247 10.493 3 1.09581e-05 -4.12232
6895 1 8.05322 54.5247 10.493 3 1.0958e-05 -4.12232
6896 1 7.22748 54.5268 8.16101 3 8.05887e-06 -4.12226
6897 1 9.70026 54.5268 8.16101 3 8.05886e-06 -4.12226
6898 1 8.87297 54.5283 5.82911 3 5.81593e-06 -4.12221
6899 1 11.3458 54.5283 5.82911 3 5.81593e-06 -4.12221
6900 1 10.5172 54.5293 3.49738 3 4.47753e-06 -4.12218
6901 1 12.99 54.5293 3.49738 3 4.47753e-06 -4.12218
6902 1 12.1606 54.5298 1.16578 3 3.89996e-06 -4.12217
6903 1 14.6333 54.5298 1.16578 3 3.89996e-06 -4.12217
6904 1 1.44518 52.4926 23.3143 3 7.73924e-06 -4.12249
6905 1 0.626255 52.4943 20.984 3 1.09792e-05 -4.12249
6906 1 3.09904 52.4943 20.984 3 1.09792e-05 -4.12249
6907 1 2.27974 52.4973 18.6533 3 1.49964e-05 -4.12248
6908 1 4.75253 52.4973 18.6533 3 1.49964e-05 -4.12248
6909 1 3.93247 52.5014 16.322 3 1.70391e-05 -4.12245
6910 1 6.40526 52.5014 16.322 3 1.70391e-05 -4.12245
6911 1 5.58395 52.5057 13.9902 3 1.63502e-05 -4.12239
6912 1 8.05673 52.5057 13.9902 3 1.63502e-05 -4.12239
6913 1 7.23369 52.5098 11.6581 3 1.40121e-05 -4.12233
6914 1 9.70648 52.5098 11.6581 3 1.40121e-05 -4.12233
6915 1 8.88139 52.5132 9.32602 3 1.15574e-05 -4.12226
6916 1 11.3542 52.5132 9.32602 3 1.15574e-05 -4.12226
6917 1 10.527 52.5157 6.99411 3 9.67676e-06 -4.12221
6918 1 12.9998 52.5157 6.99411 3 9.67676e-06 -4.12221
6919 1 12.1707 52.5174 4.66251 3 8.29609e-06 -4.12218
6920 1 14.6435 52.5174 4.66251 3 8.29609e-06 -4.12218
6921 1 13.8132 52.5183 2.33117 3 7.52735e-06 -4.12216
6922 1 16.2859 52.5183 2.33117 3 7.52735e-06 -4.12216
6923 1 15.4549 52.5186 48.9586 3 7.22158e-06 -4.12216
6924 1 17.9277 52.5186 48.9586 3 7.22159e-06 -4.12216
6925 1 1.43527 50.4735 26.8098 3 1.91502e-05 -4.1225
6926 1 0.618196 50.4723 24.4793 3 1.74186e-05 -4.1225
6927 1 3.09098 50.4723 24.4793 3 1.74186e-05 -4.1225
6928 1 2.2739 50.4735 22.1489 3 1.91502e-05 -4.1225
6929 1 4.74669 50.4735 22.1489 3 1.91502e-05 -4.1225
6930 1 3.92931 50.477 19.818 3 2.21126e-05 -4.12249
6931 1 6.40209 50.477 19.818 3 2.21126e-05 -4.12249
6932 1 5.58396 50.4822 17.4866 3 2.30165e-05 -4.12246
6933 1 8.05674 50.4822 17.4866 3 2.30165e-05 -4.12246
6934 1 7.23723 50.488 15.1546 3 2.12611e-05 -4.12241
6935 1 9.71001 50.488 15.1546 3 2.12611e-05 -4.12241
6936 1 8.88843 50.4938 12.8223 3 1.86664e-05 -4.12233
6937 1 11.3612 50.4938 12.8223 3 1.86664e-05 -4.12233
6938 1 10.5371 50.4987 10.4901 3 1.67305e-05 -4.12225
6939 1 13.0098 50.4987 10.4901 3 1.67305e-05 -4.12225
6940 1 12.1829 50.5023 8.15817 3 1.53589e-05 -4.1222
6941 1 14.6557 50.5023 8.15817 3 1.53589e-05 -4.1222
6942 1 13.8262 50.5048 5.82678 3 1.38767e-05 -4.12217
6943 1 16.299 50.5048 5.82678 3 1.38767e-05 -4.12217
6944 1 15.4676 50.5062 3.49585 3 1.26248e-05 -4.12216
6945 1 17.9404 50.5062 3.49585 3 1.26248e-05 -4.12216
6946 1 17.1078 50.5068 1.16525 3 1.18952e-05 -4.12215
6947 1 19.5806 50.5068 1.16525 3 1.18952e-05 -4.12215
6948 1 1.41902 48.4619 30.3078 3 3.52972e-05 -4.12247
6949 1 0.603614 48.456 27.976 3 3.74501e-05 -4.1225
6950 1 3.0764 48.456 27.976 3 3.74501e-05 -4.1225
6951 1 2.26178 48.4526 25.6448 3 3.66337e-05 -4.12251
6952 1 4.73457 48.4526 25.6448 3 3.66337e-05 -4.12251
6953 1 3.92018 48.4526 23.3138 3 3.66337e-05 -4.12251
6954 1 6.39296 48.4526 23.3138 3 3.66337e-05 -4.12251
6955 1 5.57835 48.456 20.9826 3 3.745e-05 -4.1225
6956 1 8.05113 48.456 20.9826 3 3.745e-05 -4.1225
6957 1 7.23573 48.4619 18.6508 3 3.52972e-05 -4.12247
6958 1 9.70851 48.4619 18.6508 3 3.52972e-05 -4.12247
6959 1 8.89151 48.4693 16.3184 3 3.04307e-05 -4.12241
6960 1 11.3643 48.4693 16.3184 3 3.04307e-05 -4.12241
6961 1 10.5448 48.4767 13.9857 3 2.64237e-05 -4.12233
6962 1 13.0176 48.4767 13.9857 3 2.64237e-05 -4.12233
6963 1 12.1948 48.4832 11.6532 3 2.49439e-05 -4.12223
6964 1 14.6676 48.4832 11.6532 3 2.49439e-05 -4.12223
6965 1 13.8412 48.4881 9.32123 3 2.41335e-05 -4.12217
6966 1 16.3139 48.4881 9.32123 3 2.41335e-05 -4.12217
6967 1 15.4841 48.4913 6.99006 3 2.20453e-05 -4.12215
6968 1 17.9569 48.4913 6.99006 3 2.20453e-05 -4.12215
6969 1 17.1244 48.4932 4.6596 3 1.96273e-05 -4.12214
6970 1 19.5972 48.4932 4.6596 3 1.96273e-05 -4.12214
6971 1 18.7629 48.4942 2.32967 3 1.78386e-05 -4.12214
6972 1 21.2357 48.4942 2.32967 3 1.78386e-05 -4.12214
6973 1 20.4005 48.4945 48.9586 3 1.72512e-05 -4.12214
6974 1 22.8733 48.4945 48.9586 3 1.72512e-05 -4.12214
6975 1 1.3975 46.4588 33.8101 3 4.07035e-05 -4.12231
6976 1 0.580984 46.4495 31.4768 3 4.82067e-05 -4.1224
6977 1 3.05377 46.4495 31.4768 3 4.82067e-05 -4.1224
6978 1 2.24037 46.4409 29.1438 3 6.04472e-05 -4.12248
6979 1 4.71315 46.4409 29.1438 3 6.04472e-05 -4.12248
6980 1 3.90165 46.4347 26.8113 3 6.90738e-05 -4.12252
6981 1 6.37444 46.4347 26.8113 3 6.90738e-05 -4.12252
6982 1 5.56376 46.4324 24.4793 3 7.12415e-05 -4.12253
6983 1 8.03655 46.4324 24.4793 3 7.12415e-05 -4.12253
6984 1 7.22587 46.4347 22.1473 3 6.90738e-05 -4.12252
6985 1 9.69866 46.4347 22.1473 3 6.90738e-05 -4.12252
6986 1 8.88716 46.4409 19.8148 3 6.04472e-05 -4.12248
6987 1 11.3599 46.4409 19.8148 3 6.04472e-05 -4.12248
6988 1 10.5465 46.4495 17.4818 3 4.82066e-05 -4.1224
6989 1 13.0193 46.4495 17.4818 3 4.82066e-05 -4.1224
6990 1 12.2028 46.4588 15.1485 3 4.07035e-05 -4.12231
6991 1 14.6756 46.4588 15.1485 3 4.07035e-05 -4.12231
6992 1 13.8549 46.467 12.8155 3 3.92759e-05 -4.12218
6993 1 16.3277 46.467 12.8155 3 3.92759e-05 -4.12218
6994 1 15.5022 46.4731 10.4833 3 3.8725e-05 -4.12212
6995 1 17.975 46.4731 10.4833 3 3.8725e-05 -4.12212
6996 1 17.145 46.4771 8.15231 3 3.46057e-05 -4.1221
6997 1 19.6177 46.4771 8.15231 3 3.46057e-05 -4.1221
6998 1 18.7841 46.4794 5.82233 3 2.95039e-05 -4.12211
6999 1 21.2569 46.4794 5.82233 3 2.95039e-05 -4.12211
7000 1 20.4208 46.4807 3.4931 3 2.56145e-05 -4.12212
7001 1 22.8936 46.4807 3.4931 3 2.56145e-05 -4.12212
7002 1 22.0559 46.4812 1.16432 3 2.36101e-05 -4.12212
7003 1 24.5287 46.4812 1.16432 3 2.36101e-05 -4.12212
7004 1 1.37936 44.4575 37.3141 3 6.50011e-05 -4.12201
7005 1 0.555377 44.4501 34.9816 3 6.6379e-05 -4.12208
7006 1 3.02816 44.4501 34.9816 3 6.6379e-05 -4.12208
7007 1 2.21065 44.44 32.6477 3 6.90114e-05 -4.12229
7008 1 4.68343 44.44 32.6477 3 6.90114e-05 -4.12229
7009 1 3.87126 44.429 30.3136 3 8.3298e-05 -4.12236
7010 1 6.34404 44.429 30.3136 3 8.3298e-05 -4.12236
7011 1 5.53584 44.4195 27.9795 3 0.000113302 -4.12248
7012 1 8.00863 44.4195 27.9795 3 0.000113302 -4.12248
7013 1 7.20274 44.4138 25.646 3 0.000134837 -4.12254
7014 1 9.67552 44.4138 25.646 3 0.000134837 -4.12254
7015 1 8.87036 44.4138 23.3127 3 0.000134837 -4.12254
7016 1 11.3431 44.4138 23.3127 3 0.000134837 -4.12254
7017 1 10.5373 44.4195 20.9791 3 0.000113302 -4.12248
7018 1 13.01 44.4195 20.9791 3 0.000113302 -4.12248
7019 1 12.2018 44.429 18.6451 3 8.3298e-05 -4.12236
7020 1 14.6746 44.429 18.6451 3 8.3298e-05 -4.12236
7021 1 13.8624 44.44 16.3109 3 6.90114e-05 -4.12229
7022 1 16.3352 44.44 16.3109 3 6.90114e-05 -4.12229
7023 1 15.5177 44.4501 13.9771 3 6.6379e-05 -4.12208
7024 1 17.9905 44.4501 13.9771 3 6.6379e-05 -4.12208
7025 1 17.1665 44.4575 11.6445 3 6.50011e-05 -4.12201
7026 1 19.6393 44.4575 11.6445 3 6.50011e-05 -4.12201
7027 1 18.8093 44.4622 9.31364 3 5.52162e-05 -4.12202
7028 1 21.2821 44.4622 9.31364 3 5.52162e-05 -4.12202
7029 1 20.4473 44.4648 6.9841 3 4.42897e-05 -4.12205
7030 1 22.9201 44.4648 6.9841 3 4.42897e-05 -4.12205
7031 1 22.082 44.4662 4.65555 3 3.62616e-05 -4.12207
7032 1 24.5548 44.4662 4.65555 3 3.62616e-05 -4.12207
7033 1 23.7145 44.4667 2.32763 3 3.16705e-05 -4.12209
7034 1 26.1873 44.4667 2.32763 3 3.16705e-05 -4.12209
7035 1 25.346 44.4669 48.9586 3 3.02465e-05 -4.1221
7036 1 27.8188 44.4669 48.9586 3 3.02465e-05 -4.1221
7037 1 1.37663 42.4495 40.8135 3 6.79327e-05 -4.12195
7038 1 0.540698 42.4468 38.4844 3 9.11994e-05 -4.12188
7039 1 3.01348 42.4468 38.4844 3 9.11994e-05 -4.12188
7040 1 2.18378 42.4416 36.1535 3 0.000115746 -4.12183
7041 1 4.65657 42.4416 36.1535 3 0.000115746 -4.12183
7042 1 3.83501 42.4328 33.8204 3 0.000121899 -4.12189
7043 1 6.30779 42.4328 33.8204 3 0.000121899 -4.12189
7044 1 5.49514 42.4205 31.4854 3 0.000131069 -4.12226
7045 1 7.96792 42.4205 31.4854 3 0.000131069 -4.12226
7046 1 7.1621 42.408 29.1501 3 0.000154237 -4.12225
7047 1 9.63488 42.408 29.1501 3 0.000154237 -4.12225
7048 1 8.83433 42.3982 26.8146 3 0.000231706 -4.12249
7049 1 11.3071 42.3982 26.8146 3 0.000231706 -4.12249
7050 1 10.5093 42.3944 24.4793 3 0.00027212 -4.12258
7051 1 12.9821 42.3944 24.4793 3 0.00027212 -4.12258
7052 1 12.1843 42.3982 22.144 3 0.000231706 -4.12249
7053 1 14.6571 42.3982 22.144 3 0.000231706 -4.12249
7054 1 13.8566 42.408 19.8085 3 0.000154237 -4.12225
7055 1 16.3294 42.408 19.8085 3 0.000154237 -4.12225
7056 1 15.5235 42.4205 17.4732 3 0.000131069 -4.12226
7057 1 17.9963 42.4205 17.4732 3 0.000131069 -4.12226
7058 1 17.1837 42.4328 15.1382 3 0.000121899 -4.12189
7059 1 19.6564 42.4328 15.1382 3 0.000121899 -4.12189
7060 1 18.8349 42.4416 12.8051 3 0.000115746 -4.12183
7061 1 21.3077 42.4416 12.8051 3 0.000115746 -4.12183
7062 1 20.478 42.4468 10.4743 3 9.11994e-05 -4.12188
7063 1 22.9508 42.4468 10.4743 3 9.11994e-05 -4.12188
7064 1 22.1148 42.4495 8.14516 3 6.79327e-05 -4.12195
7065 1 24.5876 42.4495 8.14516 3 6.79327e-05 -4.12195
7066 1 23.7473 42.4508 5.81726 3 5.21401e-05 -4.122
7067 1 26.2201 42.4508 5.81726 3 5.21401e-05 -4.122
7068 1 25.377 42.4513 3.4901 3 4.29685e-05 -4.12203
7069 1 27.8497 42.4513 3.4901 3 4.29685e-05 -4.12203
7070 1 27.005 42.4514 1.16333 3 3.88216e-05 -4.12204
7071 1 29.4778 42.4514 1.16333 3 3.88216e-05 -4.12204
7072 1 1.39292 40.4348 44.3065 3 6.06629e-05 -4.12193
7073 1 0.546554 40.4346 41.9799 3 7.80201e-05 -4.12187
7074 1 3.01934 40.4346 41.9799 3 7.80201e-05 -4.12187
7075 1 2.17658 40.4336 39.6526 3 0.000108536 -4.12178
7076 1 4.64936 40.4336 39.6526 3 0.000108536 -4.12178
7077 1 3.81215 40.431 37.324 3 0.000158298 -4.12165
7078 1 6.28493 40.431 37.324 3 0.000158298 -4.12165
7079 1 5.45589 40.4256 34.9932 3 0.000221815 -4.1215
7080 1 7.92868 40.4256 34.9932 3 0.000221815 -4.1215
7081 1 7.11087 40.4155 32.6594 3 0.000248953 -4.12152
7082 1 9.58365 40.4155 32.6594 3 0.000248953 -4.12152
7083 1 8.7786 40.4005 30.3228 3 0.000290858 -4.12227
7084 1 11.2514 40.4005 30.3228 3 0.000290858 -4.12227
7085 1 10.455 40.3872 27.9861 3 0.000307363 -4.122
7086 1 12.9278 40.3872 27.9861 3 0.000307363 -4.122
7087 1 12.1388 40.3784 25.6483 3 0.000523821 -4.12257
7088 1 14.6116 40.3784 25.6483 3 0.000523821 -4.12257
7089 1 13.8254 40.3784 23.3103 3 0.000523821 -4.12257
7090 1 16.2982 40.3784 23.3103 3 0.000523821 -4.12257
7091 1 15.5093 40.3872 20.9725 3 0.000307363 -4.122
7092 1 17.982 40.3872 20.9725 3 0.000307363 -4.122
7093 1 17.1856 40.4005 18.6358 3 0.000290858 -4.12227
7094 1 19.6584 40.4005 18.6358 3 0.000290858 -4.12227
7095 1 18.8534 40.4155 16.2992 3 0.000248953 -4.12152
7096 1 21.3261 40.4155 16.2992 3 0.000248953 -4.12152
7097 1 20.5083 40.4256 13.9654 3 0.000221816 -4.1215
7098 1 22.9811 40.4256 13.9654 3 0.000221816 -4.1215
7099 1 22.1521 40.431 11.6346 3 0.000158298 -4.12165
7100 1 24.6249 40.431 11.6346 3 0.000158298 -4.12165
7101 1 23.7877 40.4336 9.306 3 0.000108536 -4.12178
7102 1 26.2604 40.4336 9.306 3 0.000108536 -4.12178
7103 1 25.4177 40.4346 6.97871 3 7.80201e-05 -4.12187
7104 1 27.8905 40.4346 6.97871 3 7.80201e-05 -4.12187
7105 1 27.0441 40.4348 4.65217 3 6.06629e-05 -4.12193
7106 1 29.5169 40.4348 4.65217 3 6.06629e-05 -4.12193
7107 1 28.6684 40.4348 2.326 3 5.18024e-05 -4.12196
7108 1 31.1411 40.4348 2.326 3 5.18024e-05 -4.12196
7109 1 30.2916 40.4348 48.9586 3 4.90573e-05 -4.12197
7110 1 32.7644 40.4348 48.9586 3 4.90573e-05 -4.12197
7111 1 1.42717 38.4171 47.7957 3 6.55492e-05 -4.12185
7112 1 0.572792 38.4173 45.4699 3 7.3238e-05 -4.12182
7113 1 3.04558 38.4173 45.4699 3 7.3238e-05 -4.12182
7114 1 2.19269 38.4176 43.144 3 9.07642e-05 -4.12177
7115 1 4.66548 38.4176 43.144 3 9.07642e-05 -4.12177
7116 1 3.81532 38.4177 40.8179 3 0.00012367 -4.12167
7117 1 6.28811 38.4177 40.8179 3 0.00012367 -4.12167
7118 1 5.44237 38.4172 38.4912 3 0.000183731 -4.12151
7119 1 7.91516 38.4172 38.4912 3 0.000183731 -4.12151
7120 1 7.07637 38.4151 36.1632 3 0.000293667 -4.12125
7121 1 9.54915 38.4151 36.1632 3 0.000293667 -4.12125
7122 1 8.72113 38.4098 33.8328 3 0.000468568 -4.12089
7123 1 11.1939 38.4098 33.8328 3 0.000468568 -4.12089
7124 1 10.3819 38.3984 31.4983 3 0.00059098 -4.12071
7125 1 12.8546 38.3984 31.4983 3 0.00059098 -4.12071
7126 1 12.0621 38.3799 29.1594 3 0.000820378 -4.12241
7127 1 14.5349 38.3799 29.1594 3 0.000820378 -4.12241
7128 1 13.7529 38.3679 26.8212 3 0.000708783 -4.12138
7129 1 16.2257 38.3679 26.8212 3 0.000708783 -4.12138
7130 1 15.4549 38.3626 24.4793 3 0.00124499 -4.12296
7131 1 17.9277 38.3626 24.4793 3 0.00124499 -4.12296
7132 1 17.1569 38.3679 22.1374 3 0.000708783 -4.12138
7133 1 19.6297 38.3679 22.1374 3 0.000708783 -4.12138
7134 1 18.8477 38.3799 19.7992 3 0.000820378 -4.12241
7135 1 21.3205 38.3799 19.7992 3 0.000820378 -4.12241
7136 1 20.5279 38.3984 17.4603 3 0.00059098 -4.12071
7137 1 23.0007 38.3984 17.4603 3 0.00059098 -4.12071
7138 1 22.1887 38.4098 15.1259 3 0.000468568 -4.12089
7139 1 24.6615 38.4098 15.1259 3 0.000468568 -4.12089
7140 1 23.8334 38.4151 12.7954 3 0.000293667 -4.12125
7141 1 26.3062 38.4151 12.7954 3 0.000293667 -4.12125
7142 1 25.4674 38.4172 10.4675 3 0.000183731 -4.12151
7143 1 27.9402 38.4172 10.4675 3 0.000183731 -4.12151
7144 1 27.0945 38.4177 8.14077 3 0.00012367 -4.12167
7145 1 29.5673 38.4177 8.14077 3 0.00012367 -4.12167
7146 1 28.7171 38.4176 5.81463 3 9.07642e-05 -4.12177
7147 1 31.1899 38.4176 5.81463 3 9.07642e-05 -4.12177
7148 1 30.337 38.4173 3.48873 3 7.3238e-05 -4.12182
7149 1 32.8098 38.4173 3.48873 3 7.3238e-05 -4.12182
7150 1 31.9554 38.4171 1.16291 3 6.55492e-05 -4.12185
7151 1 34.4282 38.4171 1.16291 3 6.55492e-05 -4.12185
7152 1 2.23019 36.3986 46.6323 3 9.18568e-05 -4.12168
7153 1 4.70298 36.3986 46.6323 3 9.18568e-05 -4.12168
7154 1 3.84305 36.399 44.306 3 0.000108355 -4.12161
7155 1 6.31583 36.399 44.306 3 0.000108355 -4.12161
7156 1 5.45777 36.3997 41.9799 3 0.000142159 -4.1215
7157 1 7.93056 36.3997 41.9799 3 0.000142159 -4.1215
7158 1 7.0757 36.4003 39.6538 3 0.000206701 -4.12131
7159 1 9.54848 36.4003 39.6538 3 0.000206701 -4.12131
7160 1 8.69881 36.4004 37.3276 3 0.000333509 -4.12101
7161 1 11.1716 36.4004 37.3276 3 0.000333509 -4.12101
7162 1 10.3304 36.3992 35.0006 3 0.000598223 -4.12049
7163 1 12.8032 36.3992 35.0006 3 0.000598223 -4.12049
7164 1 11.9762 36.3945 32.6711 3 0.00114061 -4.1196
7165 1 14.449 36.3945 32.6711 3 0.00114061 -4.1196
7166 1 13.6458 36.3823 30.3364 3 0.00177736 -4.11866
7167 1 16.1186 36.3823 30.3364 3 0.00177736 -4.11866
7168 1 15.3485 36.3588 27.9942 3 0.00336124 -4.12315
7169 1 17.8213 36.3588 27.9942 3 0.00336124 -4.12315
7170 1 17.0628 36.3546 25.6544 3 0.00208926 -4.12065
7171 1 19.5356 36.3546 25.6544 3 0.00208926 -4.12065
7172 1 18.7926 36.3546 23.3043 3 0.00208926 -4.12065
7173 1 21.2654 36.3546 23.3043 3 0.00208926 -4.12065
7174 1 20.5069 36.3588 20.9644 3 0.00336124 -4.12315
7175 1 22.9796 36.3588 20.9644 3 0.00336124 -4.12315
7176 1 22.2096 36.3823 18.6222 3 0.00177737 -4.11866
7177 1 24.6824 36.3823 18.6222 3 0.00177737 -4.11866
7178 1 23.8792 36.3945 16.2875 3 0.00114061 -4.1196
7179 1 26.352 36.3945 16.2875 3 0.00114061 -4.1196
7180 1 25.525 36.3992 13.9581 3 0.000598223 -4.12049
7181 1 27.9978 36.3992 13.9581 3 0.000598223 -4.12049
7182 1 27.1566 36.4004 11.631 3 0.00033351 -4.12101
7183 1 29.6293 36.4004 11.631 3 0.00033351 -4.12101
7184 1 28.7797 36.4003 9.30478 3 0.000206702 -4.12131
7185 1 31.2525 36.4003 9.30478 3 0.000206702 -4.12131
7186 1 30.3976 36.3997 6.97872 3 0.000142159 -4.1215
7187 1 32.8704 36.3997 6.97872 3 0.000142159 -4.1215
7188 1 32.0123 36.399 4.65258 3 0.000108355 -4.12161
7189 1 34.4851 36.399 4.65258 3 0.000108355 -4.12161
7190 1 33.6252 36.3986 2.32633 3 9.18568e-05 -4.12168
7191 1 36.098 36.3986 2.32633 3 9.18568e-05 -4.12168
7192 1 35.2372 36.3984 2.27715e-09 3 8.69562e-05 -4.12169
7193 1 37.71 36.3984 2.28596e-09 3 8.69562e-05 -4.12169
7194 1 3.89345 34.3792 47.7948 3 0.000115414 -4.12147
7195 1 6.36623 34.3792 47.7948 3 0.000115414 -4.12147
7196 1 5.49872 34.3796 45.4671 3 0.000127924 -4.12141
7197 1 7.9715 34.3796 45.4671 3 0.000127924 -4.12141
7198 1 7.10503 34.3803 43.1397 3 0.000158073 -4.12129
7199 1 9.57782 34.3803 43.1397 3 0.000158073 -4.12129
7200 1 8.71332 34.3813 40.8125 3 0.000219406 -4.12107
7201 1 11.1861 34.3813 40.8125 3 0.000219406 -4.12107
7202 1 10.3249 34.3823 38.4858 3 0.00034635 -4.12071
7203 1 12.7977 34.3823 38.4858 3 0.00034635 -4.12071
7204 1 11.942 34.3831 36.1595 3 0.000630913 -4.12007
7205 1 14.4148 34.3831 36.1595 3 0.000630913 -4.12007
7206 1 13.5688 34.383 33.8334 3 0.00135468 -4.11886
7207 1 16.0415 34.383 33.8334 3 0.00135468 -4.11886
7208 1 15.2139 34.3799 31.5058 3 0.00346241 -4.11633
7209 1 17.6866 34.3799 31.5058 3 0.00346241 -4.11633
7210 1 16.8969 34.3684 29.1724 3 0.00841238 -4.11182
7211 1 19.3697 34.3684 29.1724 3 0.00841238 -4.11182
7212 1 18.6502 34.339 26.8251 3 0.0361452 -4.12628
7213 1 21.123 34.339 26.8251 3 0.0361452 -4.12628
7214 1 20.4005 34.3611 24.4793 3 0.0111429 -4.10153
7215 1 22.8733 34.3611 24.4793 3 0.0111429 -4.10153
7216 1 22.1507 34.339 22.1335 3 0.0361452 -4.12628
7217 1 24.6235 34.339 22.1335 3 0.0361452 -4.12628
7218 1 23.904 34.3684 19.7862 3 0.00841238 -4.11182
7219 1 26.3768 34.3684 19.7862 3 0.00841238 -4.11182
7220 1 25.5871 34.3799 17.4528 3 0.00346242 -4.11633
7221 1 28.0599 34.3799 17.4528 3 0.00346242 -4.11633
7222 1 27.2322 34.383 15.1253 3 0.00135468 -4.11886
7223 1 29.705 34.383 15.1253 3 0.00135468 -4.11886
7224 1 28.8589 34.3831 12.7991 3 0.000630913 -4.12007
7225 1 31.3317 34.3831 12.7991 3 0.000630913 -4.12007
7226 1 30.476 34.3823 10.4728 3 0.00034635 -4.12071
7227 1 32.9488 34.3823 10.4728 3 0.00034635 -4.12071
7228 1 32.0876 34.3813 8.14609 3 0.000219406 -4.12107
7229 1 34.5604 34.3813 8.14609 3 0.000219406 -4.12107
7230 1 33.6959 34.3803 5.81895 3 0.000158073 -4.12129
7231 1 36.1687 34.3803 5.81895 3 0.000158073 -4.12129
7232 1 35.3022 34.3796 3.49149 3 0.000127924 -4.12141
7233 1 37.775 34.3796 3.49149 3 0.000127924 -4.12141
7234 1 36.9075 34.3792 1.16385 3 0.000115414 -4.12147
7235 1 39.3803 34.3792 1.16385 3 0.000115414 -4.12147
7236 1 7.16103 32.3599 46.6288 3 0.000142377 -4.12113
7237 1 9.63381 32.3599 46.6288 3 0.000142377 -4.12113
7238 1 8.75867 32.3605 44.299 3 0.000163748 -4.12102
7239 1 11.2315 32.3605 44.299 3 0.000163748 -4.12102
7240 1 10.3571 32.3615 41.9694 3 0.000209208 -4.12082
7241 1 12.8299 32.3615 41.9694 3 0.000209208 -4.12082
7242 1 11.957 32.3628 39.64 3 0.00030275 -4.12045
7243 1 14.4298 32.3628 39.64 3 0.00030275 -4.12045
7244 1 13.5594 32.3642 37.3111 3 0.00051239 -4.11977
7245 1 16.0322 32.3642 37.3111 3 0.00051239 -4.11977
7246 1 15.1661 32.3657 34.9828 3 0.00106837 -4.11841
7247 1 17.6389 32.3657 34.9828 3 0.00106837 -4.11841
7248 1 16.7811 32.3668 32.6555 3 0.00296101 -4.11528
7249 1 19.2539 32.3668 32.6555 3 0.00296101 -4.11528
7250 1 18.4156 32.3659 30.3292 3 0.0128667 -4.10575
7251 1 20.8884 32.3659 30.3292 3 0.0128667 -4.10575
7252 1 20.1105 32.3588 28.0005 3 0.140712 -4.0469
7253 1 22.5833 32.3588 28.0005 3 0.140712 -4.0469
7254 1 22.0739 32.3521 25.6463 5 5.31346 -4.04848
7255 1 24.5467 32.3521 25.6463 5 5.31346 -4.04848
7256 1 23.6726 32.3521 23.3123 5 5.31346 -4.04848
7257 1 26.1454 32.3521 23.3123 5 5.31346 -4.04848
7258 1 25.636 32.3588 20.9581 3 0.140712 -4.0469
7259 1 28.1088 32.3588 20.9581 3 0.140712 -4.0469
7260 1 27.3309 32.3659 18.6294 3 0.0128667 -4.10575
7261 1 29.8036 32.3659 18.6294 3 0.0128667 -4.10575
7262 1 28.9654 32.3668 16.3031 3 0.00296101 -4.11528
7263 1 31.4381 32.3668 16.3031 3 0.00296101 -4.11528
7264 1 30.5804 32.3657 13.9758 3 0.00106837 -4.11841
7265 1 33.0532 32.3657 13.9758 3 0.00106837 -4.11841
7266 1 32.1871 32.3642 11.6475 3 0.00051239 -4.11977
7267 1 34.6599 32.3642 11.6475 3 0.00051239 -4.11977
7268 1 33.7895 32.3628 9.31858 3 0.00030275 -4.12045
7269 1 36.2623 32.3628 9.31858 3 0.00030275 -4.12045
7270 1 35.3894 32.3615 6.98921 3 0.000209208 -4.12082
7271 1 37.8622 32.3615 6.98921 3 0.000209208 -4.12082
7272 1 36.9878 32.3605 4.65959 3 0.000163749 -4.12102
7273 1 39.4606 32.3605 4.65959 3 0.000163749 -4.12102
7274 1 38.5855 32.3599 2.32983 3 0.000142377 -4.12113
7275 1 41.0583 32.3599 2.32983 3 0.000142377 -4.12113
7276 1 40.1827 32.3597 2.8689e-09 3 0.00013603 -4.12116
7277 1 42.6555 32.3597 2.8802e-09 3 0.00013603 -4.12116
7278 1 8.83111 30.3403 47.7924 3 0.000141586 -4.12074
7279 1 11.3039 30.3403 47.7924 3 0.000141586 -4.12074
7280 1 10.4202 30.3408 45.46 3 0.000154623 -4.12067
7281 1 12.893 30.3408 45.46 3 0.000154623 -4.12067
7282 1 12.0094 30.3417 43.1275 3 0.00018524 -4.12051
7283 1 14.4822 30.3417 43.1275 3 0.00018524 -4.12051
7284 1 13.5985 30.343 40.7947 3 0.000246691 -4.12024
7285 1 16.0713 30.343 40.7947 3 0.000246691 -4.12024
7286 1 15.1876 30.3448 38.4616 3 0.000372786 -4.11979
7287 1 17.6604 30.3448 38.4616 3 0.000372786 -4.11979
7288 1 16.7765 30.3469 36.1279 3 0.000661326 -4.11905
7289 1 19.2493 30.3469 36.1279 3 0.000661326 -4.11905
7290 1 18.365 30.3494 33.7931 3 0.00146478 -4.1177
7291 1 20.8377 30.3494 33.7931 3 0.00146478 -4.1177
7292 1 19.9524 30.3523 31.4565 3 0.00450872 -4.11471
7293 1 22.4252 30.3523 31.4565 3 0.00450872 -4.11471
7294 1 21.5361 30.3548 29.1174 3 0.0254563 -4.10472
7295 1 24.0089 30.3548 29.1174 3 0.0254563 -4.10472
7296 1 23.0772 30.3458 26.7868 5 7.69492 -4.05571
7297 1 25.55 30.3458 26.7868 5 7.69492 -4.05571
7298 1 24.1096 30.3079 24.4793 5 2.29704 -3.99361
7299 1 26.5824 30.3079 24.4793 5 2.29704 -3.99361
7300 1 25.1421 30.3458 22.1719 5 7.69492 -4.05571
7301 1 27.6149 30.3458 22.1719 5 7.69492 -4.05571
7302 1 26.6831 30.3548 19.8412 3 0.0254563 -4.10472
7303 1 29.1559 30.3548 19.8412 3 0.0254563 -4.10472
7304 1 28.2668 30.3523 17.5021 3 0.00450872 -4.11471
7305 1 30.7396 30.3523 17.5021 3 0.00450872 -4.11471
7306 1 29.8543 30.3494 15.1655 3 0.00146478 -4.1177
7307 1 32.3271 30.3494 15.1655 3 0.00146478 -4.1177
7308 1 31.4428 30.3469 12.8307 3 0.000661326 -4.11905
7309 1 33.9156 30.3469 12.8307 3 0.000661326 -4.11905
7310 1 33.0317 30.3448 10.497 3 0.000372786 -4.11979
7311 1 35.5045 30.3448 10.497 3 0.000372786 -4.11979
7312 1 34.6208 30.343 8.16388 3 0.000246692 -4.12024
7313 1 37.0936 30.343 8.16388 3 0.000246692 -4.12024
7314 1 36.2099 30.3417 5.83113 3 0.00018524 -4.12051
7315 1 38.6827 30.3417 5.83113 3 0.00018524 -4.12051
7316 1 37.799 30.3408 3.4986 3 0.000154623 -4.12067
7317 1 40.2718 30.3408 3.4986 3 0.000154623 -4.12067
7318 1 39.3882 30.3403 1.16619 3 0.000141586 -4.12074
7319 1 41.861 30.3403 1.16619 3 0.000141586 -4.12074
7320 1 12.0905 28.3211 46.6239 3 0.000129519 -4.1202
7321 1 14.5633 28.3211 46.6239 3 0.000129519 -4.1202
7322 1 13.6714 28.3219 44.2889 3 0.000149472 -4.12007
7323 1 16.1442 28.3219 44.2889 3 0.000149472 -4.12007
7324 1 15.2516 28.3233 41.9536 3 0.000191447 -4.11982
7325 1 17.7244 28.3233 41.9536 3 0.000191447 -4.11982
7326 1 16.8305 28.3251 39.6177 3 0.000275951 -4.11942
7327 1 19.3032 28.3251 39.6177 3 0.000275951 -4.11942
7328 1 18.4072 28.3274 37.2809 3 0.000456136 -4.11879
7329 1 20.88 28.3274 37.2809 3 0.000456136 -4.11879
7330 1 19.9801 28.3302 34.943 3 0.000890241 -4.11774
7331 1 22.4529 28.3302 34.943 3 0.000890241 -4.11774
7332 1 21.5458 28.3332 32.6038 3 0.00219321 -4.11591
7333 1 24.0186 28.3332 32.6038 3 0.00219321 -4.11591
7334 1 23.0954 28.3349 30.2646 3 0.00787771 -4.1127
7335 1 25.5682 28.3349 30.2646 3 0.00787771 -4.1127
7336 1 24.5987 28.3262 27.9331 3 0.04025 -4.10128
7337 1 27.0715 28.3262 27.9331 3 0.04025 -4.10128
7338 1 25.9494 28.2786 25.6293 3 0.0799124 -4.03666
7339 1 28.4222 28.2786 25.6293 3 0.0799124 -4.03666
7340 1 27.2155 28.2786 23.3294 3 0.0799124 -4.03666
7341 1 29.6883 28.2786 23.3294 3 0.0799124 -4.03666
7342 1 28.5662 28.3262 21.0255 3 0.04025 -4.10128
7343 1 31.039 28.3262 21.0255 3 0.04025 -4.10128
7344 1 30.0695 28.3349 18.694 3 0.00787771 -4.1127
7345 1 32.5422 28.3349 18.694 3 0.00787771 -4.1127
7346 1 31.6191 28.3332 16.3548 3 0.00219322 -4.11591
7347 1 34.0919 28.3332 16.3548 3 0.00219322 -4.11591
7348 1 33.1848 28.3302 14.0157 3 0.000890241 -4.11774
7349 1 35.6576 28.3302 14.0157 3 0.000890241 -4.11774
7350 1 34.7577 28.3274 11.6777 3 0.000456136 -4.11879
7351 1 37.2305 28.3274 11.6777 3 0.000456136 -4.11879
7352 1 36.3344 28.3251 9.34094 3 0.000275951 -4.11942
7353 1 38.8072 28.3251 9.34094 3 0.000275951 -4.11942
7354 1 37.9133 28.3233 7.00503 3 0.000191447 -4.11982
7355 1 40.3861 28.3233 7.00503 3 0.000191447 -4.11982
7356 1 39.4935 28.3219 4.66972 3 0.000149472 -4.12007
7357 1 41.9662 28.3219 4.66972 3 0.000149472 -4.12007
7358 1 41.0743 28.3211 2.33477 3 0.000129519 -4.1202
7359 1 43.5471 28.3211 2.33477 3 0.000129519 -4.1202
7360 1 42.6555 28.3209 4.60632e-09 3 0.000123538 -4.12024
7361 1 45.1283 28.3209 4.59761e-09 3 0.000123538 -4.12024
7362 1 13.7691 26.3015 47.7904 3 9.91672e-05 -4.11967
7363 1 16.2419 26.3015 47.7904 3 9.91672e-05 -4.11967
7364 1 15.3428 26.3021 45.4538 3 0.000109496 -4.11957
7365 1 17.8156 26.3021 45.4538 3 0.000109496 -4.11957
7366 1 16.9157 26.3032 43.117 3 0.000133537 -4.11936
7367 1 19.3885 26.3032 43.117 3 0.000133537 -4.11936
7368 1 18.4869 26.3049 40.7797 3 0.000180367 -4.11901
7369 1 20.9597 26.3049 40.7797 3 0.000180367 -4.11901
7370 1 20.0554 26.307 38.4419 3 0.000271562 -4.11847
7371 1 22.5282 26.307 38.4419 3 0.000271562 -4.11847
7372 1 21.6195 26.3093 36.1037 3 0.000464591 -4.11763
7373 1 24.0922 26.3093 36.1037 3 0.000464591 -4.11763
7374 1 23.1756 26.3112 33.7656 3 0.000951108 -4.11627
7375 1 25.6484 26.3112 33.7656 3 0.000951108 -4.11627
7376 1 24.7166 26.3104 31.4299 3 0.00245828 -4.11406
7377 1 27.1894 26.3104 31.4299 3 0.00245828 -4.11406
7378 1 26.2255 26.3002 29.1027 3 0.00637848 -4.10946
7379 1 28.6983 26.3002 29.1027 3 0.00637848 -4.10946
7380 1 27.6702 26.2669 26.7934 3 0.00997197 -4.09174
7381 1 30.143 26.2669 26.7934 3 0.00997197 -4.09174
7382 1 29.0552 26.2457 24.4793 3 0.0166214 -4.08223
7383 1 31.528 26.2457 24.4793 3 0.0166214 -4.08223
7384 1 30.4402 26.2669 22.1652 3 0.00997198 -4.09174
7385 1 32.913 26.2669 22.1652 3 0.00997198 -4.09174
7386 1 31.8849 26.3002 19.8559 3 0.00637848 -4.10946
7387 1 34.3577 26.3002 19.8559 3 0.00637848 -4.10946
7388 1 33.3938 26.3104 17.5287 3 0.00245828 -4.11406
7389 1 35.8666 26.3104 17.5287 3 0.00245828 -4.11406
7390 1 34.9348 26.3112 15.193 3 0.000951108 -4.11627
7391 1 37.4076 26.3112 15.193 3 0.000951108 -4.11627
7392 1 36.491 26.3093 12.8549 3 0.000464591 -4.11763
7393 1 38.9637 26.3093 12.8549 3 0.000464591 -4.11763
7394 1 38.055 26.307 10.5167 3 0.000271562 -4.11847
7395 1 40.5278 26.307 10.5167 3 0.000271562 -4.11847
7396 1 39.6235 26.3049 8.17893 3 0.000180367 -4.11901
7397 1 42.0963 26.3049 8.17893 3 0.000180367 -4.11901
7398 1 41.1948 26.3032 5.84167 3 0.000133537 -4.11936
7399 1 43.6675 26.3032 5.84167 3 0.000133537 -4.11936
7400 1 42.7676 26.3021 3.50483 3 0.000109496 -4.11957
7401 1 45.2404 26.3021 3.50483 3 0.000109496 -4.11957
7402 1 44.3413 26.3015 1.16825 3 9.91672e-05 -4.11967
7403 1 46.8141 26.3015 1.16825 3 9.91672e-05 -4.11967
7404 1 17.0224 24.2818 46.6212 3 7.83887e-05 -4.11909
7405 1 19.4951 24.2818 46.6212 3 7.83887e-05 -4.11909
7406 1 18.5891 24.2827 44.2836 3 9.09683e-05 -4.11894
7407 1 21.0619 24.2827 44.2836 3 9.09683e-05 -4.11894
7408 1 20.1543 24.2841 41.9459 3 0.000116215 -4.11866
7409 1 22.6271 24.2841 41.9459 3 0.000116215 -4.11866
7410 1 21.717 24.2858 39.6081 3 0.000164011 -4.11823
7411 1 24.1898 24.2858 39.6081 3 0.000164011 -4.11823
7412 1 23.2753 24.2874 37.2705 3 0.000260539 -4.11759
7413 1 25.7481 24.2874 37.2705 3 0.000260539 -4.11759
7414 1 24.8265 24.2879 34.9338 3 0.000482604 -4.11663
7415 1 27.2993 24.2879 34.9338 3 0.000482604 -4.11663
7416 1 26.3653 24.2854 32.6002 3 0.00101185 -4.11517
7417 1 28.838 24.2854 32.6002 3 0.00101185 -4.11517
7418 1 27.8818 24.275 30.2733 3 0.00186199 -4.11259
7419 1 30.3546 24.275 30.2733 3 0.00186199 -4.11259
7420 1 29.3629 24.2507 27.9568 3 0.00236274 -4.10559
7421 1 31.8357 24.2507 27.9568 3 0.00236274 -4.10559
7422 1 30.811 24.2286 25.64 3 0.0045529 -4.09981
7423 1 33.2838 24.2286 25.64 3 0.0045529 -4.09981
7424 1 32.2449 24.2286 23.3186 3 0.0045529 -4.09981
7425 1 34.7177 24.2286 23.3186 3 0.0045529 -4.09981
7426 1 33.693 24.2507 21.0019 3 0.00236274 -4.10559
7427 1 36.1658 24.2507 21.0019 3 0.00236274 -4.10559
7428 1 35.1742 24.275 18.6853 3 0.00186199 -4.11259
7429 1 37.6469 24.275 18.6853 3 0.00186199 -4.11259
7430 1 36.6907 24.2854 16.3584 3 0.00101185 -4.11517
7431 1 39.1635 24.2854 16.3584 3 0.00101185 -4.11517
7432 1 38.2295 24.2879 14.0248 3 0.000482604 -4.11663
7433 1 40.7023 24.2879 14.0248 3 0.000482604 -4.11663
7434 1 39.7807 24.2874 11.6882 3 0.000260539 -4.11759
7435 1 42.2535 24.2874 11.6882 3 0.000260539 -4.11759
7436 1 41.339 24.2858 9.35054 3 0.000164011 -4.11823
7437 1 43.8118 24.2858 9.35054 3 0.000164011 -4.11823
7438 1 42.9016 24.2841 7.01272 3 0.000116216 -4.11866
7439 1 45.3744 24.2841 7.01272 3 0.000116216 -4.11866
7440 1 44.4669 24.2827 4.67502 3 9.09683e-05 -4.11894
7441 1 46.9397 24.2827 4.67502 3 9.09683e-05 -4.11894
7442 1 46.0336 24.2818 2.33746 3 7.83887e-05 -4.11909
7443 1 48.5064 24.2818 2.33746 3 7.83887e-05 -4.11909
7444 1 47.6011 24.2815 7.93619e-09 3 7.45992e-05 -4.11914
7445 1 50.0739 24.2815 7.93666e-09 3 7.45992e-05 -4.11914
7446 1 18.7086 22.261 47.7898 3 5.81635e-05 -4.11867
7447 1 21.1814 22.261 47.7898 3 5.81635e-05 -4.11867
7448 1 20.2702 22.2615 45.4521 3 6.41046e-05 -4.11857
7449 1 22.7429 22.2615 45.4521 3 6.41046e-05 -4.11857
7450 1 21.8304 22.2625 43.1146 3 7.79181e-05 -4.11836
7451 1 24.3032 22.2625 43.1146 3 7.79181e-05 -4.11836
7452 1 23.3885 22.2637 40.7772 3 0.000104555 -4.11804
7453 1 25.8612 22.2637 40.7772 3 0.000104555 -4.11804
7454 1 24.9427 22.2646 38.4403 3 0.000157093 -4.11755
7455 1 27.4155 22.2646 38.4403 3 0.000157093 -4.11755
7456 1 26.4909 22.2642 36.1048 3 0.000266142 -4.11685
7457 1 28.9637 22.2642 36.1048 3 0.000266142 -4.11685
7458 1 28.0292 22.2608 33.7722 3 0.000471623 -4.11582
7459 1 30.502 22.2608 33.7722 3 0.000471623 -4.11582
7460 1 29.5518 22.2512 31.4446 3 0.000701874 -4.11412
7461 1 32.0245 22.2512 31.4446 3 0.000701874 -4.11412
7462 1 31.0523 22.2327 29.1232 3 0.000811247 -4.11062
7463 1 33.5251 22.2327 29.1232 3 0.000811247 -4.11062
7464 1 32.5325 22.2131 26.8028 3 0.00142287 -4.10738
7465 1 35.0053 22.2131 26.8028 3 0.00142287 -4.10738
7466 1 34.0008 22.2049 24.4793 3 0.00172072 -4.10623
7467 1 36.4736 22.2049 24.4793 3 0.00172072 -4.10623
7468 1 35.469 22.2131 22.1558 3 0.00142287 -4.10738
7469 1 37.9418 22.2131 22.1558 3 0.00142287 -4.10738
7470 1 36.9493 22.2327 19.8354 3 0.000811247 -4.11062
7471 1 39.4221 22.2327 19.8354 3 0.000811247 -4.11062
7472 1 38.4498 22.2512 17.514 3 0.000701874 -4.11412
7473 1 40.9226 22.2512 17.514 3 0.000701874 -4.11412
7474 1 39.9724 22.2608 15.1864 3 0.000471623 -4.11582
7475 1 42.4452 22.2608 15.1864 3 0.000471623 -4.11582
7476 1 41.5107 22.2642 12.8538 3 0.000266141 -4.11685
7477 1 43.9834 22.2642 12.8538 3 0.000266141 -4.11685
7478 1 43.0589 22.2646 10.5183 3 0.000157093 -4.11755
7479 1 45.5316 22.2646 10.5183 3 0.000157093 -4.11755
7480 1 44.6131 22.2637 8.18147 3 0.000104555 -4.11804
7481 1 47.0859 22.2637 8.18147 3 0.000104555 -4.11804
7482 1 46.1711 22.2625 5.84407 3 7.79181e-05 -4.11836
7483 1 48.6439 22.2625 5.84407 3 7.79181e-05 -4.11836
7484 1 47.7314 22.2615 3.50648 3 6.41046e-05 -4.11857
7485 1 50.2042 22.2615 3.50648 3 6.41046e-05 -4.11857
7486 1 49.2929 22.261 1.16883 3 5.81635e-05 -4.11867
7487 1 51.7657 22.261 1.16883 3 5.81635e-05 -4.11867
7488 1 21.9574 20.2396 46.6214 3 4.80558e-05 -4.11824
7489 1 24.4301 20.2396 46.6214 3 4.80558e-05 -4.11824
7490 1 23.5134 20.2402 44.2843 3 5.54392e-05 -4.1181
7491 1 25.9862 20.2402 44.2843 3 5.54392e-05 -4.1181
7492 1 25.0676 20.2409 41.9475 3 7.05626e-05 -4.11786
7493 1 27.5403 20.2409 41.9475 3 7.05626e-05 -4.11786
7494 1 26.6186 20.2412 39.6115 3 9.97795e-05 -4.11749
7495 1 29.0914 20.2412 39.6115 3 9.97795e-05 -4.11749
7496 1 28.1646 20.2403 37.2769 3 0.000154051 -4.11696
7497 1 30.6374 20.2403 37.2769 3 0.000154051 -4.11696
7498 1 29.7029 20.2367 34.9447 3 0.000237837 -4.1162
7499 1 32.1757 20.2367 34.9447 3 0.000237837 -4.1162
7500 1 31.2298 20.2283 32.6161 3 0.000309047 -4.11501
7501 1 33.7026 20.2283 32.6161 3 0.000309047 -4.11501
7502 1 32.742 20.2138 30.2916 3 0.000342001 -4.11299
7503 1 35.2148 20.2138 30.2916 3 0.000342001 -4.11299
7504 1 34.2406 20.1974 27.9681 3 0.000541395 -4.11102
7505 1 36.7134 20.1974 27.9681 3 0.000541395 -4.11102
7506 1 35.7303 20.1865 25.6426 3 0.000695882 -4.1099
7507 1 38.2031 20.1865 25.6426 3 0.000695882 -4.1099
7508 1 37.2168 20.1865 23.316 3 0.000695882 -4.1099
7509 1 39.6896 20.1865 23.316 3 0.000695882 -4.1099
7510 1 38.7065 20.1974 20.9906 3 0.000541395 -4.11102
7511 1 41.1793 20.1974 20.9906 3 0.000541395 -4.11102
7512 1 40.2052 20.2138 18.667 3 0.000342001 -4.11299
7513 1 42.6779 20.2138 18.667 3 0.000342001 -4.11299
7514 1 41.7174 20.2283 16.3425 3 0.000309047 -4.11501
7515 1 44.1901 20.2283 16.3425 3 0.000309047 -4.11501
7516 1 43.2442 20.2367 14.014 3 0.000237836 -4.1162
7517 1 45.717 20.2367 14.014 3 0.000237836 -4.1162
7518 1 44.7825 20.2403 11.6818 3 0.000154051 -4.11696
7519 1 47.2553 20.2403 11.6818 3 0.000154051 -4.11696
7520 1 46.3285 20.2412 9.34714 3 9.97795e-05 -4.11749
7521 1 48.8013 20.2412 9.34714 3 9.97795e-05 -4.11749
7522 1 47.8796 20.2409 7.01111 3 7.05627e-05 -4.11786
7523 1 50.3524 20.2409 7.01111 3 7.05627e-05 -4.11786
7524 1 49.4338 20.2402 4.67436 3 5.54392e-05 -4.1181
7525 1 51.9065 20.2402 4.67436 3 5.54392e-05 -4.1181
7526 1 50.9898 20.2396 2.33725 3 4.80558e-05 -4.11824
7527 1 53.4626 20.2396 2.33725 3 4.80558e-05 -4.11824
7528 1 52.5467 20.2394 7.65496e-09 3 4.58252e-05 -4.11829
7529 1 55.0194 20.2394 7.63908e-09 3 4.58252e-05 -4.11829
7530 1 23.6496 18.2167 47.7904 3 3.80993e-05 -4.11796
7531 1 26.1224 18.2167 47.7904 3 3.80993e-05 -4.11796
7532 1 25.2018 18.2169 45.454 3 4.16723e-05 -4.11787
7533 1 27.6746 18.2169 45.454 3 4.16723e-05 -4.11787
7534 1 26.7526 18.2172 43.1181 3 4.99255e-05 -4.1177
7535 1 29.2254 18.2172 43.1181 3 4.99255e-05 -4.1177
7536 1 28.301 18.2172 40.7829 3 6.57171e-05 -4.11742
7537 1 30.7737 18.2172 40.7829 3 6.57171e-05 -4.11742
7538 1 29.8452 18.216 38.4489 3 9.22624e-05 -4.11701
7539 1 32.318 18.216 38.4489 3 9.22624e-05 -4.11701
7540 1 31.3835 18.2126 36.1169 3 0.000127291 -4.11643
7541 1 33.8563 18.2126 36.1169 3 0.000127291 -4.11643
7542 1 32.9134 18.2056 33.7876 3 0.000151781 -4.11557
7543 1 35.3861 18.2056 33.7876 3 0.000151781 -4.11557
7544 1 34.433 18.1942 31.4609 3 0.000165317 -4.11428
7545 1 36.9058 18.1942 31.4609 3 0.000165317 -4.11428
7546 1 35.943 18.1808 29.135 3 0.000239462 -4.11297
7547 1 38.4158 18.1808 29.135 3 0.000239462 -4.11297
7548 1 37.4464 18.1699 26.8079 3 0.000309455 -4.11207
7549 1 39.9191 18.1699 26.8079 3 0.000309455 -4.11207
7550 1 38.9463 18.1658 24.4793 3 0.000334306 -4.11174
7551 1 41.4191 18.1658 24.4793 3 0.000334306 -4.11174
7552 1 40.4463 18.1699 22.1507 3 0.000309455 -4.11207
7553 1 42.9191 18.1699 22.1507 3 0.000309455 -4.11207
7554 1 41.9497 18.1808 19.8236 3 0.000239462 -4.11297
7555 1 44.4225 18.1808 19.8236 3 0.000239462 -4.11297
7556 1 43.4597 18.1942 17.4978 3 0.000165317 -4.11428
7557 1 45.9325 18.1942 17.4978 3 0.000165317 -4.11428
7558 1 44.9793 18.2056 15.171 3 0.000151781 -4.11557
7559 1 47.4521 18.2056 15.171 3 0.000151781 -4.11557
7560 1 46.5092 18.2126 12.8417 3 0.000127292 -4.11643
7561 1 48.982 18.2126 12.8417 3 0.000127292 -4.11643
7562 1 48.0475 18.216 10.5097 3 9.22624e-05 -4.11701
7563 1 50.5202 18.216 10.5097 3 9.22624e-05 -4.11701
7564 1 49.5917 18.2172 8.17577 3 6.57171e-05 -4.11742
7565 1 52.0645 18.2172 8.17577 3 6.57171e-05 -4.11742
7566 1 51.14 18.2172 5.84054 3 4.99255e-05 -4.1177
7567 1 53.6128 18.2172 5.84054 3 4.99255e-05 -4.1177
7568 1 52.6909 18.2169 3.50458 3 4.16723e-05 -4.11787
7569 1 55.1637 18.2169 3.50458 3 4.16723e-05 -4.11787
7570 1 54.2431 18.2167 1.16823 3 3.80993e-05 -4.11796
7571 1 56.7159 18.2167 1.16823 3 3.80993e-05 -4.11796
7572 1 26.8948 16.1927 46.6232 3 3.25865e-05 -4.11766
7573 1 29.3676 16.1927 46.6232 3 3.25865e-05 -4.11766
7574 1 28.4426 16.1928 44.2882 3 3.6577e-05 -4.11754
7575 1 30.9154 16.1928 44.2882 3 3.6577e-05 -4.11754
7576 1 29.9885 16.1925 41.9537 3 4.43745e-05 -4.11733
7577 1 32.4613 16.1925 41.9537 3 4.43745e-05 -4.11733
7578 1 31.5312 16.1913 39.6204 3 5.67156e-05 -4.11702
7579 1 34.004 16.1913 39.6204 3 5.67156e-05 -4.11702
7580 1 33.0693 16.1884 37.2886 3 7.14129e-05 -4.11657
7581 1 35.5421 16.1884 37.2886 3 7.14129e-05 -4.11657
7582 1 34.6011 16.1827 34.9586 3 8.10424e-05 -4.11593
7583 1 37.0739 16.1827 34.9586 3 8.10424e-05 -4.11593
7584 1 36.1256 16.174 32.6304 3 8.87972e-05 -4.11504
7585 1 38.5984 16.174 32.6304 3 8.87972e-05 -4.11504
7586 1 37.6431 16.1633 30.3028 3 0.000119747 -4.11412
7587 1 40.1159 16.1633 30.3028 3 0.000119747 -4.11412
7588 1 39.1555 16.1536 27.9744 3 0.000151325 -4.1134
7589 1 41.6282 16.1536 27.9744 3 0.000151325 -4.1134
7590 1 40.6649 16.1478 25.6446 3 0.000163251 -4.11301
7591 1 43.1377 16.1478 25.6446 3 0.000163251 -4.11301
7592 1 42.1734 16.1478 23.3141 3 0.000163251 -4.11301
7593 1 44.6462 16.1478 23.3141 3 0.000163251 -4.11301
7594 1 43.6828 16.1536 20.9843 3 0.000151325 -4.1134
7595 1 46.1556 16.1536 20.9843 3 0.000151325 -4.1134
7596 1 45.1952 16.1633 18.6558 3 0.000119747 -4.11412
7597 1 47.6679 16.1633 18.6558 3 0.000119747 -4.11412
7598 1 46.7127 16.174 16.3282 3 8.87972e-05 -4.11504
7599 1 49.1854 16.174 16.3282 3 8.87972e-05 -4.11504
7600 1 48.2371 16.1827 14 3 8.10424e-05 -4.11593
7601 1 50.7099 16.1827 14 3 8.10424e-05 -4.11593
7602 1 49.769 16.1884 11.6701 3 7.1413e-05 -4.11657
7603 1 52.2418 16.1884 11.6701 3 7.1413e-05 -4.11657
7604 1 51.3071 16.1913 9.33825 3 5.67156e-05 -4.11702
7605 1 53.7798 16.1913 9.33825 3 5.67156e-05 -4.11702
7606 1 52.8498 16.1925 7.00489 3 4.43745e-05 -4.11733
7607 1 55.3226 16.1925 7.00489 3 4.43745e-05 -4.11733
7608 1 54.3957 16.1928 4.67046 3 3.6577e-05 -4.11754
7609 1 56.8685 16.1928 4.67046 3 3.6577e-05 -4.11754
7610 1 55.9435 16.1927 2.33538 3 3.25865e-05 -4.11766
7611 1 58.4163 16.1927 2.33538 3 3.25865e-05 -4.11766
7612 1 57.4922 16.1927 7.33225e-09 3 3.13416e-05 -4.1177
7613 1 59.965 16.1927 7.3684e-09 3 3.13416e-05 -4.1177
7614 1 28.5915 14.1675 47.7915 3 2.60015e-05 -4.11745
7615 1 31.0643 14.1675 47.7915 3 2.60015e-05 -4.11745
7616 1 30.1365 14.1674 45.4574 3 2.74318e-05 -4.11738
7617 1 32.6093 14.1674 45.4574 3 2.74318e-05 -4.11738
7618 1 31.6802 14.167 43.1237 3 3.05819e-05 -4.11723
7619 1 34.153 14.167 43.1237 3 3.05819e-05 -4.11723
7620 1 33.2214 14.166 40.7909 3 3.56114e-05 -4.11699
7621 1 35.6942 14.166 40.7909 3 3.56114e-05 -4.11699
7622 1 34.7592 14.1636 38.4592 3 4.15637e-05 -4.11665
7623 1 37.232 14.1636 38.4592 3 4.15637e-05 -4.11665
7624 1 36.2923 14.1593 36.1289 3 4.62847e-05 -4.11616
7625 1 38.7651 14.1593 36.1289 3 4.62847e-05 -4.11616
7626 1 37.82 14.1528 33.7998 3 5.23261e-05 -4.11553
7627 1 40.2928 14.1528 33.7998 3 5.23261e-05 -4.11553
7628 1 39.3425 14.1447 31.471 3 6.74147e-05 -4.11484
7629 1 41.8153 14.1447 31.471 3 6.74147e-05 -4.11484
7630 1 40.861 14.1367 29.1415 3 8.12689e-05 -4.11426
7631 1 43.3338 14.1367 29.1415 3 8.12689e-05 -4.11426
7632 1 42.377 14.1309 26.8109 3 8.36351e-05 -4.11388
7633 1 44.8498 14.1309 26.8109 3 8.36351e-05 -4.11388
7634 1 43.8919 14.1288 24.4793 3 8.17936e-05 -4.11375
7635 1 46.3647 14.1288 24.4793 3 8.17936e-05 -4.11375
7636 1 45.4068 14.1309 22.1477 3 8.36351e-05 -4.11388
7637 1 47.8796 14.1309 22.1477 3 8.36351e-05 -4.11388
7638 1 46.9228 14.1367 19.8171 3 8.12689e-05 -4.11426
7639 1 49.3956 14.1367 19.8171 3 8.12689e-05 -4.11426
7640 1 48.4413 14.1447 17.4876 3 6.74147e-05 -4.11484
7641 1 50.9141 14.1447 17.4876 3 6.74147e-05 -4.11484
7642 1 49.9638 14.1528 15.1588 3 5.23261e-05 -4.11553
7643 1 52.4366 14.1528 15.1588 3 5.23261e-05 -4.11553
7644 1 51.4915 14.1593 12.8297 3 4.62847e-05 -4.11616
7645 1 53.9643 14.1593 12.8297 3 4.62847e-05 -4.11616
7646 1 53.0246 14.1636 10.4994 3 4.15638e-05 -4.11665
7647 1 55.4974 14.1636 10.4994 3 4.15638e-05 -4.11665
7648 1 54.5624 14.166 8.16773 3 3.56115e-05 -4.11699
7649 1 57.0352 14.166 8.16773 3 3.56115e-05 -4.11699
7650 1 56.1037 14.167 5.83492 3 3.05818e-05 -4.11723
7651 1 58.5764 14.167 5.83492 3 3.05818e-05 -4.11723
7652 1 57.6473 14.1674 3.50127 3 2.74318e-05 -4.11738
7653 1 60.1201 14.1674 3.50127 3 2.74318e-05 -4.11738
7654 1 59.1923 14.1675 1.16714 3 2.60015e-05 -4.11745
7655 1 61.6651 14.1675 1.16714 3 2.60015e-05 -4.11745
7656 1 31.8339 12.1411 46.6254 3 2.08718e-05 -4.11721
7657 1 34.3067 12.1411 46.6254 3 2.08718e-05 -4.11721
7658 1 33.3754 12.1407 44.2926 3 2.14783e-05 -4.11711
7659 1 35.8481 12.1407 44.2926 3 2.14783e-05 -4.11711
7660 1 34.9152 12.1399 41.9603 3 2.27765e-05 -4.11694
7661 1 37.388 12.1399 41.9603 3 2.27765e-05 -4.11694
7662 1 36.4524 12.1382 39.6288 3 2.48704e-05 -4.11668
7663 1 38.9252 12.1382 39.6288 3 2.48704e-05 -4.11668
7664 1 37.9862 12.1352 37.2983 3 2.80027e-05 -4.11632
7665 1 40.459 12.1352 37.2983 3 2.80027e-05 -4.11632
7666 1 39.5161 12.1306 34.9685 3 3.3698e-05 -4.11585
7667 1 41.9889 12.1306 34.9685 3 3.3698e-05 -4.11585
7668 1 41.042 12.1249 32.6389 3 4.29304e-05 -4.11534
7669 1 43.5148 12.1249 32.6389 3 4.29304e-05 -4.11534
7670 1 42.5648 12.1189 30.3088 3 4.8972e-05 -4.11486
7671 1 45.0376 12.1189 30.3088 3 4.8972e-05 -4.11486
7672 1 44.0855 12.114 27.9776 3 4.63183e-05 -4.1145
7673 1 46.5583 12.114 27.9776 3 4.63183e-05 -4.1145
7674 1 45.6051 12.1112 25.6455 3 4.04781e-05 -4.11431
7675 1 48.0779 12.1112 25.6455 3 4.04781e-05 -4.11431
7676 1 47.1243 12.1112 23.3131 3 4.04781e-05 -4.11431
7677 1 49.5971 12.1112 23.3131 3 4.04781e-05 -4.11431
7678 1 48.6439 12.114 20.981 3 4.63182e-05 -4.1145
7679 1 51.1167 12.114 20.981 3 4.63182e-05 -4.1145
7680 1 50.1646 12.1189 18.6499 3 4.8972e-05 -4.11486
7681 1 52.6373 12.1189 18.6499 3 4.8972e-05 -4.11486
7682 1 51.6874 12.1249 16.3197 3 4.29304e-05 -4.11534
7683 1 54.1601 12.1249 16.3197 3 4.29304e-05 -4.11534
7684 1 53.2133 12.1306 13.9902 3 3.36981e-05 -4.11585
7685 1 55.6861 12.1306 13.9902 3 3.36981e-05 -4.11585
7686 1 54.7432 12.1352 11.6604 3 2.80028e-05 -4.11632
7687 1 57.216 12.1352 11.6604 3 2.80028e-05 -4.11632
7688 1 56.277 12.1382 9.32983 3 2.48705e-05 -4.11668
7689 1 58.7498 12.1382 9.32983 3 2.48705e-05 -4.11668
7690 1 57.8142 12.1399 6.99836 3 2.27765e-05 -4.11694
7691 1 60.287 12.1399 6.99836 3 2.27765e-05 -4.11694
7692 1 59.354 12.1407 4.66607 3 2.14783e-05 -4.11711
7693 1 61.8268 12.1407 4.66607 3 2.14783e-05 -4.11711
7694 1 60.8955 12.1411 2.33318 3 2.08718e-05 -4.11721
7695 1 33.5342 10.1138 47.7925 3 1.59529e-05 -4.11702
7696 1 36.007 10.1138 47.7925 3 1.59529e-05 -4.11702
7697 1 35.0735 10.1136 45.4603 3 1.54783e-05 -4.11697
7698 1 37.5463 10.1136 45.4603 3 1.54783e-05 -4.11697
7699 1 36.6118 10.1131 43.1284 3 1.49876e-05 -4.11685
7700 1 39.0846 10.1131 43.1284 3 1.49876e-05 -4.11685
7701 1 38.1483 10.1119 40.7971 3 1.53535e-05 -4.11667
7702 1 40.6211 10.1119 40.7971 3 1.53535e-05 -4.11667
7703 1 39.6825 10.1101 38.4664 3 1.79658e-05 -4.11641
7704 1 42.1552 10.1101 38.4664 3 1.79658e-05 -4.11641
7705 1 41.2137 10.1072 36.1361 3 2.37569e-05 -4.11607
7706 1 43.6865 10.1072 36.1361 3 2.37569e-05 -4.11607
7707 1 42.7421 10.1037 33.806 3 3.09937e-05 -4.11568
7708 1 45.2149 10.1037 33.806 3 3.09937e-05 -4.11568
7709 1 44.268 10.0998 31.4755 3 3.39978e-05 -4.11529
7710 1 46.7408 10.0998 31.4755 3 3.39978e-05 -4.11529
7711 1 45.7921 10.0963 29.1441 3 2.94958e-05 -4.11497
7712 1 48.2649 10.0963 29.1441 3 2.94959e-05 -4.11497
7713 1 47.315 10.0939 26.812 3 2.15714e-05 -4.11475
7714 1 49.7878 10.0939 26.812 3 2.15714e-05 -4.11475
7715 1 48.8375 10.0931 24.4793 3 1.77539e-05 -4.11468
7716 1 51.3103 10.0931 24.4793 3 1.77539e-05 -4.11468
7717 1 50.3599 10.0939 22.1466 3 2.15714e-05 -4.11475
7718 1 52.8327 10.0939 22.1466 3 2.15714e-05 -4.11475
7719 1 51.8829 10.0963 19.8145 3 2.94958e-05 -4.11497
7720 1 54.3557 10.0963 19.8145 3 2.94958e-05 -4.11497
7721 1 53.407 10.0998 17.4832 3 3.39978e-05 -4.11529
7722 1 55.8797 10.0998 17.4832 3 3.39978e-05 -4.11529
7723 1 54.9328 10.1037 15.1526 3 3.09937e-05 -4.11568
7724 1 57.4056 10.1037 15.1526 3 3.09937e-05 -4.11568
7725 1 56.4612 10.1072 12.8225 3 2.37569e-05 -4.11607
7726 1 58.934 10.1072 12.8225 3 2.37569e-05 -4.11607
7727 1 57.9925 10.1101 10.4922 3 1.79658e-05 -4.11641
7728 1 60.4653 10.1101 10.4922 3 1.79658e-05 -4.11641
7729 1 59.5266 10.1119 8.16153 3 1.53536e-05 -4.11667
7730 1 61.9994 10.1119 8.16153 3 1.53536e-05 -4.11667
7731 1 61.0632 10.1131 5.83022 3 1.49876e-05 -4.11685
7732 1 36.7743 8.0857 46.627 3 1.16e-05 -4.11731
7733 1 39.2471 8.0857 46.627 3 1.16e-05 -4.11731
7734 1 38.3109 8.08542 44.2954 3 1.05633e-05 -4.11722
7735 1 40.7837 8.08542 44.2954 3 1.05633e-05 -4.11722
7736 1 39.8465 8.08489 41.9642 3 1.03532e-05 -4.11706
7737 1 42.3193 8.08489 41.9642 3 1.03533e-05 -4.11706
7738 1 41.3806 8.084 39.6332 3 1.28943e-05 -4.11683
7739 1 43.8534 8.084 39.6332 3 1.28943e-05 -4.11683
7740 1 42.9127 8.0827 37.3025 3 1.88848e-05 -4.11652
7741 1 45.3855 8.0827 37.3025 3 1.88848e-05 -4.11652
7742 1 44.4428 8.08102 34.9719 3 2.55864e-05 -4.11616
7743 1 46.9156 8.08102 34.9719 3 2.55864e-05 -4.11616
7744 1 45.971 8.07917 32.641 3 2.77711e-05 -4.11577
7745 1 48.4438 8.07917 32.641 3 2.77711e-05 -4.11577
7746 1 47.4976 8.07741 30.3097 3 2.32113e-05 -4.11542
7747 1 49.9704 8.07741 30.3097 3 2.32112e-05 -4.11542
7748 1 49.0231 8.07606 27.9778 3 1.53105e-05 -4.11515
7749 1 51.4959 8.07606 27.9778 3 1.53105e-05 -4.11515
7750 1 50.548 8.07532 25.6455 3 9.6003e-06 -4.115
7751 1 53.0207 8.07532 25.6455 3 9.6003e-06 -4.115
7752 1 52.0726 8.07532 23.3131 3 9.60026e-06 -4.115
7753 1 54.5454 8.07532 23.3131 3 9.60026e-06 -4.115
7754 1 53.5974 8.07606 20.9808 3 1.53105e-05 -4.11515
7755 1 56.0702 8.07606 20.9808 3 1.53105e-05 -4.11515
7756 1 55.1229 8.07741 18.6489 3 2.32112e-05 -4.11542
7757 1 57.5957 8.07741 18.6489 3 2.32112e-05 -4.11542
7758 1 56.6495 8.07917 16.3176 3 2.77711e-05 -4.11577
7759 1 59.1223 8.07917 16.3176 3 2.77711e-05 -4.11577
7760 1 58.1777 8.08102 13.9867 3 2.55864e-05 -4.11616
7761 1 60.6505 8.08102 13.9867 3 2.55865e-05 -4.11616
7762 1 59.7078 8.0827 11.6561 3 1.88849e-05 -4.11652
7763 1 62.1806 8.0827 11.6561 3 1.88849e-05 -4.11652
7764 1 61.24 8.084 9.3254 3 1.28943e-05 -4.11683
7765 1 38.4775 6.05706 47.7929 3 0.000192152 -4.11661
7766 1 40.9502 6.05706 47.7929 3 0.000192152 -4.11661
7767 1 40.0123 6.05706 45.4616 3 0.000190055 -4.11656
7768 1 42.4851 6.05706 45.4616 3 0.000190055 -4.11656
7769 1 41.5467 6.05706 43.1302 3 0.000182135 -4.11648
7770 1 44.0194 6.05706 43.1302 3 0.000182136 -4.11648
7771 1 43.0802 6.05706 40.7989 3 0.000163309 -4.11634
7772 1 45.553 6.05706 40.7989 3 0.000163309 -4.11634
7773 1 44.6127 6.05706 38.4675 3 0.000131568 -4.11616
7774 1 47.0855 6.05706 38.4675 3 0.000131568 -4.11616
7775 1 46.144 6.05706 36.1361 3 9.19266e-05 -4.11595
7776 1 48.6168 6.05706 36.1361 3 9.19267e-05 -4.11595
7777 1 47.6739 6.05706 33.8048 3 5.47059e-05 -4.11573
7778 1 50.1467 6.05706 33.8048 3 5.4706e-05 -4.11573
7779 1 49.2026 6.05706 31.4734 3 2.81608e-05 -4.11553
7780 1 51.6754 6.05706 31.4734 3 2.81609e-05 -4.11553
7781 1 50.7301 6.05706 29.142 3 1.34713e-05 -4.11537
7782 1 53.2029 6.05706 29.142 3 1.34712e-05 -4.11537
7783 1 52.2568 6.05706 26.8107 3 7.01598e-06 -4.11526
7784 1 54.7296 6.05706 26.8107 3 7.01601e-06 -4.11526
7785 1 53.7831 6.05706 24.4793 3 5.26909e-06 -4.11523
7786 1 56.2558 6.05706 24.4793 3 5.26906e-06 -4.11523
7787 1 55.3093 6.05706 22.1479 3 7.01611e-06 -4.11526
7788 1 57.7821 6.05706 22.1479 3 7.01613e-06 -4.11526
7789 1 56.836 6.05706 19.8166 3 1.34715e-05 -4.11537
7790 1 59.3088 6.05706 19.8166 3 1.34715e-05 -4.11537
7791 1 58.3635 6.05706 17.4852 3 2.81612e-05 -4.11553
7792 1 60.8363 6.05706 17.4852 3 2.81612e-05 -4.11553
7793 1 59.8922 6.05706 15.1539 3 5.47065e-05 -4.11573
7794 1 62.365 6.05706 15.1539 3 5.47065e-05 -4.11573
7795 1 61.4221 6.05706 12.8225 3 9.19273e-05 -4.11595
7796 1 41.7168 4.03804 46.6273 3 1.41684e-06 -4.11576
7797 1 44.1896 4.03804 46.6273 3 1.41686e-06 -4.11576
7798 1 43.2506 4.03804 44.2959 3 1.43103e-06 -4.11573
7799 1 45.7233 4.03804 44.2959 3 1.43102e-06 -4.11573
7800 1 44.7838 4.03804 41.9645 3 1.45409e-06 -4.11568
7801 1 47.2566 4.03804 41.9645 3 1.4541e-06 -4.11568
7802 1 46.3163 4.03804 39.6332 3 1.48585e-06 -4.11564
7803 1 48.7891 4.03804 39.6332 3 1.48587e-06 -4.11564
7804 1 47.8479 4.03804 37.3018 3 1.52673e-06 -4.11559
7805 1 50.3207 4.03804 37.3018 3 1.52673e-06 -4.11559
7806 1 49.3786 4.03804 34.9704 3 1.57732e-06 -4.11556
7807 1 51.8513 4.03804 34.9704 3 1.57732e-06 -4.11556
7808 1 50.9082 4.03804 32.6391 3 1.63654e-06 -4.11554
7809 1 53.3809 4.03804 32.6391 3 1.63656e-06 -4.11554
7810 1 52.4368 4.03804 30.3077 3 1.69892e-06 -4.11552
7811 1 54.9096 4.03804 30.3077 3 1.69895e-06 -4.11552
7812 1 53.9648 4.03804 27.9764 3 1.75327e-06 -4.11552
7813 1 56.4375 4.03804 27.9764 3 1.75327e-06 -4.11552
7814 1 55.4922 4.03804 25.645 3 1.78548e-06 -4.11551
7815 1 57.965 4.03804 25.645 3 1.78548e-06 -4.11551
7816 1 57.0195 4.03804 23.3136 3 1.78548e-06 -4.11551
7817 1 59.4923 4.03804 23.3136 3 1.78548e-06 -4.11551
7818 1 58.5469 4.03804 20.9823 3 1.75329e-06 -4.11552
7819 1 61.0197 4.03804 20.9823 3 1.75327e-06 -4.11552
7820 1 60.0748 4.03804 18.6509 3 1.69892e-06 -4.11552
7821 1 62.5476 4.03804 18.6509 3 1.69894e-06 -4.11552
7822 1 61.6035 4.03804 16.3195 3 1.63654e-06 -4.11554
7823 1 43.4222 2.01902 47.7929 3 8.63855e-07 -4.10005
7824 1 45.895 2.01902 47.7929 3 8.63883e-07 -4.10005
7825 1 44.9554 2.01902 45.4616 3 8.67536e-07 -4.10002
7826 1 47.4282 2.01902 45.4616 3 8.67506e-07 -4.10002
7827 1 46.4883 2.01902 43.1302 3 8.74814e-07 -4.09998
7828 1 48.9611 2.01902 43.1302 3 8.74834e-07 -4.09998
7829 1 48.0208 2.01902 40.7989 3 8.85999e-07 -4.09991
7830 1 50.4935 2.01902 40.7989 3 8.85998e-07 -4.09991
7831 1 49.5525 2.01902 38.4675 3 9.01619e-07 -4.09983
7832 1 52.0253 2.01902 38.4675 3 9.01619e-07 -4.09983
7833 1 51.0836 2.01902 36.1361 3 9.22391e-07 -4.09974
7834 1 53.5563 2.01902 36.1361 3 9.22383e-07 -4.09974
7835 1 52.6138 2.01902 33.8048 3 9.48481e-07 -4.09964
7836 1 55.0866 2.01902 33.8048 3 9.48475e-07 -4.09964
7837 1 54.1433 2.01902 31.4734 3 9.78204e-07 -4.09956
7838 1 56.6161 2.01902 31.4734 3 9.78174e-07 -4.09956
7839 1 55.6721 2.01902 29.142 3 1.00712e-06 -4.09949
7840 1 58.1449 2.01902 29.142 3 1.00713e-06 -4.09949
7841 1 57.2005 2.01902 26.8107 3 1.02869e-06 -4.09945
7842 1 59.6733 2.01902 26.8107 3 1.02868e-06 -4.09945
7843 1 58.7286 2.01902 24.4793 3 1.0367e-06 -4.09944
7844 1 61.2014 2.01902 24.4793 3 1.03673e-06 -4.09944
7845 1 60.2567 2.01902 22.1479 3 1.02869e-06 -4.09945
7846 1 62.7295 2.01902 22.1479 3 1.02866e-06 -4.09945
7847 1 61.7851 2.01902 19.8166 3 1.00712e-06 -4.09949
7848 1 46.661 0 46.6273 5 6.02137 -3.54885
7849 1 49.1338 0 46.6273 5 6.02137 -3.54885
7850 1 48.1936 0 44.2959 5 6.02059 -3.54884
7851 1 50.6664 0 44.2959 5 6.02059 -3.54884
7852 1 49.7259 0 41.9645 5 6.01984 -3.54882
7853 1 52.1987 0 41.9645 5 6.01984 -3.54882
7854 1 51.2577 0 39.6332 5 6.0192 -3.5488
7855 1 53.7305 0 39.6332 5 6.0192 -3.5488
7856 1 52.7889 0 37.3018 5 6.01871 -3.54878
7857 1 55.2617 0 37.3018 5 6.01871 -3.54878
7858 1 54.3196 0 34.9704 5 6.01843 -3.54876
7859 1 56.7924 0 34.9704 5 6.01843 -3.54876
7860 1 55.8496 0 32.6391 5 6.01838 -3.54873
7861 1 58.3224 0 32.6391 5 6.01838 -3.54873
7862 1 57.3792 0 30.3077 5 6.01858 -3.54871
7863 1 59.8519 0 30.3077 5 6.01858 -3.54871
7864 1 58.9082 0 27.9764 5 6.01902 -3.5487
7865 1 61.381 0 27.9764 5 6.01902 -3.5487
7866 1 60.437 0 25.645 5 6.01964 -3.54869
7867 1 62.9098 0 25.645 5 6.01964 -3.54869
7868 1 61.9658 0 23.3136 5 6.01964 -3.54869
7869 1 1.44985 62.5896 12.8225 5 12.2233 -3.54464
7870 1 0.625384 62.5896 10.4911 5 12.2231 -3.54468
7871 1 3.09817 62.5896 10.4911 5 12.2231 -3.54468
7872 1 2.27307 62.5896 8.15977 5 12.2235 -3.54471
7873 1 4.74586 62.5896 8.15977 5 12.2235 -3.54471
7874 1 3.92021 62.5896 5.82841 5 6.11184 -3.54474
7875 1 6.39299 62.5896 5.82841 5 6.11184 -3.54474
7876 1 5.56692 62.5896 3.49704 5 6.11233 -3.54476
7877 1 8.03971 62.5896 3.49704 5 6.11233 -3.54476
7878 1 7.21337 62.5896 1.16568 5 6.11303 -3.54477
7879 1 9.68615 62.5896 1.16568 5 6.11303 -3.54477
7880 1 1.45087 60.5706 16.3195 3 1.14889e-06 -4.10639
7881 1 0.6276 60.5706 13.9882 3 1.11275e-06 -4.10645
7882 1 3.10038 60.5706 13.9882 3 1.11276e-06 -4.10645
7883 1 2.27627 60.5706 11.6568 3 1.08243e-06 -4.10651
7884 1 4.74905 60.5706 11.6568 3 1.08243e-06 -4.10651
7885 1 3.92409 60.5706 9.32545 3 1.05864e-06 -4.10657
7886 1 6.39688 60.5706 9.32545 3 1.05865e-06 -4.10657
7887 1 5.57115 60.5706 6.99409 3 1.04077e-06 -4.10661
7888 1 8.04394 60.5706 6.99409 3 1.04077e-06 -4.10661
7889 1 7.21758 60.5706 4.66273 3 1.02815e-06 -4.10664
7890 1 9.69037 60.5706 4.66273 3 1.02816e-06 -4.10664
7891 1 8.86357 60.5706 2.33136 3 1.02054e-06 -4.10666
7892 1 11.3364 60.5706 2.33136 3 1.02055e-06 -4.10666
7893 1 10.5093 60.5706 0 3 1.01799e-06 -4.10667
7894 1 12.9821 60.5706 0 3 1.01798e-06 -4.10667
7895 1 1.44965 58.5516 19.8166 3 1.17349e-05 -4.12244
7896 1 0.62811 58.5516 17.4852 3 2.24522e-05 -4.12244
7897 1 3.10089 58.5516 17.4852 3 2.24521e-05 -4.12244
7898 1 2.27842 58.5516 15.1539 3 3.52547e-05 -4.12244
7899 1 4.75121 58.5516 15.1539 3 3.52548e-05 -4.12244
7900 1 3.92766 58.5516 12.8225 3 5.08313e-05 -4.12243
7901 1 6.40045 58.5516 12.8225 3 5.08314e-05 -4.12243
7902 1 5.5758 58.5516 10.4911 3 6.97658e-05 -4.1224
7903 1 8.04858 58.5516 10.4911 3 6.97657e-05 -4.1224
7904 1 7.22288 58.5516 8.15977 3 9.07158e-05 -4.12237
7905 1 9.69567 58.5516 8.15977 3 9.07157e-05 -4.12237
7906 1 8.86907 58.5516 5.82841 3 0.000110457 -4.12234
7907 1 11.3419 58.5516 5.82841 3 0.000110457 -4.12234
7908 1 10.5146 58.5516 3.49704 3 0.000125533 -4.12231
7909 1 12.9874 58.5516 3.49704 3 0.000125533 -4.12231
7910 1 12.1597 58.5516 1.16568 3 0.000133584 -4.1223
7911 1 14.6324 58.5516 1.16568 3 0.000133584 -4.1223
7912 1 1.44439 56.5323 23.3141 3 1.63778e-06 -4.12246
7913 1 0.623861 56.5327 20.9835 3 3.91338e-06 -4.12244
7914 1 3.09665 56.5327 20.9835 3 3.91338e-06 -4.12244
7915 1 2.27571 56.5336 18.6527 3 7.5986e-06 -4.1224
7916 1 4.7485 56.5336 18.6527 3 7.59861e-06 -4.1224
7917 1 3.92687 56.5348 16.3216 3 1.11233e-05 -4.12233
7918 1 6.39966 56.5348 16.3216 3 1.11233e-05 -4.12233
7919 1 5.5771 56.5361 13.9902 3 1.27621e-05 -4.12223
7920 1 8.04988 56.5361 13.9902 3 1.27621e-05 -4.12223
7921 1 7.22618 56.5374 11.6586 3 1.18619e-05 -4.12212
7922 1 9.69896 56.5374 11.6586 3 1.18619e-05 -4.12212
7923 1 8.87399 56.5386 9.32688 3 9.06614e-06 -4.122
7924 1 11.3468 56.5386 9.32688 3 9.06615e-06 -4.122
7925 1 10.5205 56.5395 6.99509 3 5.88394e-06 -4.1219
7926 1 12.9933 56.5395 6.99509 3 5.88395e-06 -4.1219
7927 1 12.166 56.5402 4.66334 3 3.49759e-06 -4.12182
7928 1 14.6388 56.5402 4.66334 3 3.49757e-06 -4.12182
7929 1 13.8107 56.5406 2.33165 3 2.19143e-06 -4.12177
7930 1 16.2835 56.5406 2.33165 3 2.19145e-06 -4.12177
7931 1 15.4549 56.5407 48.9586 3 1.81015e-06 -4.12175
7932 1 17.9277 56.5407 48.9586 3 1.81015e-06 -4.12175
7933 1 1.43811 54.5129 26.8095 3 3.97123e-06 -4.12249
7934 1 0.618196 54.5124 24.4793 3 2.41598e-06 -4.12249
7935 1 3.09098 54.5124 24.4793 3 2.41598e-06 -4.12249
7936 1 2.27106 54.5129 22.1492 3 3.97123e-06 -4.12249
7937 1 4.74385 54.5129 22.1492 3 3.97122e-06 -4.12249
7938 1 3.92371 54.5144 19.8188 3 7.87666e-06 -4.12248
7939 1 6.39649 54.5144 19.8188 3 7.87667e-06 -4.12248
7940 1 5.57586 54.5166 17.4879 3 1.19593e-05 -4.12246
7941 1 8.04865 54.5166 17.4879 3 1.19593e-05 -4.12246
7942 1 7.22719 54.5193 15.1566 3 1.40704e-05 -4.12243
7943 1 9.69997 54.5193 15.1566 3 1.40704e-05 -4.12243
7944 1 8.87734 54.5221 12.8249 3 1.34554e-05 -4.12238
7945 1 11.3501 54.5221 12.8249 3 1.34554e-05 -4.12238
7946 1 10.526 54.5247 10.493 3 1.09581e-05 -4.12232
7947 1 12.9988 54.5247 10.493 3 1.0958e-05 -4.12232
7948 1 12.173 54.5268 8.16101 3 8.05886e-06 -4.12226
7949 1 14.6458 54.5268 8.16101 3 8.05887e-06 -4.12226
7950 1 13.8185 54.5283 5.82911 3 5.81593e-06 -4.12221
7951 1 16.2913 54.5283 5.82911 3 5.81593e-06 -4.12221
7952 1 15.4627 54.5293 3.49738 3 4.47753e-06 -4.12218
7953 1 17.9355 54.5293 3.49738 3 4.47753e-06 -4.12218
7954 1 17.1061 54.5298 1.16578 3 3.89996e-06 -4.12217
7955 1 19.5789 54.5298 1.16578 3 3.89996e-06 -4.12217
7956 1 1.42943 52.4973 30.3053 3 1.49964e-05 -4.12248
7957 1 0.610137 52.4943 27.9746 3 1.09793e-05 -4.12249
7958 1 3.08292 52.4943 27.9746 3 1.09793e-05 -4.12249
7959 1 2.264 52.4926 25.6444 3 7.73925e-06 -4.12249
7960 1 4.73678 52.4926 25.6444 3 7.73925e-06 -4.12249
7961 1 3.91796 52.4926 23.3143 3 7.73924e-06 -4.12249
7962 1 6.39075 52.4926 23.3143 3 7.73924e-06 -4.12249
7963 1 5.57182 52.4943 20.984 3 1.09792e-05 -4.12249
7964 1 8.04461 52.4943 20.984 3 1.09792e-05 -4.12249
7965 1 7.22531 52.4973 18.6533 3 1.49964e-05 -4.12248
7966 1 9.6981 52.4973 18.6533 3 1.49964e-05 -4.12248
7967 1 8.87804 52.5014 16.322 3 1.70391e-05 -4.12245
7968 1 11.3508 52.5014 16.322 3 1.70391e-05 -4.12245
7969 1 10.5295 52.5057 13.9902 3 1.63502e-05 -4.12239
7970 1 13.0023 52.5057 13.9902 3 1.63502e-05 -4.12239
7971 1 12.1793 52.5098 11.6581 3 1.40121e-05 -4.12233
7972 1 14.652 52.5098 11.6581 3 1.40121e-05 -4.12233
7973 1 13.827 52.5132 9.32602 3 1.15574e-05 -4.12226
7974 1 16.2997 52.5132 9.32602 3 1.15574e-05 -4.12226
7975 1 15.4726 52.5157 6.99411 3 9.67676e-06 -4.12221
7976 1 17.9453 52.5157 6.99411 3 9.67676e-06 -4.12221
7977 1 17.1163 52.5174 4.66251 3 8.29609e-06 -4.12218
7978 1 19.5891 52.5174 4.66251 3 8.29609e-06 -4.12218
7979 1 18.7587 52.5183 2.33117 3 7.52735e-06 -4.12216
7980 1 21.2315 52.5183 2.33117 3 7.52735e-06 -4.12216
7981 1 20.4005 52.5186 48.9586 3 7.22158e-06 -4.12216
7982 1 22.8733 52.5186 48.9586 3 7.22159e-06 -4.12216
7983 1 1.41752 50.488 33.804 3 2.12611e-05 -4.12241
7984 1 0.598001 50.4822 31.472 3 2.30165e-05 -4.12246
7985 1 3.07078 50.4822 31.472 3 2.30165e-05 -4.12246
7986 1 2.25265 50.477 29.1406 3 2.21126e-05 -4.12249
7987 1 4.72544 50.477 29.1406 3 2.21126e-05 -4.12249
7988 1 3.90806 50.4735 26.8098 3 1.91502e-05 -4.1225
7989 1 6.38084 50.4735 26.8098 3 1.91502e-05 -4.1225
7990 1 5.56376 50.4723 24.4793 3 1.74186e-05 -4.1225
7991 1 8.03655 50.4723 24.4793 3 1.74186e-05 -4.1225
7992 1 7.21947 50.4735 22.1489 3 1.91502e-05 -4.1225
7993 1 9.69225 50.4735 22.1489 3 1.91502e-05 -4.1225
7994 1 8.87487 50.477 19.818 3 2.21126e-05 -4.12249
7995 1 11.3477 50.477 19.818 3 2.21126e-05 -4.12249
7996 1 10.5295 50.4822 17.4866 3 2.30165e-05 -4.12246
7997 1 13.0023 50.4822 17.4866 3 2.30165e-05 -4.12246
7998 1 12.1828 50.488 15.1546 3 2.12611e-05 -4.12241
7999 1 14.6556 50.488 15.1546 3 2.12611e-05 -4.12241
8000 1 13.834 50.4938 12.8223 3 1.86664e-05 -4.12233
8001 1 16.3068 50.4938 12.8223 3 1.86664e-05 -4.12233
8002 1 15.4826 50.4987 10.4901 3 1.67305e-05 -4.12225
8003 1 17.9554 50.4987 10.4901 3 1.67305e-05 -4.12225
8004 1 17.1285 50.5023 8.15817 3 1.53589e-05 -4.1222
8005 1 19.6013 50.5023 8.15817 3 1.53589e-05 -4.1222
8006 1 18.7718 50.5048 5.82678 3 1.38767e-05 -4.12217
8007 1 21.2446 50.5048 5.82678 3 1.38767e-05 -4.12217
8008 1 20.4132 50.5062 3.49585 3 1.26248e-05 -4.12216
8009 1 22.886 50.5062 3.49585 3 1.26248e-05 -4.12216
8010 1 22.0534 50.5068 1.16525 3 1.18952e-05 -4.12215
8011 1 24.5262 50.5068 1.16525 3 1.18952e-05 -4.12215
8012 1 1.40552 48.4832 37.3054 3 2.49439e-05 -4.12223
8013 1 0.58274 48.4767 34.9729 3 2.64238e-05 -4.12233
8014 1 3.05552 48.4767 34.9729 3 2.64238e-05 -4.12233
8015 1 2.23601 48.4693 32.6402 3 3.04308e-05 -4.12241
8016 1 4.7088 48.4693 32.6402 3 3.04308e-05 -4.12241
8017 1 3.8918 48.4619 30.3078 3 3.52972e-05 -4.12247
8018 1 6.36458 48.4619 30.3078 3 3.52972e-05 -4.12247
8019 1 5.54918 48.456 27.976 3 3.74501e-05 -4.1225
8020 1 8.02197 48.456 27.976 3 3.74501e-05 -4.1225
8021 1 7.20735 48.4526 25.6448 3 3.66337e-05 -4.12251
8022 1 9.68014 48.4526 25.6448 3 3.66337e-05 -4.12251
8023 1 8.86574 48.4526 23.3138 3 3.66337e-05 -4.12251
8024 1 11.3385 48.4526 23.3138 3 3.66337e-05 -4.12251
8025 1 10.5239 48.456 20.9826 3 3.745e-05 -4.1225
8026 1 12.9967 48.456 20.9826 3 3.745e-05 -4.1225
8027 1 12.1813 48.4619 18.6508 3 3.52972e-05 -4.12247
8028 1 14.6541 48.4619 18.6508 3 3.52972e-05 -4.12247
8029 1 13.8371 48.4693 16.3184 3 3.04307e-05 -4.12241
8030 1 16.3099 48.4693 16.3184 3 3.04307e-05 -4.12241
8031 1 15.4904 48.4767 13.9857 3 2.64237e-05 -4.12233
8032 1 17.9631 48.4767 13.9857 3 2.64237e-05 -4.12233
8033 1 17.1404 48.4832 11.6532 3 2.49439e-05 -4.12223
8034 1 19.6131 48.4832 11.6532 3 2.49439e-05 -4.12223
8035 1 18.7867 48.4881 9.32123 3 2.41335e-05 -4.12217
8036 1 21.2595 48.4881 9.32123 3 2.41335e-05 -4.12217
8037 1 20.4297 48.4913 6.99006 3 2.20453e-05 -4.12215
8038 1 22.9025 48.4913 6.99006 3 2.20453e-05 -4.12215
8039 1 22.07 48.4932 4.6596 3 1.96273e-05 -4.12214
8040 1 24.5428 48.4932 4.6596 3 1.96273e-05 -4.12214
8041 1 23.7085 48.4942 2.32967 3 1.78386e-05 -4.12214
8042 1 26.1813 48.4942 2.32967 3 1.78386e-05 -4.12214
8043 1 25.346 48.4945 48.9586 3 1.72512e-05 -4.12214
8044 1 27.8188 48.4945 48.9586 3 1.72512e-05 -4.12214
8045 1 1.40092 46.4771 40.8063 3 3.46056e-05 -4.1221
8046 1 0.570913 46.4731 38.4753 3 3.8725e-05 -4.12212
8047 1 3.0437 46.4731 38.4753 3 3.8725e-05 -4.12212
8048 1 2.21819 46.467 36.1432 3 3.9276e-05 -4.12218
8049 1 4.69097 46.467 36.1432 3 3.9276e-05 -4.12218
8050 1 3.87029 46.4588 33.8101 3 4.07035e-05 -4.12231
8051 1 6.34307 46.4588 33.8101 3 4.07035e-05 -4.12231
8052 1 5.52655 46.4495 31.4768 3 4.82067e-05 -4.1224
8053 1 7.99934 46.4495 31.4768 3 4.82067e-05 -4.1224
8054 1 7.18594 46.4409 29.1438 3 6.04472e-05 -4.12248
8055 1 9.65872 46.4409 29.1438 3 6.04472e-05 -4.12248
8056 1 8.84722 46.4347 26.8113 3 6.90738e-05 -4.12252
8057 1 11.32 46.4347 26.8113 3 6.90738e-05 -4.12252
8058 1 10.5093 46.4324 24.4793 3 7.12415e-05 -4.12253
8059 1 12.9821 46.4324 24.4793 3 7.12415e-05 -4.12253
8060 1 12.1714 46.4347 22.1473 3 6.90738e-05 -4.12252
8061 1 14.6442 46.4347 22.1473 3 6.90738e-05 -4.12252
8062 1 13.8327 46.4409 19.8148 3 6.04472e-05 -4.12248
8063 1 16.3055 46.4409 19.8148 3 6.04472e-05 -4.12248
8064 1 15.4921 46.4495 17.4818 3 4.82066e-05 -4.1224
8065 1 17.9649 46.4495 17.4818 3 4.82066e-05 -4.1224
8066 1 17.1484 46.4588 15.1485 3 4.07035e-05 -4.12231
8067 1 19.6212 46.4588 15.1485 3 4.07035e-05 -4.12231
8068 1 18.8005 46.467 12.8155 3 3.92759e-05 -4.12218
8069 1 21.2733 46.467 12.8155 3 3.92759e-05 -4.12218
8070 1 20.4478 46.4731 10.4833 3 3.8725e-05 -4.12212
8071 1 22.9205 46.4731 10.4833 3 3.8725e-05 -4.12212
8072 1 22.0905 46.4771 8.15231 3 3.46057e-05 -4.1221
8073 1 24.5633 46.4771 8.15231 3 3.46057e-05 -4.1221
8074 1 23.7297 46.4794 5.82233 3 2.95039e-05 -4.12211
8075 1 26.2025 46.4794 5.82233 3 2.95039e-05 -4.12211
8076 1 25.3663 46.4807 3.4931 3 2.56145e-05 -4.12212
8077 1 27.8391 46.4807 3.4931 3 2.56145e-05 -4.12212
8078 1 27.0015 46.4812 1.16432 3 2.36101e-05 -4.12212
8079 1 29.4743 46.4812 1.16432 3 2.36101e-05 -4.12212
8080 1 1.40945 44.4662 44.3031 3 3.62616e-05 -4.12207
8081 1 0.571327 44.4648 41.9745 3 4.42897e-05 -4.12205
8082 1 3.04411 44.4648 41.9745 3 4.42897e-05 -4.12205
8083 1 2.20936 44.4622 39.645 3 5.52161e-05 -4.12202
8084 1 4.68214 44.4622 39.645 3 5.52161e-05 -4.12202
8085 1 3.85215 44.4575 37.3141 3 6.50011e-05 -4.12201
8086 1 6.32493 44.4575 37.3141 3 6.50011e-05 -4.12201
8087 1 5.50095 44.4501 34.9816 3 6.6379e-05 -4.12208
8088 1 7.97373 44.4501 34.9816 3 6.6379e-05 -4.12208
8089 1 7.15622 44.44 32.6477 3 6.90114e-05 -4.12229
8090 1 9.629 44.44 32.6477 3 6.90114e-05 -4.12229
8091 1 8.81683 44.429 30.3136 3 8.3298e-05 -4.12236
8092 1 11.2896 44.429 30.3136 3 8.3298e-05 -4.12236
8093 1 10.4814 44.4195 27.9795 3 0.000113302 -4.12248
8094 1 12.9542 44.4195 27.9795 3 0.000113302 -4.12248
8095 1 12.1483 44.4138 25.646 3 0.000134837 -4.12254
8096 1 14.6211 44.4138 25.646 3 0.000134837 -4.12254
8097 1 13.8159 44.4138 23.3127 3 0.000134837 -4.12254
8098 1 16.2887 44.4138 23.3127 3 0.000134837 -4.12254
8099 1 15.4828 44.4195 20.9791 3 0.000113302 -4.12248
8100 1 17.9556 44.4195 20.9791 3 0.000113302 -4.12248
8101 1 17.1474 44.429 18.6451 3 8.3298e-05 -4.12236
8102 1 19.6202 44.429 18.6451 3 8.3298e-05 -4.12236
8103 1 18.808 44.44 16.3109 3 6.90114e-05 -4.12229
8104 1 21.2808 44.44 16.3109 3 6.90114e-05 -4.12229
8105 1 20.4633 44.4501 13.9771 3 6.6379e-05 -4.12208
8106 1 22.9361 44.4501 13.9771 3 6.6379e-05 -4.12208
8107 1 22.1121 44.4575 11.6445 3 6.50011e-05 -4.12201
8108 1 24.5849 44.4575 11.6445 3 6.50011e-05 -4.12201
8109 1 23.7549 44.4622 9.31364 3 5.52162e-05 -4.12202
8110 1 26.2277 44.4622 9.31364 3 5.52162e-05 -4.12202
8111 1 25.3929 44.4648 6.9841 3 4.42897e-05 -4.12205
8112 1 27.8657 44.4648 6.9841 3 4.42897e-05 -4.12205
8113 1 27.0276 44.4662 4.65555 3 3.62616e-05 -4.12207
8114 1 29.5003 44.4662 4.65555 3 3.62616e-05 -4.12207
8115 1 28.6601 44.4667 2.32763 3 3.16705e-05 -4.12209
8116 1 31.1329 44.4667 2.32763 3 3.16705e-05 -4.12209
8117 1 30.2916 44.4669 48.9586 3 3.02465e-05 -4.1221
8118 1 32.7644 44.4669 48.9586 3 3.02465e-05 -4.1221
8119 1 1.43198 42.4514 47.7953 3 3.88216e-05 -4.12204
8120 1 0.587272 42.4513 45.4685 3 4.29685e-05 -4.12203
8121 1 3.06006 42.4513 45.4685 3 4.29685e-05 -4.12203
8122 1 2.21693 42.4508 43.1414 3 5.21401e-05 -4.122
8123 1 4.68971 42.4508 43.1414 3 5.21401e-05 -4.122
8124 1 3.84941 42.4495 40.8135 3 6.79327e-05 -4.12195
8125 1 6.3222 42.4495 40.8135 3 6.79327e-05 -4.12195
8126 1 5.48627 42.4468 38.4844 3 9.11994e-05 -4.12188
8127 1 7.95905 42.4468 38.4844 3 9.11994e-05 -4.12188
8128 1 7.12935 42.4416 36.1535 3 0.000115746 -4.12183
8129 1 9.60214 42.4416 36.1535 3 0.000115746 -4.12183
8130 1 8.78057 42.4328 33.8204 3 0.000121899 -4.12189
8131 1 11.2534 42.4328 33.8204 3 0.000121899 -4.12189
8132 1 10.4407 42.4205 31.4854 3 0.000131069 -4.12226
8133 1 12.9135 42.4205 31.4854 3 0.000131069 -4.12226
8134 1 12.1077 42.408 29.1501 3 0.000154237 -4.12225
8135 1 14.5804 42.408 29.1501 3 0.000154237 -4.12225
8136 1 13.7799 42.3982 26.8146 3 0.000231706 -4.12249
8137 1 16.2527 42.3982 26.8146 3 0.000231706 -4.12249
8138 1 15.4549 42.3944 24.4793 3 0.00027212 -4.12258
8139 1 17.9277 42.3944 24.4793 3 0.00027212 -4.12258
8140 1 17.1299 42.3982 22.144 3 0.000231706 -4.12249
8141 1 19.6027 42.3982 22.144 3 0.000231706 -4.12249
8142 1 18.8021 42.408 19.8085 3 0.000154237 -4.12225
8143 1 21.2749 42.408 19.8085 3 0.000154237 -4.12225
8144 1 20.4691 42.4205 17.4732 3 0.000131069 -4.12226
8145 1 22.9419 42.4205 17.4732 3 0.000131069 -4.12226
8146 1 22.1292 42.4328 15.1382 3 0.000121899 -4.12189
8147 1 24.602 42.4328 15.1382 3 0.000121899 -4.12189
8148 1 23.7804 42.4416 12.8051 3 0.000115746 -4.12183
8149 1 26.2532 42.4416 12.8051 3 0.000115746 -4.12183
8150 1 25.4235 42.4468 10.4743 3 9.11994e-05 -4.12188
8151 1 27.8963 42.4468 10.4743 3 9.11994e-05 -4.12188
8152 1 27.0604 42.4495 8.14516 3 6.79327e-05 -4.12195
8153 1 29.5332 42.4495 8.14516 3 6.79327e-05 -4.12195
8154 1 28.6929 42.4508 5.81726 3 5.21401e-05 -4.122
8155 1 31.1657 42.4508 5.81726 3 5.21401e-05 -4.122
8156 1 30.3225 42.4513 3.4901 3 4.29685e-05 -4.12203
8157 1 32.7953 42.4513 3.4901 3 4.29685e-05 -4.12203
8158 1 31.9506 42.4514 1.16333 3 3.88216e-05 -4.12204
8159 1 34.4234 42.4514 1.16333 3 3.88216e-05 -4.12204
8160 1 2.24144 40.4348 46.6326 3 5.18024e-05 -4.12196
8161 1 4.71423 40.4348 46.6326 3 5.18024e-05 -4.12196
8162 1 3.8657 40.4348 44.3065 3 6.06629e-05 -4.12193
8163 1 6.33849 40.4348 44.3065 3 6.06629e-05 -4.12193
8164 1 5.49212 40.4346 41.9799 3 7.80201e-05 -4.12187
8165 1 7.96491 40.4346 41.9799 3 7.80201e-05 -4.12187
8166 1 7.12214 40.4336 39.6526 3 0.000108536 -4.12178
8167 1 9.59493 40.4336 39.6526 3 0.000108536 -4.12178
8168 1 8.75771 40.431 37.324 3 0.000158298 -4.12165
8169 1 11.2305 40.431 37.324 3 0.000158298 -4.12165
8170 1 10.4015 40.4256 34.9932 3 0.000221815 -4.1215
8171 1 12.8742 40.4256 34.9932 3 0.000221815 -4.1215
8172 1 12.0564 40.4155 32.6594 3 0.000248953 -4.12152
8173 1 14.5292 40.4155 32.6594 3 0.000248953 -4.12152
8174 1 13.7242 40.4005 30.3228 3 0.000290858 -4.12227
8175 1 16.197 40.4005 30.3228 3 0.000290857 -4.12227
8176 1 15.4005 40.3872 27.9861 3 0.000307363 -4.122
8177 1 17.8733 40.3872 27.9861 3 0.000307363 -4.122
8178 1 17.0844 40.3784 25.6483 3 0.000523821 -4.12257
8179 1 19.5571 40.3784 25.6483 3 0.000523821 -4.12257
8180 1 18.771 40.3784 23.3103 3 0.000523821 -4.12257
8181 1 21.2438 40.3784 23.3103 3 0.000523821 -4.12257
8182 1 20.4548 40.3872 20.9725 3 0.000307363 -4.122
8183 1 22.9276 40.3872 20.9725 3 0.000307363 -4.122
8184 1 22.1312 40.4005 18.6358 3 0.000290858 -4.12227
8185 1 24.604 40.4005 18.6358 3 0.000290858 -4.12227
8186 1 23.7989 40.4155 16.2992 3 0.000248953 -4.12152
8187 1 26.2717 40.4155 16.2992 3 0.000248953 -4.12152
8188 1 25.4539 40.4256 13.9654 3 0.000221816 -4.1215
8189 1 27.9267 40.4256 13.9654 3 0.000221816 -4.1215
8190 1 27.0977 40.431 11.6346 3 0.000158298 -4.12165
8191 1 29.5704 40.431 11.6346 3 0.000158298 -4.12165
8192 1 28.7332 40.4336 9.306 3 0.000108536 -4.12178
8193 1 31.206 40.4336 9.306 3 0.000108536 -4.12178
8194 1 30.3632 40.4346 6.97871 3 7.80201e-05 -4.12187
8195 1 32.836 40.4346 6.97871 3 7.80201e-05 -4.12187
8196 1 31.9897 40.4348 4.65217 3 6.06629e-05 -4.12193
8197 1 34.4624 40.4348 4.65217 3 6.06629e-05 -4.12193
8198 1 33.6139 40.4348 2.326 3 5.18024e-05 -4.12196
8199 1 36.0867 40.4348 2.326 3 5.18024e-05 -4.12196
8200 1 35.2372 40.4348 48.9586 3 4.90573e-05 -4.12197
8201 1 37.71 40.4348 48.9586 3 4.90573e-05 -4.12197
8202 1 3.89995 38.4171 47.7957 3 6.55492e-05 -4.12185
8203 1 6.37273 38.4171 47.7957 3 6.55492e-05 -4.12185
8204 1 5.51836 38.4173 45.4699 3 7.3238e-05 -4.12182
8205 1 7.99114 38.4173 45.4699 3 7.3238e-05 -4.12182
8206 1 7.13826 38.4176 43.144 3 9.07642e-05 -4.12177
8207 1 9.61104 38.4176 43.144 3 9.07642e-05 -4.12177
8208 1 8.76089 38.4177 40.8179 3 0.00012367 -4.12167
8209 1 11.2337 38.4177 40.8179 3 0.00012367 -4.12167
8210 1 10.3879 38.4172 38.4912 3 0.000183731 -4.12151
8211 1 12.8607 38.4172 38.4912 3 0.000183731 -4.12151
8212 1 12.0219 38.4151 36.1632 3 0.000293667 -4.12125
8213 1 14.4947 38.4151 36.1632 3 0.000293667 -4.12125
8214 1 13.6667 38.4098 33.8328 3 0.000468568 -4.12089
8215 1 16.1395 38.4098 33.8328 3 0.000468568 -4.12089
8216 1 15.3274 38.3984 31.4983 3 0.00059098 -4.12071
8217 1 17.8002 38.3984 31.4983 3 0.00059098 -4.12071
8218 1 17.0076 38.3799 29.1594 3 0.000820378 -4.12241
8219 1 19.4804 38.3799 29.1594 3 0.000820378 -4.12241
8220 1 18.6985 38.3679 26.8212 3 0.000708783 -4.12138
8221 1 21.1713 38.3679 26.8212 3 0.000708783 -4.12138
8222 1 20.4005 38.3626 24.4793 3 0.00124499 -4.12296
8223 1 22.8733 38.3626 24.4793 3 0.00124499 -4.12296
8224 1 22.1025 38.3679 22.1374 3 0.000708783 -4.12138
8225 1 24.5753 38.3679 22.1374 3 0.000708783 -4.12138
8226 1 23.7933 38.3799 19.7992 3 0.000820378 -4.12241
8227 1 26.2661 38.3799 19.7992 3 0.000820378 -4.12241
8228 1 25.4735 38.3984 17.4603 3 0.00059098 -4.12071
8229 1 27.9463 38.3984 17.4603 3 0.00059098 -4.12071
8230 1 27.1342 38.4098 15.1259 3 0.000468568 -4.12089
8231 1 29.607 38.4098 15.1259 3 0.000468568 -4.12089
8232 1 28.779 38.4151 12.7954 3 0.000293667 -4.12125
8233 1 31.2518 38.4151 12.7954 3 0.000293667 -4.12125
8234 1 30.413 38.4172 10.4675 3 0.000183731 -4.12151
8235 1 32.8858 38.4172 10.4675 3 0.000183731 -4.12151
8236 1 32.04 38.4177 8.14077 3 0.00012367 -4.12167
8237 1 34.5128 38.4177 8.14077 3 0.00012367 -4.12167
8238 1 33.6627 38.4176 5.81463 3 9.07642e-05 -4.12177
8239 1 36.1355 38.4176 5.81463 3 9.07642e-05 -4.12177
8240 1 35.2826 38.4173 3.48873 3 7.3238e-05 -4.12182
8241 1 37.7554 38.4173 3.48873 3 7.3238e-05 -4.12182
8242 1 36.901 38.4171 1.16291 3 6.55492e-05 -4.12185
8243 1 39.3738 38.4171 1.16291 3 6.55492e-05 -4.12185
8244 1 7.17576 36.3986 46.6323 3 9.18568e-05 -4.12168
8245 1 9.64854 36.3986 46.6323 3 9.18568e-05 -4.12168
8246 1 8.78862 36.399 44.306 3 0.000108355 -4.12161
8247 1 11.2614 36.399 44.306 3 0.000108355 -4.12161
8248 1 10.4033 36.3997 41.9799 3 0.000142159 -4.1215
8249 1 12.8761 36.3997 41.9799 3 0.000142159 -4.1215
8250 1 12.0213 36.4003 39.6538 3 0.000206701 -4.12131
8251 1 14.4941 36.4003 39.6538 3 0.000206701 -4.12131
8252 1 13.6444 36.4004 37.3276 3 0.000333509 -4.12101
8253 1 16.1172 36.4004 37.3276 3 0.000333509 -4.12101
8254 1 15.276 36.3992 35.0006 3 0.000598223 -4.12049
8255 1 17.7487 36.3992 35.0006 3 0.000598223 -4.12049
8256 1 16.9217 36.3945 32.6711 3 0.00114061 -4.1196
8257 1 19.3945 36.3945 32.6711 3 0.00114061 -4.1196
8258 1 18.5914 36.3823 30.3364 3 0.00177736 -4.11866
8259 1 21.0641 36.3823 30.3364 3 0.00177736 -4.11866
8260 1 20.2941 36.3588 27.9942 3 0.00336124 -4.12315
8261 1 22.7669 36.3588 27.9942 3 0.00336124 -4.12315
8262 1 22.0084 36.3546 25.6544 3 0.00208926 -4.12065
8263 1 24.4812 36.3546 25.6544 3 0.00208926 -4.12065
8264 1 23.7381 36.3546 23.3043 3 0.00208926 -4.12065
8265 1 26.2109 36.3546 23.3043 3 0.00208926 -4.12065
8266 1 25.4524 36.3588 20.9644 3 0.00336124 -4.12315
8267 1 27.9252 36.3588 20.9644 3 0.00336124 -4.12315
8268 1 27.1551 36.3823 18.6222 3 0.00177737 -4.11866
8269 1 29.6279 36.3823 18.6222 3 0.00177737 -4.11866
8270 1 28.8248 36.3945 16.2875 3 0.00114061 -4.1196
8271 1 31.2975 36.3945 16.2875 3 0.00114061 -4.1196
8272 1 30.4705 36.3992 13.9581 3 0.000598223 -4.12049
8273 1 32.9433 36.3992 13.9581 3 0.000598223 -4.12049
8274 1 32.1021 36.4004 11.631 3 0.00033351 -4.12101
8275 1 34.5749 36.4004 11.631 3 0.00033351 -4.12101
8276 1 33.7252 36.4003 9.30478 3 0.000206702 -4.12131
8277 1 36.198 36.4003 9.30478 3 0.000206702 -4.12131
8278 1 35.3432 36.3997 6.97872 3 0.000142159 -4.1215
8279 1 37.8159 36.3997 6.97872 3 0.000142159 -4.1215
8280 1 36.9579 36.399 4.65258 3 0.000108355 -4.12161
8281 1 39.4307 36.399 4.65258 3 0.000108355 -4.12161
8282 1 38.5707 36.3986 2.32633 3 9.18568e-05 -4.12168
8283 1 41.0435 36.3986 2.32633 3 9.18568e-05 -4.12168
8284 1 40.1827 36.3984 2.27969e-09 3 8.69562e-05 -4.12169
8285 1 42.6555 36.3984 2.2875e-09 3 8.69562e-05 -4.12169
8286 1 8.83902 34.3792 47.7948 3 0.000115414 -4.12147
8287 1 11.3118 34.3792 47.7948 3 0.000115414 -4.12147
8288 1 10.4443 34.3796 45.4671 3 0.000127924 -4.12141
8289 1 12.9171 34.3796 45.4671 3 0.000127924 -4.12141
8290 1 12.0506 34.3803 43.1397 3 0.000158073 -4.12129
8291 1 14.5234 34.3803 43.1397 3 0.000158073 -4.12129
8292 1 13.6589 34.3813 40.8125 3 0.000219406 -4.12107
8293 1 16.1317 34.3813 40.8125 3 0.000219406 -4.12107
8294 1 15.2705 34.3823 38.4858 3 0.00034635 -4.12071
8295 1 17.7433 34.3823 38.4858 3 0.00034635 -4.12071
8296 1 16.8876 34.3831 36.1595 3 0.000630913 -4.12007
8297 1 19.3604 34.3831 36.1595 3 0.000630913 -4.12007
8298 1 18.5143 34.383 33.8334 3 0.00135468 -4.11886
8299 1 20.9871 34.383 33.8334 3 0.00135468 -4.11886
8300 1 20.1594 34.3799 31.5058 3 0.00346241 -4.11633
8301 1 22.6322 34.3799 31.5058 3 0.00346241 -4.11633
8302 1 21.8425 34.3684 29.1724 3 0.00841238 -4.11182
8303 1 24.3153 34.3684 29.1724 3 0.00841238 -4.11182
8304 1 23.5958 34.339 26.8251 3 0.0361452 -4.12628
8305 1 26.0686 34.339 26.8251 3 0.0361452 -4.12628
8306 1 25.346 34.3611 24.4793 3 0.0111429 -4.10153
8307 1 27.8188 34.3611 24.4793 3 0.0111429 -4.10153
8308 1 27.0963 34.339 22.1335 3 0.0361452 -4.12628
8309 1 29.5691 34.339 22.1335 3 0.0361452 -4.12628
8310 1 28.8496 34.3684 19.7862 3 0.00841238 -4.11182
8311 1 31.3224 34.3684 19.7862 3 0.00841238 -4.11182
8312 1 30.5327 34.3799 17.4528 3 0.00346242 -4.11633
8313 1 33.0054 34.3799 17.4528 3 0.00346242 -4.11633
8314 1 32.1777 34.383 15.1253 3 0.00135468 -4.11886
8315 1 34.6505 34.383 15.1253 3 0.00135468 -4.11886
8316 1 33.8045 34.3831 12.7991 3 0.000630913 -4.12007
8317 1 36.2773 34.3831 12.7991 3 0.000630913 -4.12007
8318 1 35.4216 34.3823 10.4728 3 0.00034635 -4.12071
8319 1 37.8944 34.3823 10.4728 3 0.00034635 -4.12071
8320 1 37.0332 34.3813 8.14609 3 0.000219406 -4.12107
8321 1 39.506 34.3813 8.14609 3 0.000219406 -4.12107
8322 1 38.6415 34.3803 5.81895 3 0.000158073 -4.12129
8323 1 41.1143 34.3803 5.81895 3 0.000158073 -4.12129
8324 1 40.2478 34.3796 3.49149 3 0.000127924 -4.12141
8325 1 42.7206 34.3796 3.49149 3 0.000127924 -4.12141
8326 1 41.8531 34.3792 1.16385 3 0.000115414 -4.12147
8327 1 44.3258 34.3792 1.16385 3 0.000115414 -4.12147
8328 1 12.1066 32.3599 46.6288 3 0.000142377 -4.12113
8329 1 14.5794 32.3599 46.6288 3 0.000142377 -4.12113
8330 1 13.7042 32.3605 44.299 3 0.000163748 -4.12102
8331 1 16.177 32.3605 44.299 3 0.000163748 -4.12102
8332 1 15.3027 32.3615 41.9694 3 0.000209208 -4.12082
8333 1 17.7755 32.3615 41.9694 3 0.000209208 -4.12082
8334 1 16.9026 32.3628 39.64 3 0.00030275 -4.12045
8335 1 19.3754 32.3628 39.64 3 0.00030275 -4.12045
8336 1 18.505 32.3642 37.3111 3 0.00051239 -4.11977
8337 1 20.9778 32.3642 37.3111 3 0.00051239 -4.11977
8338 1 20.1117 32.3657 34.9828 3 0.00106837 -4.11841
8339 1 22.5844 32.3657 34.9828 3 0.00106837 -4.11841
8340 1 21.7267 32.3668 32.6555 3 0.00296101 -4.11528
8341 1 24.1995 32.3668 32.6555 3 0.00296101 -4.11528
8342 1 23.3612 32.3659 30.3292 3 0.0128667 -4.10575
8343 1 25.834 32.3659 30.3292 3 0.0128667 -4.10575
8344 1 25.0561 32.3588 28.0005 3 0.140712 -4.0469
8345 1 27.5288 32.3588 28.0005 3 0.140712 -4.0469
8346 1 27.0195 32.3521 25.6463 5 5.31346 -4.04848
8347 1 29.4923 32.3521 25.6463 5 5.31346 -4.04848
8348 1 28.6181 32.3521 23.3123 5 5.31346 -4.04848
8349 1 31.0909 32.3521 23.3123 5 5.31346 -4.04848
8350 1 30.5816 32.3588 20.9581 3 0.140712 -4.0469
8351 1 33.0544 32.3588 20.9581 3 0.140712 -4.0469
8352 1 32.2764 32.3659 18.6294 3 0.0128667 -4.10575
8353 1 34.7492 32.3659 18.6294 3 0.0128667 -4.10575
8354 1 33.9109 32.3668 16.3031 3 0.00296101 -4.11528
8355 1 36.3837 32.3668 16.3031 3 0.00296101 -4.11528
8356 1 35.526 32.3657 13.9758 3 0.00106837 -4.11841
8357 1 37.9988 32.3657 13.9758 3 0.00106837 -4.11841
8358 1 37.1327 32.3642 11.6475 3 0.00051239 -4.11977
8359 1 39.6055 32.3642 11.6475 3 0.00051239 -4.11977
8360 1 38.735 32.3628 9.31858 3 0.00030275 -4.12045
8361 1 41.2078 32.3628 9.31858 3 0.00030275 -4.12045
8362 1 40.3349 32.3615 6.98921 3 0.000209208 -4.12082
8363 1 42.8077 32.3615 6.98921 3 0.000209208 -4.12082
8364 1 41.9334 32.3605 4.65959 3 0.000163749 -4.12102
8365 1 44.4062 32.3605 4.65959 3 0.000163749 -4.12102
8366 1 43.531 32.3599 2.32983 3 0.000142377 -4.12113
8367 1 46.0038 32.3599 2.32983 3 0.000142377 -4.12113
8368 1 45.1283 32.3597 2.87089e-09 3 0.00013603 -4.12116
8369 1 47.6011 32.3597 2.88113e-09 3 0.00013603 -4.12116
8370 1 13.7767 30.3403 47.7924 3 0.000141586 -4.12074
8371 1 16.2495 30.3403 47.7924 3 0.000141586 -4.12074
8372 1 15.3658 30.3408 45.46 3 0.000154623 -4.12067
8373 1 17.8386 30.3408 45.46 3 0.000154623 -4.12067
8374 1 16.955 30.3417 43.1275 3 0.00018524 -4.12051
8375 1 19.4277 30.3417 43.1275 3 0.00018524 -4.12051
8376 1 18.5441 30.343 40.7947 3 0.000246691 -4.12024
8377 1 21.0169 30.343 40.7947 3 0.000246691 -4.12024
8378 1 20.1332 30.3448 38.4616 3 0.000372786 -4.11979
8379 1 22.6059 30.3448 38.4616 3 0.000372786 -4.11979
8380 1 21.7221 30.3469 36.1279 3 0.000661326 -4.11905
8381 1 24.1948 30.3469 36.1279 3 0.000661326 -4.11905
8382 1 23.3105 30.3494 33.7931 3 0.00146478 -4.1177
8383 1 25.7833 30.3494 33.7931 3 0.00146478 -4.1177
8384 1 24.898 30.3523 31.4565 3 0.00450872 -4.11471
8385 1 27.3708 30.3523 31.4565 3 0.00450872 -4.11471
8386 1 26.4817 30.3548 29.1174 3 0.0254563 -4.10472
8387 1 28.9545 30.3548 29.1174 3 0.0254563 -4.10472
8388 1 28.0227 30.3458 26.7868 5 7.69492 -4.05571
8389 1 30.4955 30.3458 26.7868 5 7.69492 -4.05571
8390 1 29.0552 30.3079 24.4793 5 2.29704 -3.99361
8391 1 31.528 30.3079 24.4793 5 2.29704 -3.99361
8392 1 30.0877 30.3458 22.1719 5 7.69492 -4.05571
8393 1 32.5605 30.3458 22.1719 5 7.69492 -4.05571
8394 1 31.6287 30.3548 19.8412 3 0.0254563 -4.10472
8395 1 34.1015 30.3548 19.8412 3 0.0254563 -4.10472
8396 1 33.2124 30.3523 17.5021 3 0.00450872 -4.11471
8397 1 35.6852 30.3523 17.5021 3 0.00450872 -4.11471
8398 1 34.7999 30.3494 15.1655 3 0.00146478 -4.1177
8399 1 37.2727 30.3494 15.1655 3 0.00146478 -4.1177
8400 1 36.3884 30.3469 12.8307 3 0.000661326 -4.11905
8401 1 38.8611 30.3469 12.8307 3 0.000661326 -4.11905
8402 1 37.9773 30.3448 10.497 3 0.000372786 -4.11979
8403 1 40.4501 30.3448 10.497 3 0.000372786 -4.11979
8404 1 39.5663 30.343 8.16388 3 0.000246692 -4.12024
8405 1 42.0391 30.343 8.16388 3 0.000246692 -4.12024
8406 1 41.1555 30.3417 5.83113 3 0.00018524 -4.12051
8407 1 43.6283 30.3417 5.83113 3 0.00018524 -4.12051
8408 1 42.7446 30.3408 3.4986 3 0.000154623 -4.12067
8409 1 45.2174 30.3408 3.4986 3 0.000154623 -4.12067
8410 1 44.3337 30.3403 1.16619 3 0.000141586 -4.12074
8411 1 46.8065 30.3403 1.16619 3 0.000141586 -4.12074
8412 1 17.0361 28.3211 46.6239 3 0.000129519 -4.1202
8413 1 19.5089 28.3211 46.6239 3 0.000129519 -4.1202
8414 1 18.617 28.3219 44.2889 3 0.000149472 -4.12007
8415 1 21.0898 28.3219 44.2889 3 0.000149472 -4.12007
8416 1 20.1971 28.3233 41.9536 3 0.000191447 -4.11982
8417 1 22.6699 28.3233 41.9536 3 0.000191447 -4.11982
8418 1 21.776 28.3251 39.6177 3 0.000275951 -4.11942
8419 1 24.2488 28.3251 39.6177 3 0.000275951 -4.11942
8420 1 23.3527 28.3274 37.2809 3 0.000456136 -4.11879
8421 1 25.8255 28.3274 37.2809 3 0.000456136 -4.11879
8422 1 24.9256 28.3302 34.943 3 0.000890241 -4.11774
8423 1 27.3984 28.3302 34.943 3 0.000890241 -4.11774
8424 1 26.4913 28.3332 32.6038 3 0.00219321 -4.11591
8425 1 28.9641 28.3332 32.6038 3 0.00219321 -4.11591
8426 1 28.041 28.3349 30.2646 3 0.00787771 -4.1127
8427 1 30.5137 28.3349 30.2646 3 0.00787771 -4.1127
8428 1 29.5443 28.3262 27.9331 3 0.04025 -4.10128
8429 1 32.017 28.3262 27.9331 3 0.04025 -4.10128
8430 1 30.895 28.2786 25.6293 3 0.0799124 -4.03666
8431 1 33.3677 28.2786 25.6293 3 0.0799124 -4.03666
8432 1 32.161 28.2786 23.3294 3 0.0799124 -4.03666
8433 1 34.6338 28.2786 23.3294 3 0.0799124 -4.03666
8434 1 33.5117 28.3262 21.0255 3 0.04025 -4.10128
8435 1 35.9845 28.3262 21.0255 3 0.04025 -4.10128
8436 1 35.015 28.3349 18.694 3 0.00787771 -4.1127
8437 1 37.4878 28.3349 18.694 3 0.00787771 -4.1127
8438 1 36.5647 28.3332 16.3548 3 0.00219322 -4.11591
8439 1 39.0374 28.3332 16.3548 3 0.00219322 -4.11591
8440 1 38.1303 28.3302 14.0157 3 0.000890241 -4.11774
8441 1 40.6031 28.3302 14.0157 3 0.000890241 -4.11774
8442 1 39.7033 28.3274 11.6777 3 0.000456136 -4.11879
8443 1 42.176 28.3274 11.6777 3 0.000456136 -4.11879
8444 1 41.28 28.3251 9.34094 3 0.000275951 -4.11942
8445 1 43.7528 28.3251 9.34094 3 0.000275951 -4.11942
8446 1 42.8589 28.3233 7.00503 3 0.000191447 -4.11982
8447 1 45.3316 28.3233 7.00503 3 0.000191447 -4.11982
8448 1 44.439 28.3219 4.66972 3 0.000149472 -4.12007
8449 1 46.9118 28.3219 4.66972 3 0.000149472 -4.12007
8450 1 46.0199 28.3211 2.33477 3 0.000129519 -4.1202
8451 1 48.4927 28.3211 2.33477 3 0.000129519 -4.1202
8452 1 47.6011 28.3209 4.60762e-09 3 0.000123538 -4.12024
8453 1 50.0739 28.3209 4.60235e-09 3 0.000123538 -4.12024
8454 1 18.7147 26.3015 47.7904 3 9.91672e-05 -4.11967
8455 1 21.1875 26.3015 47.7904 3 9.91672e-05 -4.11967
8456 1 20.2884 26.3021 45.4538 3 0.000109496 -4.11957
8457 1 22.7612 26.3021 45.4538 3 0.000109496 -4.11957
8458 1 21.8612 26.3032 43.117 3 0.000133537 -4.11936
8459 1 24.334 26.3032 43.117 3 0.000133537 -4.11936
8460 1 23.4325 26.3049 40.7797 3 0.000180367 -4.11901
8461 1 25.9053 26.3049 40.7797 3 0.000180367 -4.11901
8462 1 25.001 26.307 38.4419 3 0.000271562 -4.11847
8463 1 27.4738 26.307 38.4419 3 0.000271562 -4.11847
8464 1 26.565 26.3093 36.1037 3 0.000464591 -4.11763
8465 1 29.0378 26.3093 36.1037 3 0.000464591 -4.11763
8466 1 28.1212 26.3112 33.7656 3 0.000951108 -4.11627
8467 1 30.594 26.3112 33.7656 3 0.000951108 -4.11627
8468 1 29.6622 26.3104 31.4299 3 0.00245828 -4.11406
8469 1 32.1349 26.3104 31.4299 3 0.00245828 -4.11406
8470 1 31.1711 26.3002 29.1027 3 0.00637848 -4.10946
8471 1 33.6439 26.3002 29.1027 3 0.00637848 -4.10946
8472 1 32.6158 26.2669 26.7934 3 0.00997197 -4.09174
8473 1 35.0886 26.2669 26.7934 3 0.00997197 -4.09174
8474 1 34.0008 26.2457 24.4793 3 0.0166214 -4.08223
8475 1 36.4736 26.2457 24.4793 3 0.0166214 -4.08223
8476 1 35.3858 26.2669 22.1652 3 0.00997198 -4.09174
8477 1 37.8586 26.2669 22.1652 3 0.00997198 -4.09174
8478 1 36.8304 26.3002 19.8559 3 0.00637848 -4.10946
8479 1 39.3032 26.3002 19.8559 3 0.00637848 -4.10946
8480 1 38.3394 26.3104 17.5287 3 0.00245828 -4.11406
8481 1 40.8122 26.3104 17.5287 3 0.00245828 -4.11406
8482 1 39.8804 26.3112 15.193 3 0.000951108 -4.11627
8483 1 42.3532 26.3112 15.193 3 0.000951108 -4.11627
8484 1 41.4365 26.3093 12.8549 3 0.000464591 -4.11763
8485 1 43.9093 26.3093 12.8549 3 0.000464591 -4.11763
8486 1 43.0005 26.307 10.5167 3 0.000271562 -4.11847
8487 1 45.4733 26.307 10.5167 3 0.000271562 -4.11847
8488 1 44.5691 26.3049 8.17893 3 0.000180367 -4.11901
8489 1 47.0419 26.3049 8.17893 3 0.000180367 -4.11901
8490 1 46.1403 26.3032 5.84167 3 0.000133537 -4.11936
8491 1 48.6131 26.3032 5.84167 3 0.000133537 -4.11936
8492 1 47.7132 26.3021 3.50483 3 0.000109496 -4.11957
8493 1 50.186 26.3021 3.50483 3 0.000109496 -4.11957
8494 1 49.2869 26.3015 1.16825 3 9.91672e-05 -4.11967
8495 1 51.7597 26.3015 1.16825 3 9.91672e-05 -4.11967
8496 1 21.9679 24.2818 46.6212 3 7.83887e-05 -4.11909
8497 1 24.4407 24.2818 46.6212 3 7.83887e-05 -4.11909
8498 1 23.5347 24.2827 44.2836 3 9.09683e-05 -4.11894
8499 1 26.0075 24.2827 44.2836 3 9.09683e-05 -4.11894
8500 1 25.0999 24.2841 41.9459 3 0.000116215 -4.11866
8501 1 27.5727 24.2841 41.9459 3 0.000116215 -4.11866
8502 1 26.6625 24.2858 39.6081 3 0.000164011 -4.11823
8503 1 29.1353 24.2858 39.6081 3 0.000164011 -4.11823
8504 1 28.2209 24.2874 37.2705 3 0.000260539 -4.11759
8505 1 30.6937 24.2874 37.2705 3 0.000260539 -4.11759
8506 1 29.7721 24.2879 34.9338 3 0.000482604 -4.11663
8507 1 32.2449 24.2879 34.9338 3 0.000482604 -4.11663
8508 1 31.3108 24.2854 32.6002 3 0.00101185 -4.11517
8509 1 33.7836 24.2854 32.6002 3 0.00101185 -4.11517
8510 1 32.8274 24.275 30.2733 3 0.00186199 -4.11259
8511 1 35.3002 24.275 30.2733 3 0.00186199 -4.11259
8512 1 34.3085 24.2507 27.9568 3 0.00236274 -4.10559
8513 1 36.7813 24.2507 27.9568 3 0.00236274 -4.10559
8514 1 35.7566 24.2286 25.64 3 0.0045529 -4.09981
8515 1 38.2294 24.2286 25.64 3 0.0045529 -4.09981
8516 1 37.1905 24.2286 23.3186 3 0.0045529 -4.09981
8517 1 39.6633 24.2286 23.3186 3 0.0045529 -4.09981
8518 1 38.6386 24.2507 21.0019 3 0.00236274 -4.10559
8519 1 41.1114 24.2507 21.0019 3 0.00236274 -4.10559
8520 1 40.1197 24.275 18.6853 3 0.00186199 -4.11259
8521 1 42.5925 24.275 18.6853 3 0.00186199 -4.11259
8522 1 41.6363 24.2854 16.3584 3 0.00101185 -4.11517
8523 1 44.1091 24.2854 16.3584 3 0.00101185 -4.11517
8524 1 43.175 24.2879 14.0248 3 0.000482604 -4.11663
8525 1 45.6478 24.2879 14.0248 3 0.000482604 -4.11663
8526 1 44.7262 24.2874 11.6882 3 0.000260539 -4.11759
8527 1 47.199 24.2874 11.6882 3 0.000260539 -4.11759
8528 1 46.2846 24.2858 9.35054 3 0.000164011 -4.11823
8529 1 48.7574 24.2858 9.35054 3 0.000164011 -4.11823
8530 1 47.8472 24.2841 7.01272 3 0.000116216 -4.11866
8531 1 50.32 24.2841 7.01272 3 0.000116216 -4.11866
8532 1 49.4125 24.2827 4.67502 3 9.09683e-05 -4.11894
8533 1 51.8852 24.2827 4.67502 3 9.09683e-05 -4.11894
8534 1 50.9792 24.2818 2.33746 3 7.83887e-05 -4.11909
8535 1 53.452 24.2818 2.33746 3 7.83887e-05 -4.11909
8536 1 52.5467 24.2815 7.94007e-09 3 7.45992e-05 -4.11914
8537 1 55.0194 24.2815 7.93511e-09 3 7.45992e-05 -4.11914
8538 1 23.6542 22.261 47.7898 3 5.81635e-05 -4.11867
8539 1 26.127 22.261 47.7898 3 5.81635e-05 -4.11867
8540 1 25.2157 22.2615 45.4521 3 6.41046e-05 -4.11857
8541 1 27.6885 22.2615 45.4521 3 6.41046e-05 -4.11857
8542 1 26.776 22.2625 43.1146 3 7.79181e-05 -4.11836
8543 1 29.2488 22.2625 43.1146 3 7.79181e-05 -4.11836
8544 1 28.334 22.2637 40.7772 3 0.000104555 -4.11804
8545 1 30.8068 22.2637 40.7772 3 0.000104555 -4.11804
8546 1 29.8883 22.2646 38.4403 3 0.000157093 -4.11755
8547 1 32.3611 22.2646 38.4403 3 0.000157093 -4.11755
8548 1 31.4365 22.2642 36.1048 3 0.000266142 -4.11685
8549 1 33.9092 22.2642 36.1048 3 0.000266142 -4.11685
8550 1 32.9748 22.2608 33.7722 3 0.000471623 -4.11582
8551 1 35.4475 22.2608 33.7722 3 0.000471623 -4.11582
8552 1 34.4973 22.2512 31.4446 3 0.000701874 -4.11412
8553 1 36.9701 22.2512 31.4446 3 0.000701874 -4.11412
8554 1 35.9979 22.2327 29.1232 3 0.000811247 -4.11062
8555 1 38.4706 22.2327 29.1232 3 0.000811247 -4.11062
8556 1 37.4781 22.2131 26.8028 3 0.00142287 -4.10738
8557 1 39.9509 22.2131 26.8028 3 0.00142287 -4.10738
8558 1 38.9463 22.2049 24.4793 3 0.00172072 -4.10623
8559 1 41.4191 22.2049 24.4793 3 0.00172072 -4.10623
8560 1 40.4146 22.2131 22.1558 3 0.00142287 -4.10738
8561 1 42.8874 22.2131 22.1558 3 0.00142287 -4.10738
8562 1 41.8948 22.2327 19.8354 3 0.000811247 -4.11062
8563 1 44.3676 22.2327 19.8354 3 0.000811247 -4.11062
8564 1 43.3954 22.2512 17.514 3 0.000701874 -4.11412
8565 1 45.8682 22.2512 17.514 3 0.000701874 -4.11412
8566 1 44.9179 22.2608 15.1864 3 0.000471623 -4.11582
8567 1 47.3907 22.2608 15.1864 3 0.000471623 -4.11582
8568 1 46.4562 22.2642 12.8538 3 0.000266141 -4.11685
8569 1 48.929 22.2642 12.8538 3 0.000266141 -4.11685
8570 1 48.0044 22.2646 10.5183 3 0.000157093 -4.11755
8571 1 50.4772 22.2646 10.5183 3 0.000157093 -4.11755
8572 1 49.5587 22.2637 8.18147 3 0.000104555 -4.11804
8573 1 52.0315 22.2637 8.18147 3 0.000104555 -4.11804
8574 1 51.1167 22.2625 5.84407 3 7.79181e-05 -4.11836
8575 1 53.5895 22.2625 5.84407 3 7.79181e-05 -4.11836
8576 1 52.677 22.2615 3.50648 3 6.41046e-05 -4.11857
8577 1 55.1498 22.2615 3.50648 3 6.41046e-05 -4.11857
8578 1 54.2385 22.261 1.16883 3 5.81635e-05 -4.11867
8579 1 56.7113 22.261 1.16883 3 5.81635e-05 -4.11867
8580 1 26.9029 20.2396 46.6214 3 4.80558e-05 -4.11824
8581 1 29.3757 20.2396 46.6214 3 4.80558e-05 -4.11824
8582 1 28.4589 20.2402 44.2843 3 5.54392e-05 -4.1181
8583 1 30.9317 20.2402 44.2843 3 5.54392e-05 -4.1181
8584 1 30.0131 20.2409 41.9475 3 7.05626e-05 -4.11786
8585 1 32.4859 20.2409 41.9475 3 7.05626e-05 -4.11786
8586 1 31.5642 20.2412 39.6115 3 9.97795e-05 -4.11749
8587 1 34.0369 20.2412 39.6115 3 9.97795e-05 -4.11749
8588 1 33.1102 20.2403 37.2769 3 0.000154051 -4.11696
8589 1 35.583 20.2403 37.2769 3 0.000154051 -4.11696
8590 1 34.6485 20.2367 34.9447 3 0.000237837 -4.1162
8591 1 37.1212 20.2367 34.9447 3 0.000237837 -4.1162
8592 1 36.1753 20.2283 32.6161 3 0.000309047 -4.11501
8593 1 38.6481 20.2283 32.6161 3 0.000309047 -4.11501
8594 1 37.6875 20.2138 30.2916 3 0.000342001 -4.11299
8595 1 40.1603 20.2138 30.2916 3 0.000342001 -4.11299
8596 1 39.1862 20.1974 27.9681 3 0.000541395 -4.11102
8597 1 41.6589 20.1974 27.9681 3 0.000541395 -4.11102
8598 1 40.6759 20.1865 25.6426 3 0.000695882 -4.1099
8599 1 43.1486 20.1865 25.6426 3 0.000695882 -4.1099
8600 1 42.1624 20.1865 23.316 3 0.000695882 -4.1099
8601 1 44.6352 20.1865 23.316 3 0.000695882 -4.1099
8602 1 43.6521 20.1974 20.9906 3 0.000541395 -4.11102
8603 1 46.1249 20.1974 20.9906 3 0.000541395 -4.11102
8604 1 45.1507 20.2138 18.667 3 0.000342001 -4.11299
8605 1 47.6235 20.2138 18.667 3 0.000342001 -4.11299
8606 1 46.6629 20.2283 16.3425 3 0.000309047 -4.11501
8607 1 49.1357 20.2283 16.3425 3 0.000309047 -4.11501
8608 1 48.1898 20.2367 14.014 3 0.000237836 -4.1162
8609 1 50.6626 20.2367 14.014 3 0.000237836 -4.1162
8610 1 49.7281 20.2403 11.6818 3 0.000154051 -4.11696
8611 1 52.2009 20.2403 11.6818 3 0.000154051 -4.11696
8612 1 51.2741 20.2412 9.34714 3 9.97795e-05 -4.11749
8613 1 53.7469 20.2412 9.34714 3 9.97795e-05 -4.11749
8614 1 52.8251 20.2409 7.01111 3 7.05627e-05 -4.11786
8615 1 55.2979 20.2409 7.01111 3 7.05627e-05 -4.11786
8616 1 54.3793 20.2402 4.67436 3 5.54392e-05 -4.1181
8617 1 56.8521 20.2402 4.67436 3 5.54392e-05 -4.1181
8618 1 55.9353 20.2396 2.33725 3 4.80558e-05 -4.11824
8619 1 58.4081 20.2396 2.33725 3 4.80558e-05 -4.11824
8620 1 57.4922 20.2394 7.64032e-09 3 4.58252e-05 -4.11829
8621 1 59.965 20.2394 7.64538e-09 3 4.58252e-05 -4.11829
8622 1 28.5952 18.2167 47.7904 3 3.80993e-05 -4.11796
8623 1 31.0679 18.2167 47.7904 3 3.80993e-05 -4.11796
8624 1 30.1474 18.2169 45.454 3 4.16723e-05 -4.11787
8625 1 32.6202 18.2169 45.454 3 4.16723e-05 -4.11787
8626 1 31.6982 18.2172 43.1181 3 4.99255e-05 -4.1177
8627 1 34.171 18.2172 43.1181 3 4.99255e-05 -4.1177
8628 1 33.2465 18.2172 40.7829 3 6.57171e-05 -4.11742
8629 1 35.7193 18.2172 40.7829 3 6.57171e-05 -4.11742
8630 1 34.7908 18.216 38.4489 3 9.22624e-05 -4.11701
8631 1 37.2636 18.216 38.4489 3 9.22624e-05 -4.11701
8632 1 36.3291 18.2126 36.1169 3 0.000127291 -4.11643
8633 1 38.8018 18.2126 36.1169 3 0.000127291 -4.11643
8634 1 37.8589 18.2056 33.7876 3 0.000151781 -4.11557
8635 1 40.3317 18.2056 33.7876 3 0.000151781 -4.11557
8636 1 39.3785 18.1942 31.4609 3 0.000165317 -4.11428
8637 1 41.8513 18.1942 31.4609 3 0.000165317 -4.11428
8638 1 40.8886 18.1808 29.135 3 0.000239462 -4.11297
8639 1 43.3614 18.1808 29.135 3 0.000239462 -4.11297
8640 1 42.3919 18.1699 26.8079 3 0.000309455 -4.11207
8641 1 44.8647 18.1699 26.8079 3 0.000309455 -4.11207
8642 1 43.8919 18.1658 24.4793 3 0.000334306 -4.11174
8643 1 46.3647 18.1658 24.4793 3 0.000334306 -4.11174
8644 1 45.3919 18.1699 22.1507 3 0.000309455 -4.11207
8645 1 47.8647 18.1699 22.1507 3 0.000309455 -4.11207
8646 1 46.8952 18.1808 19.8236 3 0.000239462 -4.11297
8647 1 49.368 18.1808 19.8236 3 0.000239462 -4.11297
8648 1 48.4053 18.1942 17.4978 3 0.000165317 -4.11428
8649 1 50.8781 18.1942 17.4978 3 0.000165317 -4.11428
8650 1 49.9249 18.2056 15.171 3 0.000151781 -4.11557
8651 1 52.3977 18.2056 15.171 3 0.000151781 -4.11557
8652 1 51.4548 18.2126 12.8417 3 0.000127292 -4.11643
8653 1 53.9276 18.2126 12.8417 3 0.000127292 -4.11643
8654 1 52.993 18.216 10.5097 3 9.22624e-05 -4.11701
8655 1 55.4658 18.216 10.5097 3 9.22624e-05 -4.11701
8656 1 54.5373 18.2172 8.17577 3 6.57171e-05 -4.11742
8657 1 57.0101 18.2172 8.17577 3 6.57171e-05 -4.11742
8658 1 56.0856 18.2172 5.84054 3 4.99255e-05 -4.1177
8659 1 58.5584 18.2172 5.84054 3 4.99255e-05 -4.1177
8660 1 57.6365 18.2169 3.50458 3 4.16723e-05 -4.11787
8661 1 60.1092 18.2169 3.50458 3 4.16723e-05 -4.11787
8662 1 59.1887 18.2167 1.16823 3 3.80993e-05 -4.11796
8663 1 61.6615 18.2167 1.16823 3 3.80993e-05 -4.11796
8664 1 31.8403 16.1927 46.6232 3 3.25865e-05 -4.11766
8665 1 34.3131 16.1927 46.6232 3 3.25865e-05 -4.11766
8666 1 33.3882 16.1928 44.2882 3 3.6577e-05 -4.11754
8667 1 35.8609 16.1928 44.2882 3 3.6577e-05 -4.11754
8668 1 34.934 16.1925 41.9537 3 4.43745e-05 -4.11733
8669 1 37.4068 16.1925 41.9537 3 4.43745e-05 -4.11733
8670 1 36.4768 16.1913 39.6204 3 5.67156e-05 -4.11702
8671 1 38.9496 16.1913 39.6204 3 5.67156e-05 -4.11702
8672 1 38.0149 16.1884 37.2886 3 7.14129e-05 -4.11657
8673 1 40.4876 16.1884 37.2886 3 7.14129e-05 -4.11657
8674 1 39.5467 16.1827 34.9586 3 8.10424e-05 -4.11593
8675 1 42.0195 16.1827 34.9586 3 8.10424e-05 -4.11593
8676 1 41.0712 16.174 32.6304 3 8.87972e-05 -4.11504
8677 1 43.544 16.174 32.6304 3 8.87972e-05 -4.11504
8678 1 42.5887 16.1633 30.3028 3 0.000119747 -4.11412
8679 1 45.0615 16.1633 30.3028 3 0.000119747 -4.11412
8680 1 44.101 16.1536 27.9744 3 0.000151325 -4.1134
8681 1 46.5738 16.1536 27.9744 3 0.000151325 -4.1134
8682 1 45.6104 16.1478 25.6446 3 0.000163251 -4.11301
8683 1 48.0832 16.1478 25.6446 3 0.000163251 -4.11301
8684 1 47.119 16.1478 23.3141 3 0.000163251 -4.11301
8685 1 49.5917 16.1478 23.3141 3 0.000163251 -4.11301
8686 1 48.6284 16.1536 20.9843 3 0.000151325 -4.1134
8687 1 51.1012 16.1536 20.9843 3 0.000151325 -4.1134
8688 1 50.1407 16.1633 18.6558 3 0.000119747 -4.11412
8689 1 52.6135 16.1633 18.6558 3 0.000119747 -4.11412
8690 1 51.6582 16.174 16.3282 3 8.87972e-05 -4.11504
8691 1 54.131 16.174 16.3282 3 8.87972e-05 -4.11504
8692 1 53.1827 16.1827 14 3 8.10424e-05 -4.11593
8693 1 55.6555 16.1827 14 3 8.10424e-05 -4.11593
8694 1 54.7145 16.1884 11.6701 3 7.1413e-05 -4.11657
8695 1 57.1873 16.1884 11.6701 3 7.1413e-05 -4.11657
8696 1 56.2526 16.1913 9.33825 3 5.67156e-05 -4.11702
8697 1 58.7254 16.1913 9.33825 3 5.67156e-05 -4.11702
8698 1 57.7954 16.1925 7.00489 3 4.43745e-05 -4.11733
8699 1 60.2681 16.1925 7.00489 3 4.43745e-05 -4.11733
8700 1 59.3412 16.1928 4.67046 3 3.6577e-05 -4.11754
8701 1 61.814 16.1928 4.67046 3 3.6577e-05 -4.11754
8702 1 60.8891 16.1927 2.33538 3 3.25865e-05 -4.11766
8703 1 33.5371 14.1675 47.7915 3 2.60015e-05 -4.11745
8704 1 36.0099 14.1675 47.7915 3 2.60015e-05 -4.11745
8705 1 35.0821 14.1674 45.4574 3 2.74318e-05 -4.11738
8706 1 37.5549 14.1674 45.4574 3 2.74318e-05 -4.11738
8707 1 36.6257 14.167 43.1237 3 3.05819e-05 -4.11723
8708 1 39.0985 14.167 43.1237 3 3.05819e-05 -4.11723
8709 1 38.167 14.166 40.7909 3 3.56114e-05 -4.11699
8710 1 40.6398 14.166 40.7909 3 3.56114e-05 -4.11699
8711 1 39.7048 14.1636 38.4592 3 4.15637e-05 -4.11665
8712 1 42.1776 14.1636 38.4592 3 4.15637e-05 -4.11665
8713 1 41.2379 14.1593 36.1289 3 4.62847e-05 -4.11616
8714 1 43.7106 14.1593 36.1289 3 4.62847e-05 -4.11616
8715 1 42.7656 14.1528 33.7998 3 5.23261e-05 -4.11553
8716 1 45.2383 14.1528 33.7998 3 5.23261e-05 -4.11553
8717 1 44.2881 14.1447 31.471 3 6.74147e-05 -4.11484
8718 1 46.7608 14.1447 31.471 3 6.74147e-05 -4.11484
8719 1 45.8066 14.1367 29.1415 3 8.12689e-05 -4.11426
8720 1 48.2793 14.1367 29.1415 3 8.12689e-05 -4.11426
8721 1 47.3226 14.1309 26.8109 3 8.36351e-05 -4.11388
8722 1 49.7954 14.1309 26.8109 3 8.36351e-05 -4.11388
8723 1 48.8375 14.1288 24.4793 3 8.17936e-05 -4.11375
8724 1 51.3103 14.1288 24.4793 3 8.17936e-05 -4.11375
8725 1 50.3524 14.1309 22.1477 3 8.36351e-05 -4.11388
8726 1 52.8252 14.1309 22.1477 3 8.36351e-05 -4.11388
8727 1 51.8684 14.1367 19.8171 3 8.12689e-05 -4.11426
8728 1 54.3412 14.1367 19.8171 3 8.12689e-05 -4.11426
8729 1 53.3869 14.1447 17.4876 3 6.74147e-05 -4.11484
8730 1 55.8597 14.1447 17.4876 3 6.74147e-05 -4.11484
8731 1 54.9094 14.1528 15.1588 3 5.23261e-05 -4.11553
8732 1 57.3822 14.1528 15.1588 3 5.23261e-05 -4.11553
8733 1 56.4371 14.1593 12.8297 3 4.62847e-05 -4.11616
8734 1 58.9099 14.1593 12.8297 3 4.62847e-05 -4.11616
8735 1 57.9702 14.1636 10.4994 3 4.15638e-05 -4.11665
8736 1 60.443 14.1636 10.4994 3 4.15638e-05 -4.11665
8737 1 59.508 14.166 8.16773 3 3.56115e-05 -4.11699
8738 1 61.9807 14.166 8.16773 3 3.56115e-05 -4.11699
8739 1 61.0492 14.167 5.83492 3 3.05818e-05 -4.11723
8740 1 36.7795 12.1411 46.6254 3 2.08718e-05 -4.11721
8741 1 39.2522 12.1411 46.6254 3 2.08718e-05 -4.11721
8742 1 38.3209 12.1407 44.2926 3 2.14783e-05 -4.11711
8743 1 40.7937 12.1407 44.2926 3 2.14783e-05 -4.11711
8744 1 39.8607 12.1399 41.9603 3 2.27765e-05 -4.11694
8745 1 42.3335 12.1399 41.9603 3 2.27765e-05 -4.11694
8746 1 41.398 12.1382 39.6288 3 2.48704e-05 -4.11668
8747 1 43.8708 12.1382 39.6288 3 2.48704e-05 -4.11668
8748 1 42.9318 12.1352 37.2983 3 2.80027e-05 -4.11632
8749 1 45.4046 12.1352 37.2983 3 2.80027e-05 -4.11632
8750 1 44.4616 12.1306 34.9685 3 3.3698e-05 -4.11585
8751 1 46.9344 12.1306 34.9685 3 3.3698e-05 -4.11585
8752 1 45.9876 12.1249 32.6389 3 4.29304e-05 -4.11534
8753 1 48.4604 12.1249 32.6389 3 4.29304e-05 -4.11534
8754 1 47.5104 12.1189 30.3088 3 4.8972e-05 -4.11486
8755 1 49.9832 12.1189 30.3088 3 4.8972e-05 -4.11486
8756 1 49.0311 12.114 27.9776 3 4.63183e-05 -4.1145
8757 1 51.5039 12.114 27.9776 3 4.63183e-05 -4.1145
8758 1 50.5507 12.1112 25.6455 3 4.04781e-05 -4.11431
8759 1 53.0234 12.1112 25.6455 3 4.04781e-05 -4.11431
8760 1 52.0699 12.1112 23.3131 3 4.04781e-05 -4.11431
8761 1 54.5427 12.1112 23.3131 3 4.04781e-05 -4.11431
8762 1 53.5894 12.114 20.981 3 4.63183e-05 -4.1145
8763 1 56.0622 12.114 20.981 3 4.63182e-05 -4.1145
8764 1 55.1101 12.1189 18.6499 3 4.8972e-05 -4.11486
8765 1 57.5829 12.1189 18.6499 3 4.8972e-05 -4.11486
8766 1 56.6329 12.1249 16.3197 3 4.29304e-05 -4.11534
8767 1 59.1057 12.1249 16.3197 3 4.29304e-05 -4.11534
8768 1 58.1589 12.1306 13.9902 3 3.36981e-05 -4.11585
8769 1 60.6317 12.1306 13.9902 3 3.36981e-05 -4.11585
8770 1 59.6887 12.1352 11.6604 3 2.80028e-05 -4.11632
8771 1 62.1615 12.1352 11.6604 3 2.80028e-05 -4.11632
8772 1 61.2226 12.1382 9.32983 3 2.48705e-05 -4.11668
8773 1 38.4798 10.1138 47.7925 3 1.59529e-05 -4.11702
8774 1 40.9526 10.1138 47.7925 3 1.59529e-05 -4.11702
8775 1 40.0191 10.1136 45.4603 3 1.54783e-05 -4.11697
8776 1 42.4919 10.1136 45.4603 3 1.54783e-05 -4.11697
8777 1 41.5574 10.1131 43.1284 3 1.49876e-05 -4.11685
8778 1 44.0302 10.1131 43.1284 3 1.49876e-05 -4.11685
8779 1 43.0939 10.1119 40.7971 3 1.53535e-05 -4.11667
8780 1 45.5667 10.1119 40.7971 3 1.53535e-05 -4.11667
8781 1 44.628 10.1101 38.4664 3 1.79658e-05 -4.11641
8782 1 47.1008 10.1101 38.4664 3 1.79658e-05 -4.11641
8783 1 46.1593 10.1072 36.1361 3 2.37569e-05 -4.11607
8784 1 48.6321 10.1072 36.1361 3 2.37569e-05 -4.11607
8785 1 47.6877 10.1037 33.806 3 3.09937e-05 -4.11568
8786 1 50.1605 10.1037 33.806 3 3.09937e-05 -4.11568
8787 1 49.2136 10.0998 31.4755 3 3.39978e-05 -4.11529
8788 1 51.6864 10.0998 31.4755 3 3.39978e-05 -4.11529
8789 1 50.7376 10.0963 29.1441 3 2.94958e-05 -4.11497
8790 1 53.2104 10.0963 29.1441 3 2.94958e-05 -4.11497
8791 1 52.2606 10.0939 26.812 3 2.15714e-05 -4.11475
8792 1 54.7334 10.0939 26.812 3 2.15714e-05 -4.11475
8793 1 53.7831 10.0931 24.4793 3 1.77539e-05 -4.11468
8794 1 56.2558 10.0931 24.4793 3 1.77539e-05 -4.11468
8795 1 55.3055 10.0939 22.1466 3 2.15714e-05 -4.11475
8796 1 57.7783 10.0939 22.1466 3 2.15714e-05 -4.11475
8797 1 56.8285 10.0963 19.8145 3 2.94958e-05 -4.11497
8798 1 59.3012 10.0963 19.8145 3 2.94958e-05 -4.11497
8799 1 58.3525 10.0998 17.4832 3 3.39978e-05 -4.11529
8800 1 60.8253 10.0998 17.4832 3 3.39978e-05 -4.11529
8801 1 59.8784 10.1037 15.1526 3 3.09937e-05 -4.11568
8802 1 62.3512 10.1037 15.1526 3 3.09937e-05 -4.11568
8803 1 61.4068 10.1072 12.8225 3 2.37569e-05 -4.11607
8804 1 41.7199 8.0857 46.627 3 1.16e-05 -4.11731
8805 1 44.1927 8.0857 46.627 3 1.16e-05 -4.11731
8806 1 43.2565 8.08542 44.2954 3 1.05633e-05 -4.11722
8807 1 45.7293 8.08542 44.2954 3 1.05633e-05 -4.11722
8808 1 44.7921 8.08489 41.9642 3 1.03532e-05 -4.11706
8809 1 47.2649 8.08489 41.9642 3 1.03533e-05 -4.11706
8810 1 46.3261 8.084 39.6332 3 1.28943e-05 -4.11683
8811 1 48.7989 8.084 39.6332 3 1.28943e-05 -4.11683
8812 1 47.8583 8.0827 37.3025 3 1.88848e-05 -4.11652
8813 1 50.3311 8.0827 37.3025 3 1.88848e-05 -4.11652
8814 1 49.3884 8.08102 34.9719 3 2.55864e-05 -4.11616
8815 1 51.8612 8.08102 34.9719 3 2.55864e-05 -4.11616
8816 1 50.9166 8.07917 32.641 3 2.77711e-05 -4.11577
8817 1 53.3894 8.07917 32.641 3 2.77711e-05 -4.11577
8818 1 52.4432 8.07741 30.3097 3 2.32113e-05 -4.11542
8819 1 54.916 8.07741 30.3097 3 2.32113e-05 -4.11542
8820 1 53.9687 8.07606 27.9778 3 1.53105e-05 -4.11515
8821 1 56.4415 8.07606 27.9778 3 1.53105e-05 -4.11515
8822 1 55.4935 8.07532 25.6455 3 9.6003e-06 -4.115
8823 1 57.9663 8.07532 25.6455 3 9.6003e-06 -4.115
8824 1 57.0181 8.07532 23.3131 3 9.6003e-06 -4.115
8825 1 59.4909 8.07532 23.3131 3 9.60026e-06 -4.115
8826 1 58.543 8.07606 20.9808 3 1.53104e-05 -4.11515
8827 1 61.0158 8.07606 20.9808 3 1.53105e-05 -4.11515
8828 1 60.0685 8.07741 18.6489 3 2.32112e-05 -4.11542
8829 1 62.5412 8.07741 18.6489 3 2.32112e-05 -4.11542
8830 1 61.5951 8.07917 16.3176 3 2.77711e-05 -4.11577
8831 1 43.423 6.05706 47.7929 3 0.000192152 -4.11661
8832 1 45.8958 6.05706 47.7929 3 0.000192152 -4.11661
8833 1 44.9579 6.05706 45.4616 3 0.000190055 -4.11656
8834 1 47.4307 6.05706 45.4616 3 0.000190055 -4.11656
8835 1 46.4922 6.05706 43.1302 3 0.000182135 -4.11648
8836 1 48.965 6.05706 43.1302 3 0.000182135 -4.11648
8837 1 48.0258 6.05706 40.7989 3 0.000163309 -4.11634
8838 1 50.4986 6.05706 40.7989 3 0.000163309 -4.11634
8839 1 49.5583 6.05706 38.4675 3 0.000131568 -4.11616
8840 1 52.0311 6.05706 38.4675 3 0.000131568 -4.11616
8841 1 51.0895 6.05706 36.1361 3 9.19266e-05 -4.11595
8842 1 53.5623 6.05706 36.1361 3 9.19266e-05 -4.11595
8843 1 52.6195 6.05706 33.8048 3 5.47059e-05 -4.11573
8844 1 55.0923 6.05706 33.8048 3 5.4706e-05 -4.11573
8845 1 54.1481 6.05706 31.4734 3 2.81608e-05 -4.11553
8846 1 56.6209 6.05706 31.4734 3 2.81608e-05 -4.11553
8847 1 55.6757 6.05706 29.142 3 1.34712e-05 -4.11537
8848 1 58.1485 6.05706 29.142 3 1.34713e-05 -4.11537
8849 1 57.2024 6.05706 26.8107 3 7.01599e-06 -4.11526
8850 1 59.6752 6.05706 26.8107 3 7.01598e-06 -4.11526
8851 1 58.7286 6.05706 24.4793 3 5.26909e-06 -4.11523
8852 1 61.2014 6.05706 24.4793 3 5.26906e-06 -4.11523
8853 1 60.2549 6.05706 22.1479 3 7.0161e-06 -4.11526
8854 1 62.7277 6.05706 22.1479 3 7.01614e-06 -4.11526
8855 1 61.7816 6.05706 19.8166 3 1.34715e-05 -4.11537
8856 1 46.6624 4.03804 46.6273 3 1.41684e-06 -4.11576
8857 1 49.1351 4.03804 46.6273 3 1.41686e-06 -4.11576
8858 1 48.1961 4.03804 44.2959 3 1.43103e-06 -4.11573
8859 1 50.6689 4.03804 44.2959 3 1.43101e-06 -4.11573
8860 1 49.7294 4.03804 41.9645 3 1.4541e-06 -4.11568
8861 1 52.2022 4.03804 41.9645 3 1.45409e-06 -4.11568
8862 1 51.2619 4.03804 39.6332 3 1.48585e-06 -4.11564
8863 1 53.7347 4.03804 39.6332 3 1.48585e-06 -4.11564
8864 1 52.7935 4.03804 37.3018 3 1.52673e-06 -4.11559
8865 1 55.2663 4.03804 37.3018 3 1.52673e-06 -4.11559
8866 1 54.3241 4.03804 34.9704 3 1.57731e-06 -4.11556
8867 1 56.7969 4.03804 34.9704 3 1.57732e-06 -4.11556
8868 1 55.8537 4.03804 32.6391 3 1.63654e-06 -4.11554
8869 1 58.3265 4.03804 32.6391 3 1.63654e-06 -4.11554
8870 1 57.3824 4.03804 30.3077 3 1.69894e-06 -4.11552
8871 1 59.8552 4.03804 30.3077 3 1.69894e-06 -4.11552
8872 1 58.9103 4.03804 27.9764 3 1.75328e-06 -4.11552
8873 1 61.3831 4.03804 27.9764 3 1.75327e-06 -4.11552
8874 1 60.4378 4.03804 25.645 3 1.78548e-06 -4.11551
8875 1 62.9106 4.03804 25.645 3 1.78548e-06 -4.11551
8876 1 61.965 4.03804 23.3136 3 1.78548e-06 -4.11551
8877 1 48.3678 2.01902 47.7929 3 8.63869e-07 -4.10005
8878 1 50.8405 2.01902 47.7929 3 8.63869e-07 -4.10005
8879 1 49.901 2.01902 45.4616 3 8.67515e-07 -4.10002
8880 1 52.3738 2.01902 45.4616 3 8.67536e-07 -4.10002
8881 1 51.4339 2.01902 43.1302 3 8.74829e-07 -4.09998
8882 1 53.9067 2.01902 43.1302 3 8.74814e-07 -4.09998
8883 1 52.9663 2.01902 40.7989 3 8.86011e-07 -4.09991
8884 1 55.4391 2.01902 40.7989 3 8.86012e-07 -4.09991
8885 1 54.4981 2.01902 38.4675 3 9.01634e-07 -4.09983
8886 1 56.9709 2.01902 38.4675 3 9.01619e-07 -4.09983
8887 1 56.0291 2.01902 36.1361 3 9.22398e-07 -4.09974
8888 1 58.5019 2.01902 36.1361 3 9.22383e-07 -4.09974
8889 1 57.5594 2.01902 33.8048 3 9.48463e-07 -4.09964
8890 1 60.0321 2.01902 33.8048 3 9.48475e-07 -4.09964
8891 1 59.0889 2.01902 31.4734 3 9.78204e-07 -4.09956
8892 1 61.5616 2.01902 31.4734 3 9.78189e-07 -4.09956
8893 1 60.6177 2.01902 29.142 3 1.00711e-06 -4.09949
8894 1 63.0905 2.01902 29.142 3 1.00712e-06 -4.09949
8895 1 62.1461 2.01902 26.8107 3 1.02868e-06 -4.09945
8896 1 51.6066 0 46.6273 5 6.02137 -3.54885
8897 1 54.0794 0 46.6273 5 6.02137 -3.54885
8898 1 53.1392 0 44.2959 5 6.02059 -3.54884
8899 1 55.612 0 44.2959 5 6.02059 -3.54884
8900 1 54.6714 0 41.9645 5 6.01984 -3.54882
8901 1 57.1442 0 41.9645 5 6.01984 -3.54882
8902 1 56.2032 0 39.6332 5 6.0192 -3.5488
8903 1 58.676 0 39.6332 5 6.0192 -3.5488
8904 1 57.7345 0 37.3018 5 6.01871 -3.54878
8905 1 60.2073 0 37.3018 5 6.01871 -3.54878
8906 1 59.2651 0 34.9704 5 6.01843 -3.54876
8907 1 61.7379 0 34.9704 5 6.01843 -3.54876
8908 1 60.7952 0 32.6391 5 6.01838 -3.54873
8909 1 63.268 0 32.6391 5 6.01838 -3.54873
8910 1 62.3247 0 30.3077 5 6.01858 -3.54871
8911 1 1.44669 62.5896 19.8166 5 12.2286 -3.54455
8912 1 0.624054 62.5896 17.4852 5 12.2265 -3.54458
8913 1 3.09684 62.5896 17.4852 5 12.2265 -3.54458
8914 1 2.27366 62.5896 15.1539 5 12.2239 -3.54461
8915 1 4.74644 62.5896 15.1539 5 12.2239 -3.54461
8916 1 3.92264 62.5896 12.8225 5 12.2233 -3.54464
8917 1 6.39542 62.5896 12.8225 5 12.2233 -3.54464
8918 1 5.57095 62.5896 10.4911 5 12.2231 -3.54468
8919 1 8.04374 62.5896 10.4911 5 12.2231 -3.54468
8920 1 7.21864 62.5896 8.15977 5 12.2235 -3.54471
8921 1 9.69142 62.5896 8.15977 5 12.2235 -3.54471
8922 1 8.86578 62.5896 5.82841 5 6.11184 -3.54474
8923 1 11.3386 62.5896 5.82841 5 6.11184 -3.54474
8924 1 10.5125 62.5896 3.49704 5 6.11233 -3.54476
8925 1 12.9853 62.5896 3.49704 5 6.11233 -3.54476
8926 1 12.1589 62.5896 1.16568 5 6.11303 -3.54477
8927 1 14.6317 62.5896 1.16568 5 6.11303 -3.54477
8928 1 1.44392 60.5706 23.3136 3 1.24004e-06 -4.10627
8929 1 0.622452 60.5706 20.9823 3 1.22039e-06 -4.1063
8930 1 3.09524 60.5706 20.9823 3 1.22039e-06 -4.1063
8931 1 2.27336 60.5706 18.6509 3 1.18713e-06 -4.10633
8932 1 4.74615 60.5706 18.6509 3 1.18715e-06 -4.10633
8933 1 3.92365 60.5706 16.3195 3 1.14887e-06 -4.10639
8934 1 6.39644 60.5706 16.3195 3 1.14889e-06 -4.10639
8935 1 5.57317 60.5706 13.9882 3 1.11275e-06 -4.10645
8936 1 8.04595 60.5706 13.9882 3 1.11277e-06 -4.10645
8937 1 7.22184 60.5706 11.6568 3 1.08244e-06 -4.10651
8938 1 9.69462 60.5706 11.6568 3 1.08242e-06 -4.10651
8939 1 8.86966 60.5706 9.32545 3 1.05864e-06 -4.10657
8940 1 11.3424 60.5706 9.32545 3 1.05864e-06 -4.10657
8941 1 10.5167 60.5706 6.99409 3 1.04076e-06 -4.10661
8942 1 12.9895 60.5706 6.99409 3 1.04077e-06 -4.10661
8943 1 12.1632 60.5706 4.66273 3 1.02813e-06 -4.10664
8944 1 14.6359 60.5706 4.66273 3 1.02815e-06 -4.10664
8945 1 13.8091 60.5706 2.33136 3 1.02056e-06 -4.10666
8946 1 16.2819 60.5706 2.33136 3 1.02054e-06 -4.10666
8947 1 15.4549 60.5706 0 3 1.01801e-06 -4.10667
8948 1 17.9277 60.5706 0 3 1.01799e-06 -4.10667
8949 1 1.43868 58.5516 26.8107 3 3.91933e-06 -4.12243
8950 1 0.618196 58.5516 24.4793 3 9.47293e-07 -4.12242
8951 1 3.09098 58.5516 24.4793 3 9.47301e-07 -4.12242
8952 1 2.2705 58.5516 22.1479 3 3.91912e-06 -4.12243
8953 1 4.74328 58.5516 22.1479 3 3.91908e-06 -4.12243
8954 1 3.92243 58.5516 19.8166 3 1.17349e-05 -4.12244
8955 1 6.39522 58.5516 19.8166 3 1.1735e-05 -4.12244
8956 1 5.57368 58.5516 17.4852 3 2.24522e-05 -4.12244
8957 1 8.04646 58.5516 17.4852 3 2.24521e-05 -4.12244
8958 1 7.22399 58.5516 15.1539 3 3.52549e-05 -4.12244
8959 1 9.69678 58.5516 15.1539 3 3.52548e-05 -4.12244
8960 1 8.87323 58.5516 12.8225 3 5.08313e-05 -4.12243
8961 1 11.346 58.5516 12.8225 3 5.08313e-05 -4.12243
8962 1 10.5214 58.5516 10.4911 3 6.97657e-05 -4.1224
8963 1 12.9941 58.5516 10.4911 3 6.97656e-05 -4.1224
8964 1 12.1685 58.5516 8.15977 3 9.07158e-05 -4.12237
8965 1 14.6412 58.5516 8.15977 3 9.07158e-05 -4.12237
8966 1 13.8146 58.5516 5.82841 3 0.000110457 -4.12234
8967 1 16.2874 58.5516 5.82841 3 0.000110457 -4.12234
8968 1 15.4601 58.5516 3.49704 3 0.000125533 -4.12231
8969 1 17.9329 58.5516 3.49704 3 0.000125533 -4.12231
8970 1 17.1052 58.5516 1.16568 3 0.000133584 -4.1223
8971 1 19.578 58.5516 1.16568 3 0.000133584 -4.1223
8972 1 1.43346 56.5336 30.3059 3 7.59862e-06 -4.1224
8973 1 0.612531 56.5327 27.9752 3 3.91338e-06 -4.12244
8974 1 3.08531 56.5327 27.9752 3 3.91337e-06 -4.12244
8975 1 2.26479 56.5323 25.6446 3 1.63777e-06 -4.12246
8976 1 4.73757 56.5323 25.6446 3 1.63777e-06 -4.12246
8977 1 3.91717 56.5323 23.3141 3 1.63777e-06 -4.12246
8978 1 6.38996 56.5323 23.3141 3 1.63778e-06 -4.12246
8979 1 5.56943 56.5327 20.9835 3 3.91337e-06 -4.12244
8980 1 8.04221 56.5327 20.9835 3 3.91338e-06 -4.12244
8981 1 7.22128 56.5336 18.6527 3 7.59862e-06 -4.1224
8982 1 9.69406 56.5336 18.6527 3 7.59861e-06 -4.1224
8983 1 8.87244 56.5348 16.3216 3 1.11233e-05 -4.12233
8984 1 11.3452 56.5348 16.3216 3 1.11233e-05 -4.12233
8985 1 10.5227 56.5361 13.9902 3 1.27621e-05 -4.12223
8986 1 12.9955 56.5361 13.9902 3 1.27621e-05 -4.12223
8987 1 12.1717 56.5374 11.6586 3 1.18619e-05 -4.12212
8988 1 14.6445 56.5374 11.6586 3 1.18619e-05 -4.12212
8989 1 13.8196 56.5386 9.32688 3 9.06615e-06 -4.122
8990 1 16.2923 56.5386 9.32688 3 9.06614e-06 -4.122
8991 1 15.4661 56.5395 6.99509 3 5.88396e-06 -4.1219
8992 1 17.9389 56.5395 6.99509 3 5.88395e-06 -4.1219
8993 1 17.1116 56.5402 4.66334 3 3.49758e-06 -4.12182
8994 1 19.5844 56.5402 4.66334 3 3.49757e-06 -4.12182
8995 1 18.7562 56.5406 2.33165 3 2.19143e-06 -4.12177
8996 1 21.229 56.5406 2.33165 3 2.19145e-06 -4.12177
8997 1 20.4005 56.5407 48.9586 3 1.81017e-06 -4.12175
8998 1 22.8733 56.5407 48.9586 3 1.81015e-06 -4.12175
8999 1 1.42755 54.5193 33.802 3 1.40704e-05 -4.12243
9000 1 0.606097 54.5166 31.4707 3 1.19593e-05 -4.12246
9001 1 3.07888 54.5166 31.4707 3 1.19593e-05 -4.12246
9002 1 2.25825 54.5144 29.1399 3 7.87667e-06 -4.12248
9003 1 4.73104 54.5144 29.1399 3 7.87667e-06 -4.12248
9004 1 3.9109 54.5129 26.8095 3 3.97123e-06 -4.12249
9005 1 6.38368 54.5129 26.8095 3 3.97123e-06 -4.12249
9006 1 5.56376 54.5124 24.4793 3 2.41598e-06 -4.12249
9007 1 8.03655 54.5124 24.4793 3 2.41598e-06 -4.12249
9008 1 7.21663 54.5129 22.1492 3 3.97123e-06 -4.12249
9009 1 9.68941 54.5129 22.1492 3 3.97123e-06 -4.12249
9010 1 8.86928 54.5144 19.8188 3 7.87666e-06 -4.12248
9011 1 11.3421 54.5144 19.8188 3 7.87666e-06 -4.12248
9012 1 10.5214 54.5166 17.4879 3 1.19593e-05 -4.12246
9013 1 12.9942 54.5166 17.4879 3 1.19593e-05 -4.12246
9014 1 12.1728 54.5193 15.1566 3 1.40704e-05 -4.12243
9015 1 14.6455 54.5193 15.1566 3 1.40704e-05 -4.12243
9016 1 13.8229 54.5221 12.8249 3 1.34554e-05 -4.12238
9017 1 16.2957 54.5221 12.8249 3 1.34554e-05 -4.12238
9018 1 15.4716 54.5247 10.493 3 1.0958e-05 -4.12232
9019 1 17.9444 54.5247 10.493 3 1.09581e-05 -4.12232
9020 1 17.1186 54.5268 8.16101 3 8.05887e-06 -4.12226
9021 1 19.5914 54.5268 8.16101 3 8.05887e-06 -4.12226
9022 1 18.7641 54.5283 5.82911 3 5.81593e-06 -4.12221
9023 1 21.2369 54.5283 5.82911 3 5.81593e-06 -4.12221
9024 1 20.4083 54.5293 3.49738 3 4.47753e-06 -4.12218
9025 1 22.8811 54.5293 3.49738 3 4.47753e-06 -4.12218
9026 1 22.0517 54.5298 1.16578 3 3.89996e-06 -4.12217
9027 1 24.5245 54.5298 1.16578 3 3.89996e-06 -4.12217
9028 1 1.42105 52.5098 37.3005 3 1.40121e-05 -4.12233
9029 1 0.598013 52.5057 34.9684 3 1.63502e-05 -4.12239
9030 1 3.0708 52.5057 34.9684 3 1.63502e-05 -4.12239
9031 1 2.24949 52.5014 32.6366 3 1.70391e-05 -4.12245
9032 1 4.72227 52.5014 32.6366 3 1.70391e-05 -4.12245
9033 1 3.90222 52.4973 30.3053 3 1.49964e-05 -4.12248
9034 1 6.375 52.4973 30.3053 3 1.49964e-05 -4.12248
9035 1 5.55571 52.4943 27.9746 3 1.09793e-05 -4.12249
9036 1 8.02849 52.4943 27.9746 3 1.09793e-05 -4.12249
9037 1 7.20956 52.4926 25.6444 3 7.73925e-06 -4.12249
9038 1 9.68235 52.4926 25.6444 3 7.73925e-06 -4.12249
9039 1 8.86353 52.4926 23.3143 3 7.73924e-06 -4.12249
9040 1 11.3363 52.4926 23.3143 3 7.73924e-06 -4.12249
9041 1 10.5174 52.4943 20.984 3 1.09792e-05 -4.12249
9042 1 12.9902 52.4943 20.984 3 1.09792e-05 -4.12249
9043 1 12.1709 52.4973 18.6533 3 1.49964e-05 -4.12248
9044 1 14.6437 52.4973 18.6533 3 1.49964e-05 -4.12248
9045 1 13.8236 52.5014 16.322 3 1.70391e-05 -4.12245
9046 1 16.2964 52.5014 16.322 3 1.70391e-05 -4.12245
9047 1 15.4751 52.5057 13.9902 3 1.63502e-05 -4.12239
9048 1 17.9479 52.5057 13.9902 3 1.63502e-05 -4.12239
9049 1 17.1248 52.5098 11.6581 3 1.40121e-05 -4.12233
9050 1 19.5976 52.5098 11.6581 3 1.40121e-05 -4.12233
9051 1 18.7725 52.5132 9.32602 3 1.15574e-05 -4.12226
9052 1 21.2453 52.5132 9.32602 3 1.15574e-05 -4.12226
9053 1 20.4181 52.5157 6.99411 3 9.67676e-06 -4.12221
9054 1 22.8909 52.5157 6.99411 3 9.67676e-06 -4.12221
9055 1 22.0619 52.5174 4.66251 3 8.29609e-06 -4.12218
9056 1 24.5347 52.5174 4.66251 3 8.29609e-06 -4.12218
9057 1 23.7043 52.5183 2.33117 3 7.52735e-06 -4.12216
9058 1 26.1771 52.5183 2.33117 3 7.52735e-06 -4.12216
9059 1 25.346 52.5186 48.9586 3 7.22158e-06 -4.12216
9060 1 27.8188 52.5186 48.9586 3 7.22158e-06 -4.12216
9061 1 1.41741 50.5023 40.8005 3 1.53589e-05 -4.1222
9062 1 0.590475 50.4987 38.4686 3 1.67305e-05 -4.12225
9063 1 3.06326 50.4987 38.4686 3 1.67305e-05 -4.12225
9064 1 2.2391 50.4938 36.1363 3 1.86664e-05 -4.12233
9065 1 4.71188 50.4938 36.1363 3 1.86664e-05 -4.12233
9066 1 3.8903 50.488 33.804 3 2.12611e-05 -4.12241
9067 1 6.36308 50.488 33.804 3 2.12611e-05 -4.12241
9068 1 5.54357 50.4822 31.472 3 2.30165e-05 -4.12246
9069 1 8.01635 50.4822 31.472 3 2.30165e-05 -4.12246
9070 1 7.19822 50.477 29.1406 3 2.21126e-05 -4.12249
9071 1 9.67101 50.477 29.1406 3 2.21126e-05 -4.12249
9072 1 8.85363 50.4735 26.8098 3 1.91502e-05 -4.1225
9073 1 11.3264 50.4735 26.8098 3 1.91502e-05 -4.1225
9074 1 10.5093 50.4723 24.4793 3 1.74186e-05 -4.1225
9075 1 12.9821 50.4723 24.4793 3 1.74186e-05 -4.1225
9076 1 12.165 50.4735 22.1489 3 1.91502e-05 -4.1225
9077 1 14.6378 50.4735 22.1489 3 1.91502e-05 -4.1225
9078 1 13.8204 50.477 19.818 3 2.21126e-05 -4.12249
9079 1 16.2932 50.477 19.818 3 2.21126e-05 -4.12249
9080 1 15.4751 50.4822 17.4866 3 2.30165e-05 -4.12246
9081 1 17.9479 50.4822 17.4866 3 2.30165e-05 -4.12246
9082 1 17.1284 50.488 15.1546 3 2.12611e-05 -4.12241
9083 1 19.6011 50.488 15.1546 3 2.12611e-05 -4.12241
9084 1 18.7796 50.4938 12.8223 3 1.86664e-05 -4.12233
9085 1 21.2523 50.4938 12.8223 3 1.86664e-05 -4.12233
9086 1 20.4282 50.4987 10.4901 3 1.67305e-05 -4.12225
9087 1 22.901 50.4987 10.4901 3 1.67305e-05 -4.12225
9088 1 22.074 50.5023 8.15817 3 1.53589e-05 -4.1222
9089 1 24.5468 50.5023 8.15817 3 1.53589e-05 -4.1222
9090 1 23.7174 50.5048 5.82678 3 1.38767e-05 -4.12217
9091 1 26.1902 50.5048 5.82678 3 1.38767e-05 -4.12217
9092 1 25.3588 50.5062 3.49585 3 1.26248e-05 -4.12216
9093 1 27.8315 50.5062 3.49585 3 1.26248e-05 -4.12216
9094 1 26.9989 50.5068 1.16525 3 1.18952e-05 -4.12215
9095 1 29.4717 50.5068 1.16525 3 1.18952e-05 -4.12215
9096 1 1.42144 48.4932 44.299 3 1.96273e-05 -4.12214
9097 1 0.588956 48.4913 41.9686 3 2.20453e-05 -4.12215
9098 1 3.06174 48.4913 41.9686 3 2.20453e-05 -4.12215
9099 1 2.23194 48.4881 39.6374 3 2.41335e-05 -4.12217
9100 1 4.70472 48.4881 39.6374 3 2.41335e-05 -4.12217
9101 1 3.8783 48.4832 37.3054 3 2.49439e-05 -4.12223
9102 1 6.35109 48.4832 37.3054 3 2.49439e-05 -4.12223
9103 1 5.52831 48.4767 34.9729 3 2.64238e-05 -4.12233
9104 1 8.00109 48.4767 34.9729 3 2.64238e-05 -4.12233
9105 1 7.18158 48.4693 32.6402 3 3.04308e-05 -4.12241
9106 1 9.65437 48.4693 32.6402 3 3.04308e-05 -4.12241
9107 1 8.83737 48.4619 30.3078 3 3.52972e-05 -4.12247
9108 1 11.3102 48.4619 30.3078 3 3.52972e-05 -4.12247
9109 1 10.4947 48.456 27.976 3 3.74501e-05 -4.1225
9110 1 12.9675 48.456 27.976 3 3.74501e-05 -4.1225
9111 1 12.1529 48.4526 25.6448 3 3.66337e-05 -4.12251
9112 1 14.6257 48.4526 25.6448 3 3.66337e-05 -4.12251
9113 1 13.8113 48.4526 23.3138 3 3.66337e-05 -4.12251
9114 1 16.2841 48.4526 23.3138 3 3.66337e-05 -4.12251
9115 1 15.4695 48.456 20.9826 3 3.745e-05 -4.1225
9116 1 17.9423 48.456 20.9826 3 3.745e-05 -4.1225
9117 1 17.1269 48.4619 18.6508 3 3.52972e-05 -4.12247
9118 1 19.5996 48.4619 18.6508 3 3.52972e-05 -4.12247
9119 1 18.7827 48.4693 16.3184 3 3.04307e-05 -4.12241
9120 1 21.2554 48.4693 16.3184 3 3.04307e-05 -4.12241
9121 1 20.4359 48.4767 13.9857 3 2.64237e-05 -4.12233
9122 1 22.9087 48.4767 13.9857 3 2.64237e-05 -4.12233
9123 1 22.0859 48.4832 11.6532 3 2.49439e-05 -4.12223
9124 1 24.5587 48.4832 11.6532 3 2.49439e-05 -4.12223
9125 1 23.7323 48.4881 9.32123 3 2.41335e-05 -4.12217
9126 1 26.2051 48.4881 9.32123 3 2.41335e-05 -4.12217
9127 1 25.3753 48.4913 6.99006 3 2.20453e-05 -4.12215
9128 1 27.8481 48.4913 6.99006 3 2.20453e-05 -4.12215
9129 1 27.0156 48.4932 4.6596 3 1.96273e-05 -4.12214
9130 1 29.4884 48.4932 4.6596 3 1.96273e-05 -4.12214
9131 1 28.654 48.4942 2.32967 3 1.78386e-05 -4.12214
9132 1 31.1268 48.4942 2.32967 3 1.78386e-05 -4.12214
9133 1 30.2916 48.4945 48.9586 3 1.72512e-05 -4.12214
9134 1 32.7644 48.4945 48.9586 3 1.72512e-05 -4.12214
9135 1 1.43553 46.4812 47.7943 3 2.36101e-05 -4.12212
9136 1 0.597894 46.4807 45.4655 3 2.56145e-05 -4.12212
9137 1 3.07068 46.4807 45.4655 3 2.56145e-05 -4.12212
9138 1 2.23453 46.4794 43.1363 3 2.95039e-05 -4.12211
9139 1 4.70731 46.4794 43.1363 3 2.95039e-05 -4.12211
9140 1 3.8737 46.4771 40.8063 3 3.46056e-05 -4.1221
9141 1 6.34649 46.4771 40.8063 3 3.46056e-05 -4.1221
9142 1 5.51648 46.4731 38.4753 3 3.8725e-05 -4.12212
9143 1 7.98927 46.4731 38.4753 3 3.8725e-05 -4.12212
9144 1 7.16376 46.467 36.1432 3 3.9276e-05 -4.12218
9145 1 9.63654 46.467 36.1432 3 3.9276e-05 -4.12218
9146 1 8.81585 46.4588 33.8101 3 4.07035e-05 -4.12231
9147 1 11.2886 46.4588 33.8101 3 4.07035e-05 -4.12231
9148 1 10.4721 46.4495 31.4768 3 4.82067e-05 -4.1224
9149 1 12.9449 46.4495 31.4768 3 4.82067e-05 -4.1224
9150 1 12.1315 46.4409 29.1438 3 6.04472e-05 -4.12248
9151 1 14.6043 46.4409 29.1438 3 6.04472e-05 -4.12248
9152 1 13.7928 46.4347 26.8113 3 6.90738e-05 -4.12252
9153 1 16.2656 46.4347 26.8113 3 6.90738e-05 -4.12252
9154 1 15.4549 46.4324 24.4793 3 7.12415e-05 -4.12253
9155 1 17.9277 46.4324 24.4793 3 7.12415e-05 -4.12253
9156 1 17.117 46.4347 22.1473 3 6.90738e-05 -4.12252
9157 1 19.5898 46.4347 22.1473 3 6.90738e-05 -4.12252
9158 1 18.7783 46.4409 19.8148 3 6.04472e-05 -4.12248
9159 1 21.2511 46.4409 19.8148 3 6.04472e-05 -4.12248
9160 1 20.4377 46.4495 17.4818 3 4.82066e-05 -4.1224
9161 1 22.9105 46.4495 17.4818 3 4.82066e-05 -4.1224
9162 1 22.0939 46.4588 15.1485 3 4.07035e-05 -4.12231
9163 1 24.5667 46.4588 15.1485 3 4.07035e-05 -4.12231
9164 1 23.746 46.467 12.8155 3 3.92759e-05 -4.12218
9165 1 26.2188 46.467 12.8155 3 3.92759e-05 -4.12218
9166 1 25.3933 46.4731 10.4833 3 3.8725e-05 -4.12212
9167 1 27.8661 46.4731 10.4833 3 3.8725e-05 -4.12212
9168 1 27.0361 46.4771 8.15231 3 3.46057e-05 -4.1221
9169 1 29.5089 46.4771 8.15231 3 3.46057e-05 -4.1221
9170 1 28.6753 46.4794 5.82233 3 2.95039e-05 -4.12211
9171 1 31.1481 46.4794 5.82233 3 2.95039e-05 -4.12211
9172 1 30.3119 46.4807 3.4931 3 2.56145e-05 -4.12212
9173 1 32.7847 46.4807 3.4931 3 2.56145e-05 -4.12212
9174 1 31.9471 46.4812 1.16432 3 2.36101e-05 -4.12212
9175 1 34.4198 46.4812 1.16432 3 2.36101e-05 -4.12212
9176 1 2.24971 44.4667 46.631 3 3.16705e-05 -4.12209
9177 1 4.72249 44.4667 46.631 3 3.16705e-05 -4.12209
9178 1 3.88224 44.4662 44.3031 3 3.62616e-05 -4.12207
9179 1 6.35502 44.4662 44.3031 3 3.62616e-05 -4.12207
9180 1 5.5169 44.4648 41.9745 3 4.42897e-05 -4.12205
9181 1 7.98968 44.4648 41.9745 3 4.42897e-05 -4.12205
9182 1 7.15493 44.4622 39.645 3 5.52161e-05 -4.12202
9183 1 9.62771 44.4622 39.645 3 5.52161e-05 -4.12202
9184 1 8.79771 44.4575 37.3141 3 6.50011e-05 -4.12201
9185 1 11.2705 44.4575 37.3141 3 6.50011e-05 -4.12201
9186 1 10.4465 44.4501 34.9816 3 6.6379e-05 -4.12208
9187 1 12.9193 44.4501 34.9816 3 6.6379e-05 -4.12208
9188 1 12.1018 44.44 32.6477 3 6.90114e-05 -4.12229
9189 1 14.5746 44.44 32.6477 3 6.90114e-05 -4.12229
9190 1 13.7624 44.429 30.3136 3 8.3298e-05 -4.12236
9191 1 16.2352 44.429 30.3136 3 8.3298e-05 -4.12236
9192 1 15.427 44.4195 27.9795 3 0.000113302 -4.12248
9193 1 17.8998 44.4195 27.9795 3 0.000113302 -4.12248
9194 1 17.0939 44.4138 25.646 3 0.000134837 -4.12254
9195 1 19.5667 44.4138 25.646 3 0.000134837 -4.12254
9196 1 18.7615 44.4138 23.3127 3 0.000134837 -4.12254
9197 1 21.2343 44.4138 23.3127 3 0.000134837 -4.12254
9198 1 20.4284 44.4195 20.9791 3 0.000113302 -4.12248
9199 1 22.9012 44.4195 20.9791 3 0.000113302 -4.12248
9200 1 22.093 44.429 18.6451 3 8.3298e-05 -4.12236
9201 1 24.5658 44.429 18.6451 3 8.3298e-05 -4.12236
9202 1 23.7536 44.44 16.3109 3 6.90114e-05 -4.12229
9203 1 26.2264 44.44 16.3109 3 6.90114e-05 -4.12229
9204 1 25.4089 44.4501 13.9771 3 6.6379e-05 -4.12208
9205 1 27.8816 44.4501 13.9771 3 6.6379e-05 -4.12208
9206 1 27.0577 44.4575 11.6445 3 6.50011e-05 -4.12201
9207 1 29.5304 44.4575 11.6445 3 6.50011e-05 -4.12201
9208 1 28.7004 44.4622 9.31364 3 5.52162e-05 -4.12202
9209 1 31.1732 44.4622 9.31364 3 5.52162e-05 -4.12202
9210 1 30.3385 44.4648 6.9841 3 4.42897e-05 -4.12205
9211 1 32.8113 44.4648 6.9841 3 4.42897e-05 -4.12205
9212 1 31.9731 44.4662 4.65555 3 3.62616e-05 -4.12207
9213 1 34.4459 44.4662 4.65555 3 3.62616e-05 -4.12207
9214 1 33.6057 44.4667 2.32763 3 3.16705e-05 -4.12209
9215 1 36.0784 44.4667 2.32763 3 3.16705e-05 -4.12209
9216 1 35.2372 44.4669 48.9586 3 3.02465e-05 -4.1221
9217 1 37.71 44.4669 48.9586 3 3.02465e-05 -4.1221
9218 1 3.90476 42.4514 47.7953 3 3.88216e-05 -4.12204
9219 1 6.37755 42.4514 47.7953 3 3.88216e-05 -4.12204
9220 1 5.53284 42.4513 45.4685 3 4.29685e-05 -4.12203
9221 1 8.00562 42.4513 45.4685 3 4.29685e-05 -4.12203
9222 1 7.16249 42.4508 43.1414 3 5.21401e-05 -4.122
9223 1 9.63528 42.4508 43.1414 3 5.21401e-05 -4.122
9224 1 8.79498 42.4495 40.8135 3 6.79327e-05 -4.12195
9225 1 11.2678 42.4495 40.8135 3 6.79327e-05 -4.12195
9226 1 10.4318 42.4468 38.4844 3 9.11994e-05 -4.12188
9227 1 12.9046 42.4468 38.4844 3 9.11994e-05 -4.12188
9228 1 12.0749 42.4416 36.1535 3 0.000115746 -4.12183
9229 1 14.5477 42.4416 36.1535 3 0.000115746 -4.12183
9230 1 13.7261 42.4328 33.8204 3 0.000121899 -4.12189
9231 1 16.1989 42.4328 33.8204 3 0.000121899 -4.12189
9232 1 15.3863 42.4205 31.4854 3 0.000131069 -4.12226
9233 1 17.8591 42.4205 31.4854 3 0.000131069 -4.12226
9234 1 17.0532 42.408 29.1501 3 0.000154237 -4.12225
9235 1 19.526 42.408 29.1501 3 0.000154237 -4.12225
9236 1 18.7255 42.3982 26.8146 3 0.000231706 -4.12249
9237 1 21.1982 42.3982 26.8146 3 0.000231706 -4.12249
9238 1 20.4005 42.3944 24.4793 3 0.00027212 -4.12258
9239 1 22.8733 42.3944 24.4793 3 0.00027212 -4.12258
9240 1 22.0755 42.3982 22.144 3 0.000231706 -4.12249
9241 1 24.5483 42.3982 22.144 3 0.000231706 -4.12249
9242 1 23.7477 42.408 19.8085 3 0.000154237 -4.12225
9243 1 26.2205 42.408 19.8085 3 0.000154237 -4.12225
9244 1 25.4147 42.4205 17.4732 3 0.000131069 -4.12226
9245 1 27.8874 42.4205 17.4732 3 0.000131069 -4.12226
9246 1 27.0748 42.4328 15.1382 3 0.000121899 -4.12189
9247 1 29.5476 42.4328 15.1382 3 0.000121899 -4.12189
9248 1 28.726 42.4416 12.8051 3 0.000115746 -4.12183
9249 1 31.1988 42.4416 12.8051 3 0.000115746 -4.12183
9250 1 30.3691 42.4468 10.4743 3 9.11994e-05 -4.12188
9251 1 32.8419 42.4468 10.4743 3 9.11994e-05 -4.12188
9252 1 32.006 42.4495 8.14516 3 6.79327e-05 -4.12195
9253 1 34.4787 42.4495 8.14516 3 6.79327e-05 -4.12195
9254 1 33.6384 42.4508 5.81726 3 5.21401e-05 -4.122
9255 1 36.1112 42.4508 5.81726 3 5.21401e-05 -4.122
9256 1 35.2681 42.4513 3.4901 3 4.29685e-05 -4.12203
9257 1 37.7409 42.4513 3.4901 3 4.29685e-05 -4.12203
9258 1 36.8962 42.4514 1.16333 3 3.88216e-05 -4.12204
9259 1 39.369 42.4514 1.16333 3 3.88216e-05 -4.12204
9260 1 7.18701 40.4348 46.6326 3 5.18024e-05 -4.12196
9261 1 9.6598 40.4348 46.6326 3 5.18024e-05 -4.12196
9262 1 8.81127 40.4348 44.3065 3 6.06629e-05 -4.12193
9263 1 11.2841 40.4348 44.3065 3 6.06629e-05 -4.12193
9264 1 10.4377 40.4346 41.9799 3 7.80201e-05 -4.12187
9265 1 12.9105 40.4346 41.9799 3 7.80201e-05 -4.12187
9266 1 12.0677 40.4336 39.6526 3 0.000108536 -4.12178
9267 1 14.5405 40.4336 39.6526 3 0.000108536 -4.12178
9268 1 13.7033 40.431 37.324 3 0.000158298 -4.12165
9269 1 16.1761 40.431 37.324 3 0.000158298 -4.12165
9270 1 15.347 40.4256 34.9932 3 0.000221815 -4.1215
9271 1 17.8198 40.4256 34.9932 3 0.000221815 -4.1215
9272 1 17.002 40.4155 32.6594 3 0.000248953 -4.12152
9273 1 19.4748 40.4155 32.6594 3 0.000248953 -4.12152
9274 1 18.6697 40.4005 30.3228 3 0.000290858 -4.12227
9275 1 21.1425 40.4005 30.3228 3 0.000290858 -4.12227
9276 1 20.3461 40.3872 27.9861 3 0.000307363 -4.122
9277 1 22.8189 40.3872 27.9861 3 0.000307363 -4.122
9278 1 22.0299 40.3784 25.6483 3 0.000523821 -4.12257
9279 1 24.5027 40.3784 25.6483 3 0.000523821 -4.12257
9280 1 23.7166 40.3784 23.3103 3 0.000523821 -4.12257
9281 1 26.1894 40.3784 23.3103 3 0.000523821 -4.12257
9282 1 25.4004 40.3872 20.9725 3 0.000307363 -4.122
9283 1 27.8732 40.3872 20.9725 3 0.000307363 -4.122
9284 1 27.0768 40.4005 18.6358 3 0.000290858 -4.12227
9285 1 29.5496 40.4005 18.6358 3 0.000290858 -4.12227
9286 1 28.7445 40.4155 16.2992 3 0.000248953 -4.12152
9287 1 31.2173 40.4155 16.2992 3 0.000248953 -4.12152
9288 1 30.3995 40.4256 13.9654 3 0.000221816 -4.1215
9289 1 32.8723 40.4256 13.9654 3 0.000221816 -4.1215
9290 1 32.0432 40.431 11.6346 3 0.000158298 -4.12165
9291 1 34.516 40.431 11.6346 3 0.000158298 -4.12165
9292 1 33.6788 40.4336 9.306 3 0.000108536 -4.12178
9293 1 36.1516 40.4336 9.306 3 0.000108536 -4.12178
9294 1 35.3088 40.4346 6.97871 3 7.80201e-05 -4.12187
9295 1 37.7816 40.4346 6.97871 3 7.80201e-05 -4.12187
9296 1 36.9352 40.4348 4.65217 3 6.06629e-05 -4.12193
9297 1 39.408 40.4348 4.65217 3 6.06629e-05 -4.12193
9298 1 38.5595 40.4348 2.326 3 5.18024e-05 -4.12196
9299 1 41.0323 40.4348 2.326 3 5.18024e-05 -4.12196
9300 1 40.1827 40.4348 48.9586 3 4.90573e-05 -4.12197
9301 1 42.6555 40.4348 48.9586 3 4.90573e-05 -4.12197
9302 1 8.84552 38.4171 47.7957 3 6.55492e-05 -4.12185
9303 1 11.3183 38.4171 47.7957 3 6.55492e-05 -4.12185
9304 1 10.4639 38.4173 45.4699 3 7.3238e-05 -4.12182
9305 1 12.9367 38.4173 45.4699 3 7.3238e-05 -4.12182
9306 1 12.0838 38.4176 43.144 3 9.07642e-05 -4.12177
9307 1 14.5566 38.4176 43.144 3 9.07642e-05 -4.12177
9308 1 13.7065 38.4177 40.8179 3 0.00012367 -4.12167
9309 1 16.1792 38.4177 40.8179 3 0.00012367 -4.12167
9310 1 15.3335 38.4172 38.4912 3 0.000183731 -4.12151
9311 1 17.8063 38.4172 38.4912 3 0.000183731 -4.12151
9312 1 16.9675 38.4151 36.1632 3 0.000293667 -4.12125
9313 1 19.4403 38.4151 36.1632 3 0.000293667 -4.12125
9314 1 18.6123 38.4098 33.8328 3 0.000468568 -4.12089
9315 1 21.085 38.4098 33.8328 3 0.000468568 -4.12089
9316 1 20.273 38.3984 31.4983 3 0.00059098 -4.12071
9317 1 22.7458 38.3984 31.4983 3 0.00059098 -4.12071
9318 1 21.9532 38.3799 29.1594 3 0.000820378 -4.12241
9319 1 24.426 38.3799 29.1594 3 0.000820378 -4.12241
9320 1 23.644 38.3679 26.8212 3 0.000708783 -4.12138
9321 1 26.1168 38.3679 26.8212 3 0.000708783 -4.12138
9322 1 25.346 38.3626 24.4793 3 0.00124499 -4.12296
9323 1 27.8188 38.3626 24.4793 3 0.00124499 -4.12296
9324 1 27.048 38.3679 22.1374 3 0.000708783 -4.12138
9325 1 29.5208 38.3679 22.1374 3 0.000708783 -4.12138
9326 1 28.7389 38.3799 19.7992 3 0.000820378 -4.12241
9327 1 31.2117 38.3799 19.7992 3 0.000820378 -4.12241
9328 1 30.4191 38.3984 17.4603 3 0.00059098 -4.12071
9329 1 32.8919 38.3984 17.4603 3 0.00059098 -4.12071
9330 1 32.0798 38.4098 15.1259 3 0.000468568 -4.12089
9331 1 34.5526 38.4098 15.1259 3 0.000468568 -4.12089
9332 1 33.7246 38.4151 12.7954 3 0.000293667 -4.12125
9333 1 36.1974 38.4151 12.7954 3 0.000293667 -4.12125
9334 1 35.3586 38.4172 10.4675 3 0.000183731 -4.12151
9335 1 37.8313 38.4172 10.4675 3 0.000183731 -4.12151
9336 1 36.9856 38.4177 8.14077 3 0.00012367 -4.12167
9337 1 39.4584 38.4177 8.14077 3 0.00012367 -4.12167
9338 1 38.6082 38.4176 5.81463 3 9.07642e-05 -4.12177
9339 1 41.081 38.4176 5.81463 3 9.07642e-05 -4.12177
9340 1 40.2281 38.4173 3.48873 3 7.3238e-05 -4.12182
9341 1 42.7009 38.4173 3.48873 3 7.3238e-05 -4.12182
9342 1 41.8466 38.4171 1.16291 3 6.55492e-05 -4.12185
9343 1 44.3193 38.4171 1.16291 3 6.55492e-05 -4.12185
9344 1 12.1213 36.3986 46.6323 3 9.18568e-05 -4.12168
9345 1 14.5941 36.3986 46.6323 3 9.18568e-05 -4.12168
9346 1 13.7342 36.399 44.306 3 0.000108355 -4.12161
9347 1 16.207 36.399 44.306 3 0.000108355 -4.12161
9348 1 15.3489 36.3997 41.9799 3 0.000142159 -4.1215
9349 1 17.8217 36.3997 41.9799 3 0.000142159 -4.1215
9350 1 16.9668 36.4003 39.6538 3 0.000206701 -4.12131
9351 1 19.4396 36.4003 39.6538 3 0.000206701 -4.12131
9352 1 18.5899 36.4004 37.3276 3 0.000333509 -4.12101
9353 1 21.0627 36.4004 37.3276 3 0.000333509 -4.12101
9354 1 20.2215 36.3992 35.0006 3 0.000598223 -4.12049
9355 1 22.6943 36.3992 35.0006 3 0.000598223 -4.12049
9356 1 21.8673 36.3945 32.6711 3 0.00114061 -4.1196
9357 1 24.3401 36.3945 32.6711 3 0.00114061 -4.1196
9358 1 23.5369 36.3823 30.3364 3 0.00177736 -4.11866
9359 1 26.0097 36.3823 30.3364 3 0.00177736 -4.11866
9360 1 25.2396 36.3588 27.9942 3 0.00336124 -4.12315
9361 1 27.7124 36.3588 27.9942 3 0.00336124 -4.12315
9362 1 26.9539 36.3546 25.6544 3 0.00208926 -4.12065
9363 1 29.4267 36.3546 25.6544 3 0.00208926 -4.12065
9364 1 28.6837 36.3546 23.3043 3 0.00208926 -4.12065
9365 1 31.1565 36.3546 23.3043 3 0.00208926 -4.12065
9366 1 30.398 36.3588 20.9644 3 0.00336124 -4.12315
9367 1 32.8708 36.3588 20.9644 3 0.00336124 -4.12315
9368 1 32.1007 36.3823 18.6222 3 0.00177737 -4.11866
9369 1 34.5735 36.3823 18.6222 3 0.00177737 -4.11866
9370 1 33.7703 36.3945 16.2875 3 0.00114061 -4.1196
9371 1 36.2431 36.3945 16.2875 3 0.00114061 -4.1196
9372 1 35.4161 36.3992 13.9581 3 0.000598223 -4.12049
9373 1 37.8889 36.3992 13.9581 3 0.000598223 -4.12049
9374 1 37.0477 36.4004 11.631 3 0.00033351 -4.12101
9375 1 39.5205 36.4004 11.631 3 0.00033351 -4.12101
9376 1 38.6708 36.4003 9.30478 3 0.000206702 -4.12131
9377 1 41.1436 36.4003 9.30478 3 0.000206702 -4.12131
9378 1 40.2887 36.3997 6.97872 3 0.000142159 -4.1215
9379 1 42.7615 36.3997 6.97872 3 0.000142159 -4.1215
9380 1 41.9035 36.399 4.65258 3 0.000108355 -4.12161
9381 1 44.3762 36.399 4.65258 3 0.000108355 -4.12161
9382 1 43.5163 36.3986 2.32633 3 9.18568e-05 -4.12168
9383 1 45.9891 36.3986 2.32633 3 9.18568e-05 -4.12168
9384 1 45.1283 36.3984 2.28213e-09 3 8.69562e-05 -4.12169
9385 1 47.6011 36.3984 2.28827e-09 3 8.69562e-05 -4.12169
9386 1 13.7846 34.3792 47.7948 3 0.000115414 -4.12147
9387 1 16.2574 34.3792 47.7948 3 0.000115414 -4.12147
9388 1 15.3899 34.3796 45.4671 3 0.000127924 -4.12141
9389 1 17.8626 34.3796 45.4671 3 0.000127924 -4.12141
9390 1 16.9962 34.3803 43.1397 3 0.000158073 -4.12129
9391 1 19.469 34.3803 43.1397 3 0.000158073 -4.12129
9392 1 18.6045 34.3813 40.8125 3 0.000219406 -4.12107
9393 1 21.0772 34.3813 40.8125 3 0.000219406 -4.12107
9394 1 20.216 34.3823 38.4858 3 0.00034635 -4.12071
9395 1 22.6888 34.3823 38.4858 3 0.00034635 -4.12071
9396 1 21.8331 34.3831 36.1595 3 0.000630913 -4.12007
9397 1 24.3059 34.3831 36.1595 3 0.000630913 -4.12007
9398 1 23.4599 34.383 33.8334 3 0.00135468 -4.11886
9399 1 25.9327 34.383 33.8334 3 0.00135468 -4.11886
9400 1 25.105 34.3799 31.5058 3 0.00346241 -4.11633
9401 1 27.5778 34.3799 31.5058 3 0.00346241 -4.11633
9402 1 26.7881 34.3684 29.1724 3 0.00841238 -4.11182
9403 1 29.2608 34.3684 29.1724 3 0.00841238 -4.11182
9404 1 28.5413 34.339 26.8251 3 0.0361452 -4.12628
9405 1 31.0141 34.339 26.8251 3 0.0361452 -4.12628
9406 1 30.2916 34.3611 24.4793 3 0.0111429 -4.10153
9407 1 32.7644 34.3611 24.4793 3 0.0111429 -4.10153
9408 1 32.0419 34.339 22.1335 3 0.0361452 -4.12628
9409 1 34.5146 34.339 22.1335 3 0.0361452 -4.12628
9410 1 33.7952 34.3684 19.7862 3 0.00841238 -4.11182
9411 1 36.2679 34.3684 19.7862 3 0.00841238 -4.11182
9412 1 35.4782 34.3799 17.4528 3 0.00346242 -4.11633
9413 1 37.951 34.3799 17.4528 3 0.00346242 -4.11633
9414 1 37.1233 34.383 15.1253 3 0.00135468 -4.11886
9415 1 39.5961 34.383 15.1253 3 0.00135468 -4.11886
9416 1 38.7501 34.3831 12.7991 3 0.000630913 -4.12007
9417 1 41.2228 34.3831 12.7991 3 0.000630913 -4.12007
9418 1 40.3672 34.3823 10.4728 3 0.00034635 -4.12071
9419 1 42.84 34.3823 10.4728 3 0.00034635 -4.12071
9420 1 41.9788 34.3813 8.14609 3 0.000219406 -4.12107
9421 1 44.4515 34.3813 8.14609 3 0.000219406 -4.12107
9422 1 43.587 34.3803 5.81895 3 0.000158073 -4.12129
9423 1 46.0598 34.3803 5.81895 3 0.000158073 -4.12129
9424 1 45.1934 34.3796 3.49149 3 0.000127924 -4.12141
9425 1 47.6661 34.3796 3.49149 3 0.000127924 -4.12141
9426 1 46.7986 34.3792 1.16385 3 0.000115414 -4.12147
9427 1 49.2714 34.3792 1.16385 3 0.000115414 -4.12147
9428 1 17.0522 32.3599 46.6288 3 0.000142377 -4.12113
9429 1 19.5249 32.3599 46.6288 3 0.000142377 -4.12113
9430 1 18.6498 32.3605 44.299 3 0.000163748 -4.12102
9431 1 21.1226 32.3605 44.299 3 0.000163748 -4.12102
9432 1 20.2483 32.3615 41.9694 3 0.000209208 -4.12082
9433 1 22.721 32.3615 41.9694 3 0.000209208 -4.12082
9434 1 21.8482 32.3628 39.64 3 0.00030275 -4.12045
9435 1 24.321 32.3628 39.64 3 0.00030275 -4.12045
9436 1 23.4505 32.3642 37.3111 3 0.00051239 -4.11977
9437 1 25.9233 32.3642 37.3111 3 0.00051239 -4.11977
9438 1 25.0572 32.3657 34.9828 3 0.00106837 -4.11841
9439 1 27.53 32.3657 34.9828 3 0.00106837 -4.11841
9440 1 26.6723 32.3668 32.6555 3 0.00296101 -4.11528
9441 1 29.1451 32.3668 32.6555 3 0.00296101 -4.11528
9442 1 28.3068 32.3659 30.3292 3 0.0128667 -4.10575
9443 1 30.7796 32.3659 30.3292 3 0.0128667 -4.10575
9444 1 30.0016 32.3588 28.0005 3 0.140712 -4.0469
9445 1 32.4744 32.3588 28.0005 3 0.140712 -4.0469
9446 1 31.9651 32.3521 25.6463 5 5.31346 -4.04848
9447 1 34.4379 32.3521 25.6463 5 5.31346 -4.04848
9448 1 33.5637 32.3521 23.3123 5 5.31346 -4.04848
9449 1 36.0365 32.3521 23.3123 5 5.31346 -4.04848
9450 1 35.5272 32.3588 20.9581 3 0.140712 -4.0469
9451 1 37.9999 32.3588 20.9581 3 0.140712 -4.0469
9452 1 37.222 32.3659 18.6294 3 0.0128667 -4.10575
9453 1 39.6948 32.3659 18.6294 3 0.0128667 -4.10575
9454 1 38.8565 32.3668 16.3031 3 0.00296101 -4.11528
9455 1 41.3293 32.3668 16.3031 3 0.00296101 -4.11528
9456 1 40.4716 32.3657 13.9758 3 0.00106837 -4.11841
9457 1 42.9443 32.3657 13.9758 3 0.00106837 -4.11841
9458 1 42.0782 32.3642 11.6475 3 0.00051239 -4.11977
9459 1 44.551 32.3642 11.6475 3 0.00051239 -4.11977
9460 1 43.6806 32.3628 9.31858 3 0.00030275 -4.12045
9461 1 46.1534 32.3628 9.31858 3 0.00030275 -4.12045
9462 1 45.2805 32.3615 6.98921 3 0.000209208 -4.12082
9463 1 47.7533 32.3615 6.98921 3 0.000209208 -4.12082
9464 1 46.879 32.3605 4.65959 3 0.000163749 -4.12102
9465 1 49.3518 32.3605 4.65959 3 0.000163749 -4.12102
9466 1 48.4766 32.3599 2.32983 3 0.000142377 -4.12113
9467 1 50.9494 32.3599 2.32983 3 0.000142377 -4.12113
9468 1 50.0739 32.3597 2.87486e-09 3 0.00013603 -4.12116
9469 1 52.5467 32.3597 2.88323e-09 3 0.00013603 -4.12116
9470 1 18.7222 30.3403 47.7924 3 0.000141586 -4.12074
9471 1 21.195 30.3403 47.7924 3 0.000141586 -4.12074
9472 1 20.3114 30.3408 45.46 3 0.000154623 -4.12067
9473 1 22.7842 30.3408 45.46 3 0.000154623 -4.12067
9474 1 21.9005 30.3417 43.1275 3 0.00018524 -4.12051
9475 1 24.3733 30.3417 43.1275 3 0.00018524 -4.12051
9476 1 23.4897 30.343 40.7947 3 0.000246691 -4.12024
9477 1 25.9624 30.343 40.7947 3 0.000246691 -4.12024
9478 1 25.0787 30.3448 38.4616 3 0.000372786 -4.11979
9479 1 27.5515 30.3448 38.4616 3 0.000372786 -4.11979
9480 1 26.6676 30.3469 36.1279 3 0.000661326 -4.11905
9481 1 29.1404 30.3469 36.1279 3 0.000661326 -4.11905
9482 1 28.2561 30.3494 33.7931 3 0.00146478 -4.1177
9483 1 30.7289 30.3494 33.7931 3 0.00146478 -4.1177
9484 1 29.8436 30.3523 31.4565 3 0.00450872 -4.11471
9485 1 32.3164 30.3523 31.4565 3 0.00450872 -4.11471
9486 1 31.4273 30.3548 29.1174 3 0.0254563 -4.10472
9487 1 33.9001 30.3548 29.1174 3 0.0254563 -4.10472
9488 1 32.9683 30.3458 26.7868 5 7.69492 -4.05571
9489 1 35.4411 30.3458 26.7868 5 7.69492 -4.05571
9490 1 34.0008 30.3079 24.4793 5 2.29704 -3.99361
9491 1 36.4736 30.3079 24.4793 5 2.29704 -3.99361
9492 1 35.0333 30.3458 22.1719 5 7.69492 -4.05571
9493 1 37.506 30.3458 22.1719 5 7.69492 -4.05571
9494 1 36.5743 30.3548 19.8412 3 0.0254563 -4.10472
9495 1 39.0471 30.3548 19.8412 3 0.0254563 -4.10472
9496 1 38.158 30.3523 17.5021 3 0.00450872 -4.11471
9497 1 40.6308 30.3523 17.5021 3 0.00450872 -4.11471
9498 1 39.7455 30.3494 15.1655 3 0.00146478 -4.1177
9499 1 42.2182 30.3494 15.1655 3 0.00146478 -4.1177
9500 1 41.3339 30.3469 12.8307 3 0.000661326 -4.11905
9501 1 43.8067 30.3469 12.8307 3 0.000661326 -4.11905
9502 1 42.9228 30.3448 10.497 3 0.000372786 -4.11979
9503 1 45.3956 30.3448 10.497 3 0.000372786 -4.11979
9504 1 44.5119 30.343 8.16388 3 0.000246692 -4.12024
9505 1 46.9847 30.343 8.16388 3 0.000246692 -4.12024
9506 1 46.101 30.3417 5.83113 3 0.00018524 -4.12051
9507 1 48.5738 30.3417 5.83113 3 0.00018524 -4.12051
9508 1 47.6902 30.3408 3.4986 3 0.000154623 -4.12067
9509 1 50.163 30.3408 3.4986 3 0.000154623 -4.12067
9510 1 49.2793 30.3403 1.16619 3 0.000141586 -4.12074
9511 1 51.7521 30.3403 1.16619 3 0.000141586 -4.12074
9512 1 21.9817 28.3211 46.6239 3 0.000129519 -4.1202
9513 1 24.4545 28.3211 46.6239 3 0.000129519 -4.1202
9514 1 23.5625 28.3219 44.2889 3 0.000149472 -4.12007
9515 1 26.0353 28.3219 44.2889 3 0.000149472 -4.12007
9516 1 25.1427 28.3233 41.9536 3 0.000191447 -4.11982
9517 1 27.6155 28.3233 41.9536 3 0.000191447 -4.11982
9518 1 26.7216 28.3251 39.6177 3 0.000275951 -4.11942
9519 1 29.1944 28.3251 39.6177 3 0.000275951 -4.11942
9520 1 28.2983 28.3274 37.2809 3 0.000456136 -4.11879
9521 1 30.7711 28.3274 37.2809 3 0.000456136 -4.11879
9522 1 29.8712 28.3302 34.943 3 0.000890241 -4.11774
9523 1 32.344 28.3302 34.943 3 0.000890241 -4.11774
9524 1 31.4369 28.3332 32.6038 3 0.00219321 -4.11591
9525 1 33.9097 28.3332 32.6038 3 0.00219321 -4.11591
9526 1 32.9865 28.3349 30.2646 3 0.00787771 -4.1127
9527 1 35.4593 28.3349 30.2646 3 0.00787771 -4.1127
9528 1 34.4898 28.3262 27.9331 3 0.04025 -4.10128
9529 1 36.9626 28.3262 27.9331 3 0.04025 -4.10128
9530 1 35.8405 28.2786 25.6293 3 0.0799124 -4.03666
9531 1 38.3133 28.2786 25.6293 3 0.0799124 -4.03666
9532 1 37.1066 28.2786 23.3294 3 0.0799124 -4.03666
9533 1 39.5794 28.2786 23.3294 3 0.0799124 -4.03666
9534 1 38.4573 28.3262 21.0255 3 0.04025 -4.10128
9535 1 40.9301 28.3262 21.0255 3 0.04025 -4.10128
9536 1 39.9606 28.3349 18.694 3 0.00787771 -4.1127
9537 1 42.4334 28.3349 18.694 3 0.00787771 -4.1127
9538 1 41.5102 28.3332 16.3548 3 0.00219322 -4.11591
9539 1 43.983 28.3332 16.3548 3 0.00219322 -4.11591
9540 1 43.0759 28.3302 14.0157 3 0.000890241 -4.11774
9541 1 45.5487 28.3302 14.0157 3 0.000890241 -4.11774
9542 1 44.6488 28.3274 11.6777 3 0.000456136 -4.11879
9543 1 47.1216 28.3274 11.6777 3 0.000456136 -4.11879
9544 1 46.2255 28.3251 9.34094 3 0.000275951 -4.11942
9545 1 48.6983 28.3251 9.34094 3 0.000275951 -4.11942
9546 1 47.8044 28.3233 7.00503 3 0.000191447 -4.11982
9547 1 50.2772 28.3233 7.00503 3 0.000191447 -4.11982
9548 1 49.3846 28.3219 4.66972 3 0.000149472 -4.12007
9549 1 51.8574 28.3219 4.66972 3 0.000149472 -4.12007
9550 1 50.9655 28.3211 2.33477 3 0.000129519 -4.1202
9551 1 53.4382 28.3211 2.33477 3 0.000129519 -4.1202
9552 1 52.5467 28.3209 4.60969e-09 3 0.000123538 -4.12024
9553 1 55.0194 28.3209 4.60551e-09 3 0.000123538 -4.12024
9554 1 23.6602 26.3015 47.7904 3 9.91672e-05 -4.11967
9555 1 26.133 26.3015 47.7904 3 9.91672e-05 -4.11967
9556 1 25.234 26.3021 45.4538 3 0.000109496 -4.11957
9557 1 27.7067 26.3021 45.4538 3 0.000109496 -4.11957
9558 1 26.8068 26.3032 43.117 3 0.000133537 -4.11936
9559 1 29.2796 26.3032 43.117 3 0.000133537 -4.11936
9560 1 28.378 26.3049 40.7797 3 0.000180367 -4.11901
9561 1 30.8508 26.3049 40.7797 3 0.000180367 -4.11901
9562 1 29.9466 26.307 38.4419 3 0.000271562 -4.11847
9563 1 32.4194 26.307 38.4419 3 0.000271562 -4.11847
9564 1 31.5106 26.3093 36.1037 3 0.000464591 -4.11763
9565 1 33.9834 26.3093 36.1037 3 0.000464591 -4.11763
9566 1 33.0667 26.3112 33.7656 3 0.000951108 -4.11627
9567 1 35.5395 26.3112 33.7656 3 0.000951108 -4.11627
9568 1 34.6077 26.3104 31.4299 3 0.00245828 -4.11406
9569 1 37.0805 26.3104 31.4299 3 0.00245828 -4.11406
9570 1 36.1167 26.3002 29.1027 3 0.00637848 -4.10946
9571 1 38.5895 26.3002 29.1027 3 0.00637848 -4.10946
9572 1 37.5613 26.2669 26.7934 3 0.00997197 -4.09174
9573 1 40.0341 26.2669 26.7934 3 0.00997197 -4.09174
9574 1 38.9463 26.2457 24.4793 3 0.0166214 -4.08223
9575 1 41.4191 26.2457 24.4793 3 0.0166214 -4.08223
9576 1 40.3314 26.2669 22.1652 3 0.00997198 -4.09174
9577 1 42.8041 26.2669 22.1652 3 0.00997198 -4.09174
9578 1 41.776 26.3002 19.8559 3 0.00637848 -4.10946
9579 1 44.2488 26.3002 19.8559 3 0.00637848 -4.10946
9580 1 43.285 26.3104 17.5287 3 0.00245828 -4.11406
9581 1 45.7577 26.3104 17.5287 3 0.00245828 -4.11406
9582 1 44.826 26.3112 15.193 3 0.000951108 -4.11627
9583 1 47.2987 26.3112 15.193 3 0.000951108 -4.11627
9584 1 46.3821 26.3093 12.8549 3 0.000464591 -4.11763
9585 1 48.8549 26.3093 12.8549 3 0.000464591 -4.11763
9586 1 47.9461 26.307 10.5167 3 0.000271562 -4.11847
9587 1 50.4189 26.307 10.5167 3 0.000271562 -4.11847
9588 1 49.5147 26.3049 8.17893 3 0.000180367 -4.11901
9589 1 51.9874 26.3049 8.17893 3 0.000180367 -4.11901
9590 1 51.0859 26.3032 5.84167 3 0.000133537 -4.11936
9591 1 53.5587 26.3032 5.84167 3 0.000133537 -4.11936
9592 1 52.6587 26.3021 3.50483 3 0.000109496 -4.11957
9593 1 55.1315 26.3021 3.50483 3 0.000109496 -4.11957
9594 1 54.2325 26.3015 1.16825 3 9.91672e-05 -4.11967
9595 1 56.7052 26.3015 1.16825 3 9.91672e-05 -4.11967
9596 1 26.9135 24.2818 46.6212 3 7.83887e-05 -4.11909
9597 1 29.3863 24.2818 46.6212 3 7.83887e-05 -4.11909
9598 1 28.4802 24.2827 44.2836 3 9.09683e-05 -4.11894
9599 1 30.953 24.2827 44.2836 3 9.09683e-05 -4.11894
9600 1 30.0455 24.2841 41.9459 3 0.000116215 -4.11866
9601 1 32.5183 24.2841 41.9459 3 0.000116215 -4.11866
9602 1 31.6081 24.2858 39.6081 3 0.000164011 -4.11823
9603 1 34.0809 24.2858 39.6081 3 0.000164011 -4.11823
9604 1 33.1664 24.2874 37.2705 3 0.000260539 -4.11759
9605 1 35.6392 24.2874 37.2705 3 0.000260539 -4.11759
9606 1 34.7177 24.2879 34.9338 3 0.000482604 -4.11663
9607 1 37.1904 24.2879 34.9338 3 0.000482604 -4.11663
9608 1 36.2564 24.2854 32.6002 3 0.00101185 -4.11517
9609 1 38.7292 24.2854 32.6002 3 0.00101185 -4.11517
9610 1 37.773 24.275 30.2733 3 0.00186199 -4.11259
9611 1 40.2458 24.275 30.2733 3 0.00186199 -4.11259
9612 1 39.2541 24.2507 27.9568 3 0.00236274 -4.10559
9613 1 41.7269 24.2507 27.9568 3 0.00236274 -4.10559
9614 1 40.7022 24.2286 25.64 3 0.0045529 -4.09981
9615 1 43.175 24.2286 25.64 3 0.0045529 -4.09981
9616 1 42.1361 24.2286 23.3186 3 0.0045529 -4.09981
9617 1 44.6089 24.2286 23.3186 3 0.0045529 -4.09981
9618 1 43.5842 24.2507 21.0019 3 0.00236274 -4.10559
9619 1 46.057 24.2507 21.0019 3 0.00236274 -4.10559
9620 1 45.0653 24.275 18.6853 3 0.00186199 -4.11259
9621 1 47.5381 24.275 18.6853 3 0.00186199 -4.11259
9622 1 46.5819 24.2854 16.3584 3 0.00101185 -4.11517
9623 1 49.0547 24.2854 16.3584 3 0.00101185 -4.11517
9624 1 48.1206 24.2879 14.0248 3 0.000482604 -4.11663
9625 1 50.5934 24.2879 14.0248 3 0.000482604 -4.11663
9626 1 49.6718 24.2874 11.6882 3 0.000260539 -4.11759
9627 1 52.1446 24.2874 11.6882 3 0.000260539 -4.11759
9628 1 51.2302 24.2858 9.35054 3 0.000164011 -4.11823
9629 1 53.7029 24.2858 9.35054 3 0.000164011 -4.11823
9630 1 52.7928 24.2841 7.01272 3 0.000116216 -4.11866
9631 1 55.2656 24.2841 7.01272 3 0.000116216 -4.11866
9632 1 54.358 24.2827 4.67502 3 9.09683e-05 -4.11894
9633 1 56.8308 24.2827 4.67502 3 9.09683e-05 -4.11894
9634 1 55.9248 24.2818 2.33746 3 7.83887e-05 -4.11909
9635 1 58.3976 24.2818 2.33746 3 7.83887e-05 -4.11909
9636 1 57.4922 24.2815 7.93625e-09 3 7.45992e-05 -4.11914
9637 1 59.965 24.2815 7.9358e-09 3 7.45992e-05 -4.11914
9638 1 28.5998 22.261 47.7898 3 5.81635e-05 -4.11867
9639 1 31.0726 22.261 47.7898 3 5.81635e-05 -4.11867
9640 1 30.1613 22.2615 45.4521 3 6.41046e-05 -4.11857
9641 1 32.6341 22.2615 45.4521 3 6.41046e-05 -4.11857
9642 1 31.7216 22.2625 43.1146 3 7.79181e-05 -4.11836
9643 1 34.1944 22.2625 43.1146 3 7.79181e-05 -4.11836
9644 1 33.2796 22.2637 40.7772 3 0.000104555 -4.11804
9645 1 35.7524 22.2637 40.7772 3 0.000104555 -4.11804
9646 1 34.8338 22.2646 38.4403 3 0.000157093 -4.11755
9647 1 37.3066 22.2646 38.4403 3 0.000157093 -4.11755
9648 1 36.382 22.2642 36.1048 3 0.000266142 -4.11685
9649 1 38.8548 22.2642 36.1048 3 0.000266142 -4.11685
9650 1 37.9203 22.2608 33.7722 3 0.000471623 -4.11582
9651 1 40.3931 22.2608 33.7722 3 0.000471623 -4.11582
9652 1 39.4429 22.2512 31.4446 3 0.000701874 -4.11412
9653 1 41.9157 22.2512 31.4446 3 0.000701874 -4.11412
9654 1 40.9434 22.2327 29.1232 3 0.000811247 -4.11062
9655 1 43.4162 22.2327 29.1232 3 0.000811247 -4.11062
9656 1 42.4237 22.2131 26.8028 3 0.00142287 -4.10738
9657 1 44.8964 22.2131 26.8028 3 0.00142287 -4.10738
9658 1 43.8919 22.2049 24.4793 3 0.00172072 -4.10623
9659 1 46.3647 22.2049 24.4793 3 0.00172072 -4.10623
9660 1 45.3602 22.2131 22.1558 3 0.00142287 -4.10738
9661 1 47.833 22.2131 22.1558 3 0.00142287 -4.10738
9662 1 46.8404 22.2327 19.8354 3 0.000811247 -4.11062
9663 1 49.3132 22.2327 19.8354 3 0.000811247 -4.11062
9664 1 48.3409 22.2512 17.514 3 0.000701874 -4.11412
9665 1 50.8137 22.2512 17.514 3 0.000701874 -4.11412
9666 1 49.8635 22.2608 15.1864 3 0.000471623 -4.11582
9667 1 52.3363 22.2608 15.1864 3 0.000471623 -4.11582
9668 1 51.4018 22.2642 12.8538 3 0.000266141 -4.11685
9669 1 53.8746 22.2642 12.8538 3 0.000266141 -4.11685
9670 1 52.95 22.2646 10.5183 3 0.000157093 -4.11755
9671 1 55.4228 22.2646 10.5183 3 0.000157093 -4.11755
9672 1 54.5042 22.2637 8.18147 3 0.000104555 -4.11804
9673 1 56.977 22.2637 8.18147 3 0.000104555 -4.11804
9674 1 56.0623 22.2625 5.84407 3 7.79181e-05 -4.11836
9675 1 58.535 22.2625 5.84407 3 7.79181e-05 -4.11836
9676 1 57.6225 22.2615 3.50648 3 6.41046e-05 -4.11857
9677 1 60.0953 22.2615 3.50648 3 6.41046e-05 -4.11857
9678 1 59.1841 22.261 1.16883 3 5.81635e-05 -4.11867
9679 1 61.6568 22.261 1.16883 3 5.81635e-05 -4.11867
9680 1 31.8485 20.2396 46.6214 3 4.80558e-05 -4.11824
9681 1 34.3213 20.2396 46.6214 3 4.80558e-05 -4.11824
9682 1 33.4045 20.2402 44.2843 3 5.54392e-05 -4.1181
9683 1 35.8773 20.2402 44.2843 3 5.54392e-05 -4.1181
9684 1 34.9587 20.2409 41.9475 3 7.05626e-05 -4.11786
9685 1 37.4315 20.2409 41.9475 3 7.05626e-05 -4.11786
9686 1 36.5097 20.2412 39.6115 3 9.97795e-05 -4.11749
9687 1 38.9825 20.2412 39.6115 3 9.97795e-05 -4.11749
9688 1 38.0558 20.2403 37.2769 3 0.000154051 -4.11696
9689 1 40.5285 20.2403 37.2769 3 0.000154051 -4.11696
9690 1 39.594 20.2367 34.9447 3 0.000237837 -4.1162
9691 1 42.0668 20.2367 34.9447 3 0.000237837 -4.1162
9692 1 41.1209 20.2283 32.6161 3 0.000309047 -4.11501
9693 1 43.5937 20.2283 32.6161 3 0.000309047 -4.11501
9694 1 42.6331 20.2138 30.2916 3 0.000342001 -4.11299
9695 1 45.1059 20.2138 30.2916 3 0.000342001 -4.11299
9696 1 44.1317 20.1974 27.9681 3 0.000541395 -4.11102
9697 1 46.6045 20.1974 27.9681 3 0.000541395 -4.11102
9698 1 45.6214 20.1865 25.6426 3 0.000695882 -4.1099
9699 1 48.0942 20.1865 25.6426 3 0.000695882 -4.1099
9700 1 47.108 20.1865 23.316 3 0.000695882 -4.1099
9701 1 49.5808 20.1865 23.316 3 0.000695882 -4.1099
9702 1 48.5977 20.1974 20.9906 3 0.000541395 -4.11102
9703 1 51.0705 20.1974 20.9906 3 0.000541395 -4.11102
9704 1 50.0963 20.2138 18.667 3 0.000342001 -4.11299
9705 1 52.5691 20.2138 18.667 3 0.000342001 -4.11299
9706 1 51.6085 20.2283 16.3425 3 0.000309047 -4.11501
9707 1 54.0813 20.2283 16.3425 3 0.000309047 -4.11501
9708 1 53.1354 20.2367 14.014 3 0.000237836 -4.1162
9709 1 55.6082 20.2367 14.014 3 0.000237836 -4.1162
9710 1 54.6736 20.2403 11.6818 3 0.000154051 -4.11696
9711 1 57.1464 20.2403 11.6818 3 0.000154051 -4.11696
9712 1 56.2197 20.2412 9.34714 3 9.97795e-05 -4.11749
9713 1 58.6925 20.2412 9.34714 3 9.97795e-05 -4.11749
9714 1 57.7707 20.2409 7.01111 3 7.05627e-05 -4.11786
9715 1 60.2435 20.2409 7.01111 3 7.05627e-05 -4.11786
9716 1 59.3249 20.2402 4.67436 3 5.54392e-05 -4.1181
9717 1 61.7977 20.2402 4.67436 3 5.54392e-05 -4.1181
9718 1 60.8809 20.2396 2.33725 3 4.80558e-05 -4.11824
9719 1 33.5407 18.2167 47.7904 3 3.80993e-05 -4.11796
9720 1 36.0135 18.2167 47.7904 3 3.80993e-05 -4.11796
9721 1 35.0929 18.2169 45.454 3 4.16723e-05 -4.11787
9722 1 37.5657 18.2169 45.454 3 4.16723e-05 -4.11787
9723 1 36.6438 18.2172 43.1181 3 4.99255e-05 -4.1177
9724 1 39.1166 18.2172 43.1181 3 4.99255e-05 -4.1177
9725 1 38.1921 18.2172 40.7829 3 6.57171e-05 -4.11742
9726 1 40.6649 18.2172 40.7829 3 6.57171e-05 -4.11742
9727 1 39.7364 18.216 38.4489 3 9.22624e-05 -4.11701
9728 1 42.2092 18.216 38.4489 3 9.22624e-05 -4.11701
9729 1 41.2746 18.2126 36.1169 3 0.000127291 -4.11643
9730 1 43.7474 18.2126 36.1169 3 0.000127291 -4.11643
9731 1 42.8045 18.2056 33.7876 3 0.000151781 -4.11557
9732 1 45.2773 18.2056 33.7876 3 0.000151781 -4.11557
9733 1 44.3241 18.1942 31.4609 3 0.000165317 -4.11428
9734 1 46.7969 18.1942 31.4609 3 0.000165317 -4.11428
9735 1 45.8342 18.1808 29.135 3 0.000239462 -4.11297
9736 1 48.3069 18.1808 29.135 3 0.000239462 -4.11297
9737 1 47.3375 18.1699 26.8079 3 0.000309455 -4.11207
9738 1 49.8103 18.1699 26.8079 3 0.000309455 -4.11207
9739 1 48.8375 18.1658 24.4793 3 0.000334306 -4.11174
9740 1 51.3103 18.1658 24.4793 3 0.000334306 -4.11174
9741 1 50.3375 18.1699 22.1507 3 0.000309455 -4.11207
9742 1 52.8103 18.1699 22.1507 3 0.000309455 -4.11207
9743 1 51.8408 18.1808 19.8236 3 0.000239462 -4.11297
9744 1 54.3136 18.1808 19.8236 3 0.000239462 -4.11297
9745 1 53.3509 18.1942 17.4978 3 0.000165317 -4.11428
9746 1 55.8236 18.1942 17.4978 3 0.000165317 -4.11428
9747 1 54.8705 18.2056 15.171 3 0.000151781 -4.11557
9748 1 57.3433 18.2056 15.171 3 0.000151781 -4.11557
9749 1 56.4003 18.2126 12.8417 3 0.000127292 -4.11643
9750 1 58.8731 18.2126 12.8417 3 0.000127292 -4.11643
9751 1 57.9386 18.216 10.5097 3 9.22624e-05 -4.11701
9752 1 60.4114 18.216 10.5097 3 9.22624e-05 -4.11701
9753 1 59.4829 18.2172 8.17577 3 6.57171e-05 -4.11742
9754 1 61.9557 18.2172 8.17577 3 6.57171e-05 -4.11742
9755 1 61.0312 18.2172 5.84054 3 4.99255e-05 -4.1177
9756 1 36.7859 16.1927 46.6232 3 3.25865e-05 -4.11766
9757 1 39.2587 16.1927 46.6232 3 3.25865e-05 -4.11766
9758 1 38.3337 16.1928 44.2882 3 3.6577e-05 -4.11754
9759 1 40.8065 16.1928 44.2882 3 3.6577e-05 -4.11754
9760 1 39.8796 16.1925 41.9537 3 4.43745e-05 -4.11733
9761 1 42.3524 16.1925 41.9537 3 4.43745e-05 -4.11733
9762 1 41.4223 16.1913 39.6204 3 5.67156e-05 -4.11702
9763 1 43.8951 16.1913 39.6204 3 5.67156e-05 -4.11702
9764 1 42.9604 16.1884 37.2886 3 7.14129e-05 -4.11657
9765 1 45.4332 16.1884 37.2886 3 7.14129e-05 -4.11657
9766 1 44.4923 16.1827 34.9586 3 8.10424e-05 -4.11593
9767 1 46.9651 16.1827 34.9586 3 8.10424e-05 -4.11593
9768 1 46.0167 16.174 32.6304 3 8.87972e-05 -4.11504
9769 1 48.4895 16.174 32.6304 3 8.87972e-05 -4.11504
9770 1 47.5342 16.1633 30.3028 3 0.000119747 -4.11412
9771 1 50.007 16.1633 30.3028 3 0.000119747 -4.11412
9772 1 49.0466 16.1536 27.9744 3 0.000151325 -4.1134
9773 1 51.5194 16.1536 27.9744 3 0.000151325 -4.1134
9774 1 50.556 16.1478 25.6446 3 0.000163251 -4.11301
9775 1 53.0288 16.1478 25.6446 3 0.000163251 -4.11301
9776 1 52.0645 16.1478 23.3141 3 0.000163251 -4.11301
9777 1 54.5373 16.1478 23.3141 3 0.000163251 -4.11301
9778 1 53.5739 16.1536 20.9843 3 0.000151325 -4.1134
9779 1 56.0467 16.1536 20.9843 3 0.000151325 -4.1134
9780 1 55.0863 16.1633 18.6558 3 0.000119747 -4.11412
9781 1 57.5591 16.1633 18.6558 3 0.000119747 -4.11412
9782 1 56.6038 16.174 16.3282 3 8.87972e-05 -4.11504
9783 1 59.0766 16.174 16.3282 3 8.87972e-05 -4.11504
9784 1 58.1283 16.1827 14 3 8.10424e-05 -4.11593
9785 1 60.601 16.1827 14 3 8.10424e-05 -4.11593
9786 1 59.6601 16.1884 11.6701 3 7.1413e-05 -4.11657
9787 1 62.1329 16.1884 11.6701 3 7.1413e-05 -4.11657
9788 1 61.1982 16.1913 9.33825 3 5.67156e-05 -4.11702
9789 1 38.4827 14.1675 47.7915 3 2.60015e-05 -4.11745
9790 1 40.9555 14.1675 47.7915 3 2.60015e-05 -4.11745
9791 1 40.0277 14.1674 45.4574 3 2.74318e-05 -4.11738
9792 1 42.5005 14.1674 45.4574 3 2.74318e-05 -4.11738
9793 1 41.5713 14.167 43.1237 3 3.05819e-05 -4.11723
9794 1 44.0441 14.167 43.1237 3 3.05819e-05 -4.11723
9795 1 43.1126 14.166 40.7909 3 3.56114e-05 -4.11699
9796 1 45.5854 14.166 40.7909 3 3.56114e-05 -4.11699
9797 1 44.6503 14.1636 38.4592 3 4.15637e-05 -4.11665
9798 1 47.1231 14.1636 38.4592 3 4.15637e-05 -4.11665
9799 1 46.1834 14.1593 36.1289 3 4.62847e-05 -4.11616
9800 1 48.6562 14.1593 36.1289 3 4.62847e-05 -4.11616
9801 1 47.7111 14.1528 33.7998 3 5.23261e-05 -4.11553
9802 1 50.1839 14.1528 33.7998 3 5.23261e-05 -4.11553
9803 1 49.2336 14.1447 31.471 3 6.74147e-05 -4.11484
9804 1 51.7064 14.1447 31.471 3 6.74147e-05 -4.11484
9805 1 50.7521 14.1367 29.1415 3 8.12689e-05 -4.11426
9806 1 53.2249 14.1367 29.1415 3 8.12689e-05 -4.11426
9807 1 52.2682 14.1309 26.8109 3 8.36351e-05 -4.11388
9808 1 54.7409 14.1309 26.8109 3 8.36351e-05 -4.11388
9809 1 53.7831 14.1288 24.4793 3 8.17936e-05 -4.11375
9810 1 56.2558 14.1288 24.4793 3 8.17936e-05 -4.11375
9811 1 55.298 14.1309 22.1477 3 8.36351e-05 -4.11388
9812 1 57.7707 14.1309 22.1477 3 8.36351e-05 -4.11388
9813 1 56.814 14.1367 19.8171 3 8.12689e-05 -4.11426
9814 1 59.2868 14.1367 19.8171 3 8.12689e-05 -4.11426
9815 1 58.3325 14.1447 17.4876 3 6.74147e-05 -4.11484
9816 1 60.8053 14.1447 17.4876 3 6.74147e-05 -4.11484
9817 1 59.855 14.1528 15.1588 3 5.23261e-05 -4.11553
9818 1 62.3278 14.1528 15.1588 3 5.23261e-05 -4.11553
9819 1 61.3827 14.1593 12.8297 3 4.62847e-05 -4.11616
9820 1 41.725 12.1411 46.6254 3 2.08718e-05 -4.11721
9821 1 44.1978 12.1411 46.6254 3 2.08718e-05 -4.11721
9822 1 43.2665 12.1407 44.2926 3 2.14783e-05 -4.11711
9823 1 45.7393 12.1407 44.2926 3 2.14783e-05 -4.11711
9824 1 44.8063 12.1399 41.9603 3 2.27765e-05 -4.11694
9825 1 47.2791 12.1399 41.9603 3 2.27765e-05 -4.11694
9826 1 46.3435 12.1382 39.6288 3 2.48704e-05 -4.11668
9827 1 48.8163 12.1382 39.6288 3 2.48704e-05 -4.11668
9828 1 47.8774 12.1352 37.2983 3 2.80027e-05 -4.11632
9829 1 50.3501 12.1352 37.2983 3 2.80027e-05 -4.11632
9830 1 49.4072 12.1306 34.9685 3 3.3698e-05 -4.11585
9831 1 51.88 12.1306 34.9685 3 3.3698e-05 -4.11585
9832 1 50.9332 12.1249 32.6389 3 4.29304e-05 -4.11534
9833 1 53.406 12.1249 32.6389 3 4.29304e-05 -4.11534
9834 1 52.456 12.1189 30.3088 3 4.8972e-05 -4.11486
9835 1 54.9288 12.1189 30.3088 3 4.8972e-05 -4.11486
9836 1 53.9767 12.114 27.9776 3 4.63183e-05 -4.1145
9837 1 56.4494 12.114 27.9776 3 4.63183e-05 -4.1145
9838 1 55.4962 12.1112 25.6455 3 4.04781e-05 -4.11431
9839 1 57.969 12.1112 25.6455 3 4.04781e-05 -4.11431
9840 1 57.0155 12.1112 23.3131 3 4.04781e-05 -4.11431
9841 1 59.4882 12.1112 23.3131 3 4.04781e-05 -4.11431
9842 1 58.535 12.114 20.981 3 4.63183e-05 -4.1145
9843 1 61.0078 12.114 20.981 3 4.63182e-05 -4.1145
9844 1 60.0557 12.1189 18.6499 3 4.8972e-05 -4.11486
9845 1 62.5285 12.1189 18.6499 3 4.8972e-05 -4.11486
9846 1 61.5785 12.1249 16.3197 3 4.29304e-05 -4.11534
9847 1 43.4254 10.1138 47.7925 3 1.59529e-05 -4.11702
9848 1 45.8981 10.1138 47.7925 3 1.59529e-05 -4.11702
9849 1 44.9647 10.1136 45.4603 3 1.54783e-05 -4.11697
9850 1 47.4375 10.1136 45.4603 3 1.54783e-05 -4.11697
9851 1 46.5029 10.1131 43.1284 3 1.49876e-05 -4.11685
9852 1 48.9757 10.1131 43.1284 3 1.49876e-05 -4.11685
9853 1 48.0395 10.1119 40.7971 3 1.53535e-05 -4.11667
9854 1 50.5123 10.1119 40.7971 3 1.53535e-05 -4.11667
9855 1 49.5736 10.1101 38.4664 3 1.79658e-05 -4.11641
9856 1 52.0464 10.1101 38.4664 3 1.79658e-05 -4.11641
9857 1 51.1049 10.1072 36.1361 3 2.37569e-05 -4.11607
9858 1 53.5777 10.1072 36.1361 3 2.37569e-05 -4.11607
9859 1 52.6333 10.1037 33.806 3 3.09937e-05 -4.11568
9860 1 55.106 10.1037 33.806 3 3.09936e-05 -4.11568
9861 1 54.1592 10.0998 31.4755 3 3.39978e-05 -4.11529
9862 1 56.6319 10.0998 31.4755 3 3.39978e-05 -4.11529
9863 1 55.6832 10.0963 29.1441 3 2.94958e-05 -4.11497
9864 1 58.156 10.0963 29.1441 3 2.94958e-05 -4.11497
9865 1 57.2062 10.0939 26.812 3 2.15714e-05 -4.11475
9866 1 59.679 10.0939 26.812 3 2.15714e-05 -4.11475
9867 1 58.7286 10.0931 24.4793 3 1.77539e-05 -4.11468
9868 1 61.2014 10.0931 24.4793 3 1.77539e-05 -4.11468
9869 1 60.2511 10.0939 22.1466 3 2.15714e-05 -4.11475
9870 1 62.7239 10.0939 22.1466 3 2.15714e-05 -4.11475
9871 1 61.774 10.0963 19.8145 3 2.94958e-05 -4.11497
9872 1 46.6655 8.0857 46.627 3 1.16e-05 -4.11731
9873 1 49.1382 8.0857 46.627 3 1.16e-05 -4.11731
9874 1 48.2021 8.08542 44.2954 3 1.05633e-05 -4.11722
9875 1 50.6749 8.08542 44.2954 3 1.05633e-05 -4.11722
9876 1 49.7377 8.08489 41.9642 3 1.03533e-05 -4.11706
9877 1 52.2104 8.08489 41.9642 3 1.03532e-05 -4.11706
9878 1 51.2717 8.084 39.6332 3 1.28943e-05 -4.11683
9879 1 53.7445 8.084 39.6332 3 1.28943e-05 -4.11683
9880 1 52.8039 8.0827 37.3025 3 1.88848e-05 -4.11652
9881 1 55.2766 8.0827 37.3025 3 1.88848e-05 -4.11652
9882 1 54.334 8.08102 34.9719 3 2.55864e-05 -4.11616
9883 1 56.8068 8.08102 34.9719 3 2.55864e-05 -4.11616
9884 1 55.8622 8.07917 32.641 3 2.77711e-05 -4.11577
9885 1 58.335 8.07917 32.641 3 2.77711e-05 -4.11577
9886 1 57.3888 8.07741 30.3097 3 2.32112e-05 -4.11542
9887 1 59.8616 8.07741 30.3097 3 2.32113e-05 -4.11542
9888 1 58.9143 8.07606 27.9778 3 1.53105e-05 -4.11515
9889 1 61.3871 8.07606 27.9778 3 1.53105e-05 -4.11515
9890 1 60.4391 8.07532 25.6455 3 9.60026e-06 -4.115
9891 1 62.9119 8.07532 25.6455 3 9.60029e-06 -4.115
9892 1 61.9637 8.07532 23.3131 3 9.6003e-06 -4.115
9893 1 48.3686 6.05706 47.7929 3 0.000192152 -4.11661
9894 1 50.8414 6.05706 47.7929 3 0.000192152 -4.11661
9895 1 49.9035 6.05706 45.4616 3 0.000190055 -4.11656
9896 1 52.3762 6.05706 45.4616 3 0.000190055 -4.11656
9897 1 51.4378 6.05706 43.1302 3 0.000182136 -4.11648
9898 1 53.9106 6.05706 43.1302 3 0.000182135 -4.11648
9899 1 52.9713 6.05706 40.7989 3 0.000163309 -4.11634
9900 1 55.4441 6.05706 40.7989 3 0.000163309 -4.11634
9901 1 54.5038 6.05706 38.4675 3 0.000131568 -4.11616
9902 1 56.9766 6.05706 38.4675 3 0.000131568 -4.11616
9903 1 56.0351 6.05706 36.1361 3 9.19267e-05 -4.11595
9904 1 58.5079 6.05706 36.1361 3 9.19266e-05 -4.11595
9905 1 57.565 6.05706 33.8048 3 5.4706e-05 -4.11573
9906 1 60.0378 6.05706 33.8048 3 5.47059e-05 -4.11573
9907 1 59.0937 6.05706 31.4734 3 2.81608e-05 -4.11553
9908 1 61.5665 6.05706 31.4734 3 2.81608e-05 -4.11553
9909 1 60.6212 6.05706 29.142 3 1.34712e-05 -4.11537
9910 1 63.094 6.05706 29.142 3 1.34712e-05 -4.11537
9911 1 62.1479 6.05706 26.8107 3 7.01603e-06 -4.11526
9912 1 51.6079 4.03804 46.6273 3 1.41686e-06 -4.11576
9913 1 54.0807 4.03804 46.6273 3 1.41684e-06 -4.11576
9914 1 53.1417 4.03804 44.2959 3 1.43102e-06 -4.11573
9915 1 55.6145 4.03804 44.2959 3 1.43103e-06 -4.11573
9916 1 54.6749 4.03804 41.9645 3 1.45409e-06 -4.11568
9917 1 57.1477 4.03804 41.9645 3 1.45409e-06 -4.11568
9918 1 56.2075 4.03804 39.6332 3 1.48585e-06 -4.11564
9919 1 58.6802 4.03804 39.6332 3 1.48585e-06 -4.11564
9920 1 57.7391 4.03804 37.3018 3 1.52672e-06 -4.11559
9921 1 60.2119 4.03804 37.3018 3 1.52673e-06 -4.11559
9922 1 59.2697 4.03804 34.9704 3 1.57732e-06 -4.11556
9923 1 61.7425 4.03804 34.9704 3 1.57732e-06 -4.11556
9924 1 60.7993 4.03804 32.6391 3 1.63656e-06 -4.11554
9925 1 63.2721 4.03804 32.6391 3 1.63654e-06 -4.11554
9926 1 62.328 4.03804 30.3077 3 1.69894e-06 -4.11552
9927 1 53.3133 2.01902 47.7929 3 8.63883e-07 -4.10005
9928 1 55.7861 2.01902 47.7929 3 8.63855e-07 -4.10005
9929 1 54.8466 2.01902 45.4616 3 8.67506e-07 -4.10002
9930 1 57.3193 2.01902 45.4616 3 8.67536e-07 -4.10002
9931 1 56.3795 2.01902 43.1302 3 8.74844e-07 -4.09998
9932 1 58.8523 2.01902 43.1302 3 8.74814e-07 -4.09998
9933 1 57.9119 2.01902 40.7989 3 8.86011e-07 -4.09991
9934 1 60.3847 2.01902 40.7989 3 8.85999e-07 -4.09991
9935 1 59.4437 2.01902 38.4675 3 9.01604e-07 -4.09983
9936 1 61.9165 2.01902 38.4675 3 9.01619e-07 -4.09983
9937 1 60.9747 2.01902 36.1361 3 9.22383e-07 -4.09974
9938 1 63.4475 2.01902 36.1361 3 9.22398e-07 -4.09974
9939 1 62.5049 2.01902 33.8048 3 9.48475e-07 -4.09964
9940 1 56.5522 0 46.6273 5 6.02137 -3.54885
9941 1 59.025 0 46.6273 5 6.02137 -3.54885
9942 1 58.0848 0 44.2959 5 6.02059 -3.54884
9943 1 60.5575 0 44.2959 5 6.02059 -3.54884
9944 1 59.617 0 41.9645 5 6.01984 -3.54882
9945 1 62.0898 0 41.9645 5 6.01984 -3.54882
9946 1 61.1488 0 39.6332 5 6.0192 -3.5488
9947 1 63.6216 0 39.6332 5 6.0192 -3.5488
9948 1 62.6801 0 37.3018 5 6.01871 -3.54878
9949 1 1.44023 62.5896 26.8107 5 12.2309 -3.54454
9950 1 0.618196 62.5896 24.4793 5 12.2318 -3.54453
9951 1 3.09098 62.5896 24.4793 5 12.2318 -3.54453
9952 1 2.26894 62.5896 22.1479 5 12.2309 -3.54454
9953 1 4.74173 62.5896 22.1479 5 12.2309 -3.54454
9954 1 3.91948 62.5896 19.8166 5 12.2286 -3.54455
9955 1 6.39226 62.5896 19.8166 5 12.2286 -3.54455
9956 1 5.56962 62.5896 17.4852 5 12.2265 -3.54458
9957 1 8.04241 62.5896 17.4852 5 12.2265 -3.54458
9958 1 7.21923 62.5896 15.1539 5 12.2239 -3.54461
9959 1 9.69201 62.5896 15.1539 5 12.2239 -3.54461
9960 1 8.8682 62.5896 12.8225 5 12.2233 -3.54464
9961 1 11.341 62.5896 12.8225 5 12.2233 -3.54464
9962 1 10.5165 62.5896 10.4911 5 12.2231 -3.54468
9963 1 12.9893 62.5896 10.4911 5 12.2231 -3.54468
9964 1 12.1642 62.5896 8.15977 5 12.2235 -3.54471
9965 1 14.637 62.5896 8.15977 5 12.2235 -3.54471
9966 1 13.8113 62.5896 5.82841 5 6.11184 -3.54474
9967 1 16.2841 62.5896 5.82841 5 6.11184 -3.54474
9968 1 15.4581 62.5896 3.49704 5 6.11233 -3.54476
9969 1 17.9308 62.5896 3.49704 5 6.11233 -3.54476
9970 1 17.1045 62.5896 1.16568 5 6.11303 -3.54477
9971 1 19.5773 62.5896 1.16568 5 6.11303 -3.54477
9972 1 1.43581 60.5706 30.3077 3 1.18713e-06 -4.10633
9973 1 0.613939 60.5706 27.9764 3 1.2204e-06 -4.1063
9974 1 3.08672 60.5706 27.9764 3 1.2204e-06 -4.1063
9975 1 2.26525 60.5706 25.645 3 1.24004e-06 -4.10627
9976 1 4.73804 60.5706 25.645 3 1.24004e-06 -4.10627
9977 1 3.91671 60.5706 23.3136 3 1.24004e-06 -4.10627
9978 1 6.38949 60.5706 23.3136 3 1.24006e-06 -4.10627
9979 1 5.56802 60.5706 20.9823 3 1.22041e-06 -4.1063
9980 1 8.0408 60.5706 20.9823 3 1.22039e-06 -4.1063
9981 1 7.21893 60.5706 18.6509 3 1.18712e-06 -4.10633
9982 1 9.69172 60.5706 18.6509 3 1.18714e-06 -4.10633
9983 1 8.86922 60.5706 16.3195 3 1.14887e-06 -4.10639
9984 1 11.342 60.5706 16.3195 3 1.14887e-06 -4.10639
9985 1 10.5187 60.5706 13.9882 3 1.11276e-06 -4.10645
9986 1 12.9915 60.5706 13.9882 3 1.11274e-06 -4.10645
9987 1 12.1674 60.5706 11.6568 3 1.08242e-06 -4.10651
9988 1 14.6402 60.5706 11.6568 3 1.08243e-06 -4.10651
9989 1 13.8152 60.5706 9.32545 3 1.05862e-06 -4.10657
9990 1 16.288 60.5706 9.32545 3 1.05864e-06 -4.10657
9991 1 15.4623 60.5706 6.99409 3 1.04077e-06 -4.10661
9992 1 17.9351 60.5706 6.99409 3 1.04077e-06 -4.10661
9993 1 17.1087 60.5706 4.66273 3 1.02817e-06 -4.10664
9994 1 19.5815 60.5706 4.66273 3 1.02815e-06 -4.10664
9995 1 18.7547 60.5706 2.33136 3 1.02056e-06 -4.10666
9996 1 21.2275 60.5706 2.33136 3 1.02054e-06 -4.10666
9997 1 20.4005 60.5706 0 3 1.01798e-06 -4.10667
9998 1 22.8733 60.5706 0 3 1.01799e-06 -4.10667
9999 1 1.43075 58.5516 33.8048 3 3.52552e-05 -4.12244
10000 1 0.608282 58.5516 31.4734 3 2.24526e-05 -4.12244
10001 1 3.08107 58.5516 31.4734 3 2.24525e-05 -4.12244
10002 1 2.25953 58.5516 29.142 3 1.17353e-05 -4.12244
10003 1 4.73231 58.5516 29.142 3 1.17353e-05 -4.12244
10004 1 3.91146 58.5516 26.8107 3 3.91931e-06 -4.12243
10005 1 6.38425 58.5516 26.8107 3 3.91934e-06 -4.12243
10006 1 5.56376 58.5516 24.4793 3 9.47301e-07 -4.12242
10007 1 8.03655 58.5516 24.4793 3 9.473e-07 -4.12242
10008 1 7.21607 58.5516 22.1479 3 3.91911e-06 -4.12243
10009 1 9.68885 58.5516 22.1479 3 3.91913e-06 -4.12243
10010 1 8.868 58.5516 19.8166 3 1.17349e-05 -4.12244
10011 1 11.3408 58.5516 19.8166 3 1.17349e-05 -4.12244
10012 1 10.5192 58.5516 17.4852 3 2.24521e-05 -4.12244
10013 1 12.992 58.5516 17.4852 3 2.24522e-05 -4.12244
10014 1 12.1696 58.5516 15.1539 3 3.52549e-05 -4.12244
10015 1 14.6423 58.5516 15.1539 3 3.52547e-05 -4.12244
10016 1 13.8188 58.5516 12.8225 3 5.08314e-05 -4.12243
10017 1 16.2916 58.5516 12.8225 3 5.08313e-05 -4.12243
10018 1 15.4669 58.5516 10.4911 3 6.97657e-05 -4.1224
10019 1 17.9397 58.5516 10.4911 3 6.97658e-05 -4.1224
10020 1 17.114 58.5516 8.15977 3 9.07157e-05 -4.12237
10021 1 19.5868 58.5516 8.15977 3 9.07158e-05 -4.12237
10022 1 18.7602 58.5516 5.82841 3 0.000110457 -4.12234
10023 1 21.233 58.5516 5.82841 3 0.000110457 -4.12234
10024 1 20.4057 58.5516 3.49704 3 0.000125533 -4.12231
10025 1 22.8785 58.5516 3.49704 3 0.000125533 -4.12231
10026 1 22.0508 58.5516 1.16568 3 0.000133584 -4.1223
10027 1 24.5236 58.5516 1.16568 3 0.000133584 -4.1223
10028 1 1.42857 56.5374 37.3 3 1.18619e-05 -4.12212
10029 1 0.60486 56.5361 34.9684 3 1.27621e-05 -4.12223
10030 1 3.07764 56.5361 34.9684 3 1.2762e-05 -4.12223
10031 1 2.25509 56.5348 32.637 3 1.11233e-05 -4.12233
10032 1 4.72787 56.5348 32.637 3 1.11233e-05 -4.12233
10033 1 3.90625 56.5336 30.3059 3 7.59861e-06 -4.1224
10034 1 6.37903 56.5336 30.3059 3 7.59862e-06 -4.1224
10035 1 5.5581 56.5327 27.9752 3 3.91338e-06 -4.12244
10036 1 8.03088 56.5327 27.9752 3 3.91338e-06 -4.12244
10037 1 7.21036 56.5323 25.6446 3 1.63777e-06 -4.12246
10038 1 9.68314 56.5323 25.6446 3 1.63777e-06 -4.12246
10039 1 8.86274 56.5323 23.3141 3 1.63777e-06 -4.12246
10040 1 11.3355 56.5323 23.3141 3 1.63777e-06 -4.12246
10041 1 10.515 56.5327 20.9835 3 3.91338e-06 -4.12244
10042 1 12.9878 56.5327 20.9835 3 3.91337e-06 -4.12244
10043 1 12.1668 56.5336 18.6527 3 7.59861e-06 -4.1224
10044 1 14.6396 56.5336 18.6527 3 7.59862e-06 -4.1224
10045 1 13.818 56.5348 16.3216 3 1.11233e-05 -4.12233
10046 1 16.2908 56.5348 16.3216 3 1.11233e-05 -4.12233
10047 1 15.4682 56.5361 13.9902 3 1.27621e-05 -4.12223
10048 1 17.941 56.5361 13.9902 3 1.27621e-05 -4.12223
10049 1 17.1173 56.5374 11.6586 3 1.18619e-05 -4.12212
10050 1 19.5901 56.5374 11.6586 3 1.18619e-05 -4.12212
10051 1 18.7651 56.5386 9.32688 3 9.06615e-06 -4.122
10052 1 21.2379 56.5386 9.32688 3 9.06614e-06 -4.122
10053 1 20.4117 56.5395 6.99509 3 5.88395e-06 -4.1219
10054 1 22.8845 56.5395 6.99509 3 5.88394e-06 -4.1219
10055 1 22.0571 56.5402 4.66334 3 3.49757e-06 -4.12182
10056 1 24.5299 56.5402 4.66334 3 3.49759e-06 -4.12182
10057 1 23.7018 56.5406 2.33165 3 2.19143e-06 -4.12177
10058 1 26.1746 56.5406 2.33165 3 2.19143e-06 -4.12177
10059 1 25.346 56.5407 48.9586 3 1.81017e-06 -4.12175
10060 1 27.8188 56.5407 48.9586 3 1.81015e-06 -4.12175
10061 1 1.42726 54.5268 40.7976 3 8.05886e-06 -4.12226
10062 1 0.601521 54.5247 38.4656 3 1.0958e-05 -4.12232
10063 1 3.07431 54.5247 38.4656 3 1.0958e-05 -4.12232
10064 1 2.25019 54.5221 36.1337 3 1.34554e-05 -4.12238
10065 1 4.72298 54.5221 36.1337 3 1.34554e-05 -4.12238
10066 1 3.90034 54.5193 33.802 3 1.40704e-05 -4.12243
10067 1 6.37312 54.5193 33.802 3 1.40704e-05 -4.12243
10068 1 5.55167 54.5166 31.4707 3 1.19593e-05 -4.12246
10069 1 8.02445 54.5166 31.4707 3 1.19593e-05 -4.12246
10070 1 7.20382 54.5144 29.1399 3 7.87667e-06 -4.12248
10071 1 9.6766 54.5144 29.1399 3 7.87667e-06 -4.12248
10072 1 8.85647 54.5129 26.8095 3 3.97123e-06 -4.12249
10073 1 11.3292 54.5129 26.8095 3 3.97123e-06 -4.12249
10074 1 10.5093 54.5124 24.4793 3 2.41598e-06 -4.12249
10075 1 12.9821 54.5124 24.4793 3 2.41598e-06 -4.12249
10076 1 12.1622 54.5129 22.1492 3 3.97122e-06 -4.12249
10077 1 14.635 54.5129 22.1492 3 3.97123e-06 -4.12249
10078 1 13.8148 54.5144 19.8188 3 7.87667e-06 -4.12248
10079 1 16.2876 54.5144 19.8188 3 7.87666e-06 -4.12248
10080 1 15.467 54.5166 17.4879 3 1.19593e-05 -4.12246
10081 1 17.9398 54.5166 17.4879 3 1.19593e-05 -4.12246
10082 1 17.1183 54.5193 15.1566 3 1.40704e-05 -4.12243
10083 1 19.5911 54.5193 15.1566 3 1.40704e-05 -4.12243
10084 1 18.7685 54.5221 12.8249 3 1.34554e-05 -4.12238
10085 1 21.2413 54.5221 12.8249 3 1.34554e-05 -4.12238
10086 1 20.4171 54.5247 10.493 3 1.0958e-05 -4.12232
10087 1 22.8899 54.5247 10.493 3 1.09581e-05 -4.12232
10088 1 22.0642 54.5268 8.16101 3 8.05886e-06 -4.12226
10089 1 24.537 54.5268 8.16101 3 8.05886e-06 -4.12226
10090 1 23.7097 54.5283 5.82911 3 5.81593e-06 -4.12221
10091 1 26.1825 54.5283 5.82911 3 5.81593e-06 -4.12221
10092 1 25.3539 54.5293 3.49738 3 4.47753e-06 -4.12218
10093 1 27.8267 54.5293 3.49738 3 4.47753e-06 -4.12218
10094 1 26.9973 54.5298 1.16578 3 3.89996e-06 -4.12217
10095 1 29.4701 54.5298 1.16578 3 3.89996e-06 -4.12217
10096 1 1.42957 52.5174 44.2961 3 8.29609e-06 -4.12218
10097 1 0.600546 52.5157 41.9645 3 9.67675e-06 -4.12221
10098 1 3.07333 52.5157 41.9645 3 9.67675e-06 -4.12221
10099 1 2.24614 52.5132 39.6326 3 1.15574e-05 -4.12226
10100 1 4.71892 52.5132 39.6326 3 1.15574e-05 -4.12226
10101 1 3.89383 52.5098 37.3005 3 1.4012e-05 -4.12233
10102 1 6.36662 52.5098 37.3005 3 1.40121e-05 -4.12233
10103 1 5.54358 52.5057 34.9684 3 1.63502e-05 -4.12239
10104 1 8.01636 52.5057 34.9684 3 1.63502e-05 -4.12239
10105 1 7.19506 52.5014 32.6366 3 1.70391e-05 -4.12245
10106 1 9.66784 52.5014 32.6366 3 1.70391e-05 -4.12245
10107 1 8.84778 52.4973 30.3053 3 1.49964e-05 -4.12248
10108 1 11.3206 52.4973 30.3053 3 1.49964e-05 -4.12248
10109 1 10.5013 52.4943 27.9746 3 1.09793e-05 -4.12249
10110 1 12.9741 52.4943 27.9746 3 1.09793e-05 -4.12249
10111 1 12.1551 52.4926 25.6444 3 7.73925e-06 -4.12249
10112 1 14.6279 52.4926 25.6444 3 7.73925e-06 -4.12249
10113 1 13.8091 52.4926 23.3143 3 7.73924e-06 -4.12249
10114 1 16.2819 52.4926 23.3143 3 7.73924e-06 -4.12249
10115 1 15.463 52.4943 20.984 3 1.09792e-05 -4.12249
10116 1 17.9357 52.4943 20.984 3 1.09792e-05 -4.12249
10117 1 17.1164 52.4973 18.6533 3 1.49964e-05 -4.12248
10118 1 19.5892 52.4973 18.6533 3 1.49964e-05 -4.12248
10119 1 18.7692 52.5014 16.322 3 1.70391e-05 -4.12245
10120 1 21.242 52.5014 16.322 3 1.70391e-05 -4.12245
10121 1 20.4207 52.5057 13.9902 3 1.63502e-05 -4.12239
10122 1 22.8934 52.5057 13.9902 3 1.63502e-05 -4.12239
10123 1 22.0704 52.5098 11.6581 3 1.40121e-05 -4.12233
10124 1 24.5432 52.5098 11.6581 3 1.40121e-05 -4.12233
10125 1 23.7181 52.5132 9.32602 3 1.15574e-05 -4.12226
10126 1 26.1909 52.5132 9.32602 3 1.15574e-05 -4.12226
10127 1 25.3637 52.5157 6.99411 3 9.67676e-06 -4.12221
10128 1 27.8365 52.5157 6.99411 3 9.67676e-06 -4.12221
10129 1 27.0074 52.5174 4.66251 3 8.29609e-06 -4.12218
10130 1 29.4802 52.5174 4.66251 3 8.29609e-06 -4.12218
10131 1 28.6499 52.5183 2.33117 3 7.52735e-06 -4.12216
10132 1 31.1227 52.5183 2.33117 3 7.52735e-06 -4.12216
10133 1 30.2916 52.5186 48.9586 3 7.22159e-06 -4.12216
10134 1 32.7644 52.5186 48.9586 3 7.22158e-06 -4.12216
10135 1 1.43808 50.5068 47.7934 3 1.18952e-05 -4.12215
10136 1 0.605472 50.5062 45.4628 3 1.26248e-05 -4.12216
10137 1 3.07826 50.5062 45.4628 3 1.26248e-05 -4.12216
10138 1 2.24686 50.5048 43.1318 3 1.38767e-05 -4.12217
10139 1 4.71964 50.5048 43.1318 3 1.38767e-05 -4.12217
10140 1 3.89019 50.5023 40.8005 3 1.53589e-05 -4.1222
10141 1 6.36297 50.5023 40.8005 3 1.53589e-05 -4.1222
10142 1 5.53604 50.4987 38.4686 3 1.67305e-05 -4.12225
10143 1 8.00883 50.4987 38.4686 3 1.67305e-05 -4.12225
10144 1 7.18467 50.4938 36.1363 3 1.86664e-05 -4.12233
10145 1 9.65745 50.4938 36.1363 3 1.86664e-05 -4.12233
10146 1 8.83587 50.488 33.804 3 2.12611e-05 -4.12241
10147 1 11.3087 50.488 33.804 3 2.12611e-05 -4.12241
10148 1 10.4891 50.4822 31.472 3 2.30165e-05 -4.12246
10149 1 12.9619 50.4822 31.472 3 2.30165e-05 -4.12246
10150 1 12.1438 50.477 29.1406 3 2.21126e-05 -4.12249
10151 1 14.6166 50.477 29.1406 3 2.21126e-05 -4.12249
10152 1 13.7992 50.4735 26.8098 3 1.91502e-05 -4.1225
10153 1 16.272 50.4735 26.8098 3 1.91502e-05 -4.1225
10154 1 15.4549 50.4723 24.4793 3 1.74186e-05 -4.1225
10155 1 17.9277 50.4723 24.4793 3 1.74186e-05 -4.1225
10156 1 17.1106 50.4735 22.1489 3 1.91502e-05 -4.1225
10157 1 19.5834 50.4735 22.1489 3 1.91502e-05 -4.1225
10158 1 18.766 50.477 19.818 3 2.21126e-05 -4.12249
10159 1 21.2388 50.477 19.818 3 2.21126e-05 -4.12249
10160 1 20.4207 50.4822 17.4866 3 2.30165e-05 -4.12246
10161 1 22.8934 50.4822 17.4866 3 2.30165e-05 -4.12246
10162 1 22.0739 50.488 15.1546 3 2.12611e-05 -4.12241
10163 1 24.5467 50.488 15.1546 3 2.12611e-05 -4.12241
10164 1 23.7251 50.4938 12.8223 3 1.86664e-05 -4.12233
10165 1 26.1979 50.4938 12.8223 3 1.86664e-05 -4.12233
10166 1 25.3738 50.4987 10.4901 3 1.67305e-05 -4.12225
10167 1 27.8465 50.4987 10.4901 3 1.67305e-05 -4.12225
10168 1 27.0196 50.5023 8.15817 3 1.53589e-05 -4.1222
10169 1 29.4924 50.5023 8.15817 3 1.53589e-05 -4.1222
10170 1 28.6629 50.5048 5.82678 3 1.38767e-05 -4.12217
10171 1 31.1357 50.5048 5.82678 3 1.38767e-05 -4.12217
10172 1 30.3043 50.5062 3.49585 3 1.26248e-05 -4.12216
10173 1 32.7771 50.5062 3.49585 3 1.26248e-05 -4.12216
10174 1 31.9445 50.5068 1.16525 3 1.18952e-05 -4.12215
10175 1 34.4173 50.5068 1.16525 3 1.18952e-05 -4.12215
10176 1 2.25576 48.4942 46.629 3 1.78386e-05 -4.12214
10177 1 4.72854 48.4942 46.629 3 1.78386e-05 -4.12214
10178 1 3.89423 48.4932 44.299 3 1.96273e-05 -4.12214
10179 1 6.36701 48.4932 44.299 3 1.96273e-05 -4.12214
10180 1 5.53452 48.4913 41.9686 3 2.20453e-05 -4.12215
10181 1 8.00731 48.4913 41.9686 3 2.20453e-05 -4.12215
10182 1 7.17751 48.4881 39.6374 3 2.41335e-05 -4.12217
10183 1 9.65029 48.4881 39.6374 3 2.41335e-05 -4.12217
10184 1 8.82387 48.4832 37.3054 3 2.49439e-05 -4.12223
10185 1 11.2967 48.4832 37.3054 3 2.49439e-05 -4.12223
10186 1 10.4739 48.4767 34.9729 3 2.64238e-05 -4.12233
10187 1 12.9467 48.4767 34.9729 3 2.64238e-05 -4.12233
10188 1 12.1271 48.4693 32.6402 3 3.04308e-05 -4.12241
10189 1 14.5999 48.4693 32.6402 3 3.04308e-05 -4.12241
10190 1 13.7829 48.4619 30.3078 3 3.52972e-05 -4.12247
10191 1 16.2557 48.4619 30.3078 3 3.52972e-05 -4.12247
10192 1 15.4403 48.456 27.976 3 3.74501e-05 -4.1225
10193 1 17.9131 48.456 27.976 3 3.74501e-05 -4.1225
10194 1 17.0985 48.4526 25.6448 3 3.66337e-05 -4.12251
10195 1 19.5713 48.4526 25.6448 3 3.66337e-05 -4.12251
10196 1 18.7569 48.4526 23.3138 3 3.66337e-05 -4.12251
10197 1 21.2297 48.4526 23.3138 3 3.66337e-05 -4.12251
10198 1 20.4151 48.456 20.9826 3 3.745e-05 -4.1225
10199 1 22.8878 48.456 20.9826 3 3.745e-05 -4.1225
10200 1 22.0724 48.4619 18.6508 3 3.52972e-05 -4.12247
10201 1 24.5452 48.4619 18.6508 3 3.52972e-05 -4.12247
10202 1 23.7282 48.4693 16.3184 3 3.04307e-05 -4.12241
10203 1 26.201 48.4693 16.3184 3 3.04307e-05 -4.12241
10204 1 25.3815 48.4767 13.9857 3 2.64237e-05 -4.12233
10205 1 27.8543 48.4767 13.9857 3 2.64237e-05 -4.12233
10206 1 27.0315 48.4832 11.6532 3 2.49439e-05 -4.12223
10207 1 29.5043 48.4832 11.6532 3 2.49439e-05 -4.12223
10208 1 28.6779 48.4881 9.32123 3 2.41335e-05 -4.12217
10209 1 31.1506 48.4881 9.32123 3 2.41335e-05 -4.12217
10210 1 30.3208 48.4913 6.99006 3 2.20453e-05 -4.12215
10211 1 32.7936 48.4913 6.99006 3 2.20453e-05 -4.12215
10212 1 31.9611 48.4932 4.6596 3 1.96273e-05 -4.12214
10213 1 34.4339 48.4932 4.6596 3 1.96273e-05 -4.12214
10214 1 33.5996 48.4942 2.32967 3 1.78386e-05 -4.12214
10215 1 36.0724 48.4942 2.32967 3 1.78386e-05 -4.12214
10216 1 35.2372 48.4945 48.9586 3 1.72512e-05 -4.12214
10217 1 37.71 48.4945 48.9586 3 1.72512e-05 -4.12214
10218 1 3.90831 46.4812 47.7943 3 2.36101e-05 -4.12212
10219 1 6.3811 46.4812 47.7943 3 2.36101e-05 -4.12212
10220 1 5.54346 46.4807 45.4655 3 2.56145e-05 -4.12212
10221 1 8.01625 46.4807 45.4655 3 2.56145e-05 -4.12212
10222 1 7.1801 46.4794 43.1363 3 2.95039e-05 -4.12211
10223 1 9.65288 46.4794 43.1363 3 2.95039e-05 -4.12211
10224 1 8.81927 46.4771 40.8063 3 3.46056e-05 -4.1221
10225 1 11.2921 46.4771 40.8063 3 3.46056e-05 -4.1221
10226 1 10.462 46.4731 38.4753 3 3.8725e-05 -4.12212
10227 1 12.9348 46.4731 38.4753 3 3.8725e-05 -4.12212
10228 1 12.1093 46.467 36.1432 3 3.9276e-05 -4.12218
10229 1 14.5821 46.467 36.1432 3 3.9276e-05 -4.12218
10230 1 13.7614 46.4588 33.8101 3 4.07035e-05 -4.12231
10231 1 16.2342 46.4588 33.8101 3 4.07035e-05 -4.12231
10232 1 15.4177 46.4495 31.4768 3 4.82067e-05 -4.1224
10233 1 17.8905 46.4495 31.4768 3 4.82067e-05 -4.1224
10234 1 17.0771 46.4409 29.1438 3 6.04472e-05 -4.12248
10235 1 19.5499 46.4409 29.1438 3 6.04472e-05 -4.12248
10236 1 18.7384 46.4347 26.8113 3 6.90738e-05 -4.12252
10237 1 21.2111 46.4347 26.8113 3 6.90738e-05 -4.12252
10238 1 20.4005 46.4324 24.4793 3 7.12415e-05 -4.12253
10239 1 22.8733 46.4324 24.4793 3 7.12415e-05 -4.12253
10240 1 22.0626 46.4347 22.1473 3 6.90738e-05 -4.12252
10241 1 24.5354 46.4347 22.1473 3 6.90738e-05 -4.12252
10242 1 23.7239 46.4409 19.8148 3 6.04472e-05 -4.12248
10243 1 26.1966 46.4409 19.8148 3 6.04472e-05 -4.12248
10244 1 25.3832 46.4495 17.4818 3 4.82066e-05 -4.1224
10245 1 27.856 46.4495 17.4818 3 4.82066e-05 -4.1224
10246 1 27.0395 46.4588 15.1485 3 4.07035e-05 -4.12231
10247 1 29.5123 46.4588 15.1485 3 4.07035e-05 -4.12231
10248 1 28.6916 46.467 12.8155 3 3.92759e-05 -4.12218
10249 1 31.1644 46.467 12.8155 3 3.92759e-05 -4.12218
10250 1 30.3389 46.4731 10.4833 3 3.8725e-05 -4.12212
10251 1 32.8117 46.4731 10.4833 3 3.8725e-05 -4.12212
10252 1 31.9817 46.4771 8.15231 3 3.46057e-05 -4.1221
10253 1 34.4544 46.4771 8.15231 3 3.46057e-05 -4.1221
10254 1 33.6208 46.4794 5.82233 3 2.95039e-05 -4.12211
10255 1 36.0936 46.4794 5.82233 3 2.95039e-05 -4.12211
10256 1 35.2575 46.4807 3.4931 3 2.56145e-05 -4.12212
10257 1 37.7303 46.4807 3.4931 3 2.56145e-05 -4.12212
10258 1 36.8926 46.4812 1.16432 3 2.36101e-05 -4.12212
10259 1 39.3654 46.4812 1.16432 3 2.36101e-05 -4.12212
10260 1 7.19527 44.4667 46.631 3 3.16705e-05 -4.12209
10261 1 9.66806 44.4667 46.631 3 3.16705e-05 -4.12209
10262 1 8.82781 44.4662 44.3031 3 3.62616e-05 -4.12207
10263 1 11.3006 44.4662 44.3031 3 3.62616e-05 -4.12207
10264 1 10.4625 44.4648 41.9745 3 4.42897e-05 -4.12205
10265 1 12.9352 44.4648 41.9745 3 4.42897e-05 -4.12205
10266 1 12.1005 44.4622 39.645 3 5.52161e-05 -4.12202
10267 1 14.5733 44.4622 39.645 3 5.52161e-05 -4.12202
10268 1 13.7433 44.4575 37.3141 3 6.50011e-05 -4.12201
10269 1 16.2161 44.4575 37.3141 3 6.50011e-05 -4.12201
10270 1 15.3921 44.4501 34.9816 3 6.6379e-05 -4.12208
10271 1 17.8649 44.4501 34.9816 3 6.6379e-05 -4.12208
10272 1 17.0474 44.44 32.6477 3 6.90114e-05 -4.12229
10273 1 19.5201 44.44 32.6477 3 6.90114e-05 -4.12229
10274 1 18.708 44.429 30.3136 3 8.3298e-05 -4.12236
10275 1 21.1807 44.429 30.3136 3 8.3298e-05 -4.12236
10276 1 20.3725 44.4195 27.9795 3 0.000113302 -4.12248
10277 1 22.8453 44.4195 27.9795 3 0.000113302 -4.12248
10278 1 22.0394 44.4138 25.646 3 0.000134837 -4.12254
10279 1 24.5122 44.4138 25.646 3 0.000134837 -4.12254
10280 1 23.7071 44.4138 23.3127 3 0.000134837 -4.12254
10281 1 26.1798 44.4138 23.3127 3 0.000134837 -4.12254
10282 1 25.374 44.4195 20.9791 3 0.000113302 -4.12248
10283 1 27.8467 44.4195 20.9791 3 0.000113302 -4.12248
10284 1 27.0385 44.429 18.6451 3 8.3298e-05 -4.12236
10285 1 29.5113 44.429 18.6451 3 8.3298e-05 -4.12236
10286 1 28.6991 44.44 16.3109 3 6.90114e-05 -4.12229
10287 1 31.1719 44.44 16.3109 3 6.90114e-05 -4.12229
10288 1 30.3544 44.4501 13.9771 3 6.6379e-05 -4.12208
10289 1 32.8272 44.4501 13.9771 3 6.6379e-05 -4.12208
10290 1 32.0032 44.4575 11.6445 3 6.50011e-05 -4.12201
10291 1 34.476 44.4575 11.6445 3 6.50011e-05 -4.12201
10292 1 33.646 44.4622 9.31364 3 5.52162e-05 -4.12202
10293 1 36.1188 44.4622 9.31364 3 5.52162e-05 -4.12202
10294 1 35.284 44.4648 6.9841 3 4.42897e-05 -4.12205
10295 1 37.7568 44.4648 6.9841 3 4.42897e-05 -4.12205
10296 1 36.9187 44.4662 4.65555 3 3.62616e-05 -4.12207
10297 1 39.3915 44.4662 4.65555 3 3.62616e-05 -4.12207
10298 1 38.5512 44.4667 2.32763 3 3.16705e-05 -4.12209
10299 1 41.024 44.4667 2.32763 3 3.16705e-05 -4.12209
10300 1 40.1827 44.4669 48.9586 3 3.02465e-05 -4.1221
10301 1 42.6555 44.4669 48.9586 3 3.02465e-05 -4.1221
10302 1 8.85033 42.4514 47.7953 3 3.88216e-05 -4.12204
10303 1 11.3231 42.4514 47.7953 3 3.88216e-05 -4.12204
10304 1 10.4784 42.4513 45.4685 3 4.29685e-05 -4.12203
10305 1 12.9512 42.4513 45.4685 3 4.29685e-05 -4.12203
10306 1 12.1081 42.4508 43.1414 3 5.21401e-05 -4.122
10307 1 14.5808 42.4508 43.1414 3 5.21401e-05 -4.122
10308 1 13.7405 42.4495 40.8135 3 6.79327e-05 -4.12195
10309 1 16.2133 42.4495 40.8135 3 6.79327e-05 -4.12195
10310 1 15.3774 42.4468 38.4844 3 9.11994e-05 -4.12188
10311 1 17.8502 42.4468 38.4844 3 9.11994e-05 -4.12188
10312 1 17.0205 42.4416 36.1535 3 0.000115746 -4.12183
10313 1 19.4933 42.4416 36.1535 3 0.000115746 -4.12183
10314 1 18.6717 42.4328 33.8204 3 0.000121899 -4.12189
10315 1 21.1445 42.4328 33.8204 3 0.000121899 -4.12189
10316 1 20.3318 42.4205 31.4854 3 0.000131069 -4.12226
10317 1 22.8046 42.4205 31.4854 3 0.000131069 -4.12226
10318 1 21.9988 42.408 29.1501 3 0.000154237 -4.12225
10319 1 24.4716 42.408 29.1501 3 0.000154237 -4.12225
10320 1 23.671 42.3982 26.8146 3 0.000231706 -4.12249
10321 1 26.1438 42.3982 26.8146 3 0.000231706 -4.12249
10322 1 25.346 42.3944 24.4793 3 0.00027212 -4.12258
10323 1 27.8188 42.3944 24.4793 3 0.00027212 -4.12258
10324 1 27.021 42.3982 22.144 3 0.000231706 -4.12249
10325 1 29.4938 42.3982 22.144 3 0.000231706 -4.12249
10326 1 28.6933 42.408 19.8085 3 0.000154237 -4.12225
10327 1 31.1661 42.408 19.8085 3 0.000154237 -4.12225
10328 1 30.3602 42.4205 17.4732 3 0.000131069 -4.12226
10329 1 32.833 42.4205 17.4732 3 0.000131069 -4.12226
10330 1 32.0204 42.4328 15.1382 3 0.000121899 -4.12189
10331 1 34.4931 42.4328 15.1382 3 0.000121899 -4.12189
10332 1 33.6716 42.4416 12.8051 3 0.000115746 -4.12183
10333 1 36.1444 42.4416 12.8051 3 0.000115746 -4.12183
10334 1 35.3147 42.4468 10.4743 3 9.11994e-05 -4.12188
10335 1 37.7875 42.4468 10.4743 3 9.11994e-05 -4.12188
10336 1 36.9515 42.4495 8.14516 3 6.79327e-05 -4.12195
10337 1 39.4243 42.4495 8.14516 3 6.79327e-05 -4.12195
10338 1 38.584 42.4508 5.81726 3 5.21401e-05 -4.122
10339 1 41.0568 42.4508 5.81726 3 5.21401e-05 -4.122
10340 1 40.2137 42.4513 3.4901 3 4.29685e-05 -4.12203
10341 1 42.6864 42.4513 3.4901 3 4.29685e-05 -4.12203
10342 1 41.8417 42.4514 1.16333 3 3.88216e-05 -4.12204
10343 1 44.3145 42.4514 1.16333 3 3.88216e-05 -4.12204
10344 1 12.1326 40.4348 46.6326 3 5.18024e-05 -4.12196
10345 1 14.6054 40.4348 46.6326 3 5.18024e-05 -4.12196
10346 1 13.7568 40.4348 44.3065 3 6.06629e-05 -4.12193
10347 1 16.2296 40.4348 44.3065 3 6.06629e-05 -4.12193
10348 1 15.3833 40.4346 41.9799 3 7.80201e-05 -4.12187
10349 1 17.856 40.4346 41.9799 3 7.80201e-05 -4.12187
10350 1 17.0133 40.4336 39.6526 3 0.000108536 -4.12178
10351 1 19.4861 40.4336 39.6526 3 0.000108536 -4.12178
10352 1 18.6488 40.431 37.324 3 0.000158298 -4.12165
10353 1 21.1216 40.431 37.324 3 0.000158298 -4.12165
10354 1 20.2926 40.4256 34.9932 3 0.000221815 -4.1215
10355 1 22.7654 40.4256 34.9932 3 0.000221815 -4.1215
10356 1 21.9476 40.4155 32.6594 3 0.000248953 -4.12152
10357 1 24.4204 40.4155 32.6594 3 0.000248953 -4.12152
10358 1 23.6153 40.4005 30.3228 3 0.000290858 -4.12227
10359 1 26.0881 40.4005 30.3228 3 0.000290857 -4.12227
10360 1 25.2917 40.3872 27.9861 3 0.000307363 -4.122
10361 1 27.7645 40.3872 27.9861 3 0.000307363 -4.122
10362 1 26.9755 40.3784 25.6483 3 0.000523821 -4.12257
10363 1 29.4483 40.3784 25.6483 3 0.000523821 -4.12257
10364 1 28.6621 40.3784 23.3103 3 0.000523821 -4.12257
10365 1 31.1349 40.3784 23.3103 3 0.000523821 -4.12257
10366 1 30.346 40.3872 20.9725 3 0.000307363 -4.122
10367 1 32.8187 40.3872 20.9725 3 0.000307363 -4.122
10368 1 32.0223 40.4005 18.6358 3 0.000290858 -4.12227
10369 1 34.4951 40.4005 18.6358 3 0.000290858 -4.12227
10370 1 33.6901 40.4155 16.2992 3 0.000248953 -4.12152
10371 1 36.1629 40.4155 16.2992 3 0.000248953 -4.12152
10372 1 35.345 40.4256 13.9654 3 0.000221816 -4.1215
10373 1 37.8178 40.4256 13.9654 3 0.000221816 -4.1215
10374 1 36.9888 40.431 11.6346 3 0.000158298 -4.12165
10375 1 39.4616 40.431 11.6346 3 0.000158298 -4.12165
10376 1 38.6244 40.4336 9.306 3 0.000108536 -4.12178
10377 1 41.0971 40.4336 9.306 3 0.000108536 -4.12178
10378 1 40.2544 40.4346 6.97871 3 7.80201e-05 -4.12187
10379 1 42.7272 40.4346 6.97871 3 7.80201e-05 -4.12187
10380 1 41.8808 40.4348 4.65217 3 6.06629e-05 -4.12193
10381 1 44.3536 40.4348 4.65217 3 6.06629e-05 -4.12193
10382 1 43.5051 40.4348 2.326 3 5.18024e-05 -4.12196
10383 1 45.9778 40.4348 2.326 3 5.18024e-05 -4.12196
10384 1 45.1283 40.4348 48.9586 3 4.90573e-05 -4.12197
10385 1 47.6011 40.4348 48.9586 3 4.90573e-05 -4.12197
10386 1 13.7911 38.4171 47.7957 3 6.55492e-05 -4.12185
10387 1 16.2639 38.4171 47.7957 3 6.55492e-05 -4.12185
10388 1 15.4095 38.4173 45.4699 3 7.3238e-05 -4.12182
10389 1 17.8823 38.4173 45.4699 3 7.3238e-05 -4.12182
10390 1 17.0294 38.4176 43.144 3 9.07642e-05 -4.12177
10391 1 19.5022 38.4176 43.144 3 9.07642e-05 -4.12177
10392 1 18.652 38.4177 40.8179 3 0.00012367 -4.12167
10393 1 21.1248 38.4177 40.8179 3 0.00012367 -4.12167
10394 1 20.2791 38.4172 38.4912 3 0.000183731 -4.12151
10395 1 22.7519 38.4172 38.4912 3 0.000183731 -4.12151
10396 1 21.9131 38.4151 36.1632 3 0.000293667 -4.12125
10397 1 24.3859 38.4151 36.1632 3 0.000293667 -4.12125
10398 1 23.5578 38.4098 33.8328 3 0.000468568 -4.12089
10399 1 26.0306 38.4098 33.8328 3 0.000468568 -4.12089
10400 1 25.2186 38.3984 31.4983 3 0.00059098 -4.12071
10401 1 27.6914 38.3984 31.4983 3 0.00059098 -4.12071
10402 1 26.8988 38.3799 29.1594 3 0.000820378 -4.12241
10403 1 29.3716 38.3799 29.1594 3 0.000820378 -4.12241
10404 1 28.5896 38.3679 26.8212 3 0.000708783 -4.12138
10405 1 31.0624 38.3679 26.8212 3 0.000708783 -4.12138
10406 1 30.2916 38.3626 24.4793 3 0.00124499 -4.12296
10407 1 32.7644 38.3626 24.4793 3 0.00124499 -4.12296
10408 1 31.9936 38.3679 22.1374 3 0.000708783 -4.12138
10409 1 34.4664 38.3679 22.1374 3 0.000708783 -4.12138
10410 1 33.6844 38.3799 19.7992 3 0.000820378 -4.12241
10411 1 36.1572 38.3799 19.7992 3 0.000820378 -4.12241
10412 1 35.3646 38.3984 17.4603 3 0.00059098 -4.12071
10413 1 37.8374 38.3984 17.4603 3 0.00059098 -4.12071
10414 1 37.0254 38.4098 15.1259 3 0.000468568 -4.12089
10415 1 39.4982 38.4098 15.1259 3 0.000468568 -4.12089
10416 1 38.6701 38.4151 12.7954 3 0.000293667 -4.12125
10417 1 41.1429 38.4151 12.7954 3 0.000293667 -4.12125
10418 1 40.3041 38.4172 10.4675 3 0.000183731 -4.12151
10419 1 42.7769 38.4172 10.4675 3 0.000183731 -4.12151
10420 1 41.9312 38.4177 8.14077 3 0.00012367 -4.12167
10421 1 44.404 38.4177 8.14077 3 0.00012367 -4.12167
10422 1 43.5538 38.4176 5.81463 3 9.07642e-05 -4.12177
10423 1 46.0266 38.4176 5.81463 3 9.07642e-05 -4.12177
10424 1 45.1737 38.4173 3.48873 3 7.3238e-05 -4.12182
10425 1 47.6465 38.4173 3.48873 3 7.3238e-05 -4.12182
10426 1 46.7921 38.4171 1.16291 3 6.55492e-05 -4.12185
10427 1 49.2649 38.4171 1.16291 3 6.55492e-05 -4.12185
10428 1 17.0669 36.3986 46.6323 3 9.18568e-05 -4.12168
10429 1 19.5397 36.3986 46.6323 3 9.18568e-05 -4.12168
10430 1 18.6798 36.399 44.306 3 0.000108355 -4.12161
10431 1 21.1525 36.399 44.306 3 0.000108355 -4.12161
10432 1 20.2945 36.3997 41.9799 3 0.000142159 -4.1215
10433 1 22.7673 36.3997 41.9799 3 0.000142159 -4.1215
10434 1 21.9124 36.4003 39.6538 3 0.000206701 -4.12131
10435 1 24.3852 36.4003 39.6538 3 0.000206701 -4.12131
10436 1 23.5355 36.4004 37.3276 3 0.000333509 -4.12101
10437 1 26.0083 36.4004 37.3276 3 0.000333509 -4.12101
10438 1 25.1671 36.3992 35.0006 3 0.000598223 -4.12049
10439 1 27.6399 36.3992 35.0006 3 0.000598223 -4.12049
10440 1 26.8129 36.3945 32.6711 3 0.00114061 -4.1196
10441 1 29.2857 36.3945 32.6711 3 0.00114061 -4.1196
10442 1 28.4825 36.3823 30.3364 3 0.00177736 -4.11866
10443 1 30.9553 36.3823 30.3364 3 0.00177736 -4.11866
10444 1 30.1852 36.3588 27.9942 3 0.00336124 -4.12315
10445 1 32.658 36.3588 27.9942 3 0.00336124 -4.12315
10446 1 31.8995 36.3546 25.6544 3 0.00208926 -4.12065
10447 1 34.3723 36.3546 25.6544 3 0.00208926 -4.12065
10448 1 33.6293 36.3546 23.3043 3 0.00208926 -4.12065
10449 1 36.1021 36.3546 23.3043 3 0.00208926 -4.12065
10450 1 35.3436 36.3588 20.9644 3 0.00336124 -4.12315
10451 1 37.8164 36.3588 20.9644 3 0.00336124 -4.12315
10452 1 37.0463 36.3823 18.6222 3 0.00177737 -4.11866
10453 1 39.5191 36.3823 18.6222 3 0.00177737 -4.11866
10454 1 38.7159 36.3945 16.2875 3 0.00114061 -4.1196
10455 1 41.1887 36.3945 16.2875 3 0.00114061 -4.1196
10456 1 40.3617 36.3992 13.9581 3 0.000598223 -4.12049
10457 1 42.8345 36.3992 13.9581 3 0.000598223 -4.12049
10458 1 41.9933 36.4004 11.631 3 0.00033351 -4.12101
10459 1 44.466 36.4004 11.631 3 0.00033351 -4.12101
10460 1 43.6164 36.4003 9.30478 3 0.000206702 -4.12131
10461 1 46.0892 36.4003 9.30478 3 0.000206702 -4.12131
10462 1 45.2343 36.3997 6.97872 3 0.000142159 -4.1215
10463 1 47.7071 36.3997 6.97872 3 0.000142159 -4.1215
10464 1 46.849 36.399 4.65258 3 0.000108355 -4.12161
10465 1 49.3218 36.399 4.65258 3 0.000108355 -4.12161
10466 1 48.4619 36.3986 2.32633 3 9.18568e-05 -4.12168
10467 1 50.9347 36.3986 2.32633 3 9.18568e-05 -4.12168
10468 1 50.0739 36.3984 2.28453e-09 3 8.69562e-05 -4.12169
10469 1 52.5467 36.3984 2.29206e-09 3 8.69562e-05 -4.12169
10470 1 18.7302 34.3792 47.7948 3 0.000115414 -4.12147
10471 1 21.2029 34.3792 47.7948 3 0.000115414 -4.12147
10472 1 20.3354 34.3796 45.4671 3 0.000127924 -4.12141
10473 1 22.8082 34.3796 45.4671 3 0.000127924 -4.12141
10474 1 21.9417 34.3803 43.1397 3 0.000158073 -4.12129
10475 1 24.4145 34.3803 43.1397 3 0.000158073 -4.12129
10476 1 23.55 34.3813 40.8125 3 0.000219406 -4.12107
10477 1 26.0228 34.3813 40.8125 3 0.000219406 -4.12107
10478 1 25.1616 34.3823 38.4858 3 0.00034635 -4.12071
10479 1 27.6344 34.3823 38.4858 3 0.00034635 -4.12071
10480 1 26.7787 34.3831 36.1595 3 0.000630913 -4.12007
10481 1 29.2515 34.3831 36.1595 3 0.000630913 -4.12007
10482 1 28.4055 34.383 33.8334 3 0.00135468 -4.11886
10483 1 30.8782 34.383 33.8334 3 0.00135468 -4.11886
10484 1 30.0506 34.3799 31.5058 3 0.00346241 -4.11633
10485 1 32.5233 34.3799 31.5058 3 0.00346241 -4.11633
10486 1 31.7336 34.3684 29.1724 3 0.00841238 -4.11182
10487 1 34.2064 34.3684 29.1724 3 0.00841238 -4.11182
10488 1 33.4869 34.339 26.8251 3 0.0361452 -4.12628
10489 1 35.9597 34.339 26.8251 3 0.0361452 -4.12628
10490 1 35.2372 34.3611 24.4793 3 0.0111429 -4.10153
10491 1 37.71 34.3611 24.4793 3 0.0111429 -4.10153
10492 1 36.9874 34.339 22.1335 3 0.0361452 -4.12628
10493 1 39.4602 34.339 22.1335 3 0.0361452 -4.12628
10494 1 38.7407 34.3684 19.7862 3 0.00841238 -4.11182
10495 1 41.2135 34.3684 19.7862 3 0.00841238 -4.11182
10496 1 40.4238 34.3799 17.4528 3 0.00346242 -4.11633
10497 1 42.8966 34.3799 17.4528 3 0.00346242 -4.11633
10498 1 42.0689 34.383 15.1253 3 0.00135468 -4.11886
10499 1 44.5417 34.383 15.1253 3 0.00135468 -4.11886
10500 1 43.6956 34.3831 12.7991 3 0.000630913 -4.12007
10501 1 46.1684 34.3831 12.7991 3 0.000630913 -4.12007
10502 1 45.3127 34.3823 10.4728 3 0.00034635 -4.12071
10503 1 47.7855 34.3823 10.4728 3 0.00034635 -4.12071
10504 1 46.9243 34.3813 8.14609 3 0.000219406 -4.12107
10505 1 49.3971 34.3813 8.14609 3 0.000219406 -4.12107
10506 1 48.5326 34.3803 5.81895 3 0.000158073 -4.12129
10507 1 51.0054 34.3803 5.81895 3 0.000158073 -4.12129
10508 1 50.1389 34.3796 3.49149 3 0.000127924 -4.12141
10509 1 52.6117 34.3796 3.49149 3 0.000127924 -4.12141
10510 1 51.7442 34.3792 1.16385 3 0.000115414 -4.12147
10511 1 54.217 34.3792 1.16385 3 0.000115414 -4.12147
10512 1 21.9977 32.3599 46.6288 3 0.000142377 -4.12113
10513 1 24.4705 32.3599 46.6288 3 0.000142377 -4.12113
10514 1 23.5954 32.3605 44.299 3 0.000163748 -4.12102
10515 1 26.0682 32.3605 44.299 3 0.000163748 -4.12102
10516 1 25.1938 32.3615 41.9694 3 0.000209208 -4.12082
10517 1 27.6666 32.3615 41.9694 3 0.000209208 -4.12082
10518 1 26.7937 32.3628 39.64 3 0.00030275 -4.12045
10519 1 29.2665 32.3628 39.64 3 0.00030275 -4.12045
10520 1 28.3961 32.3642 37.3111 3 0.00051239 -4.11977
10521 1 30.8689 32.3642 37.3111 3 0.00051239 -4.11977
10522 1 30.0028 32.3657 34.9828 3 0.00106837 -4.11841
10523 1 32.4756 32.3657 34.9828 3 0.00106837 -4.11841
10524 1 31.6179 32.3668 32.6555 3 0.00296101 -4.11528
10525 1 34.0906 32.3668 32.6555 3 0.00296101 -4.11528
10526 1 33.2524 32.3659 30.3292 3 0.0128667 -4.10575
10527 1 35.7251 32.3659 30.3292 3 0.0128667 -4.10575
10528 1 34.9472 32.3588 28.0005 3 0.140712 -4.0469
10529 1 37.42 32.3588 28.0005 3 0.140712 -4.0469
10530 1 36.9106 32.3521 25.6463 5 5.31346 -4.04848
10531 1 39.3834 32.3521 25.6463 5 5.31346 -4.04848
10532 1 38.5093 32.3521 23.3123 5 5.31346 -4.04848
10533 1 40.9821 32.3521 23.3123 5 5.31346 -4.04848
10534 1 40.4727 32.3588 20.9581 3 0.140712 -4.0469
10535 1 42.9455 32.3588 20.9581 3 0.140712 -4.0469
10536 1 42.1676 32.3659 18.6294 3 0.0128667 -4.10575
10537 1 44.6403 32.3659 18.6294 3 0.0128667 -4.10575
10538 1 43.8021 32.3668 16.3031 3 0.00296101 -4.11528
10539 1 46.2748 32.3668 16.3031 3 0.00296101 -4.11528
10540 1 45.4171 32.3657 13.9758 3 0.00106837 -4.11841
10541 1 47.8899 32.3657 13.9758 3 0.00106837 -4.11841
10542 1 47.0238 32.3642 11.6475 3 0.00051239 -4.11977
10543 1 49.4966 32.3642 11.6475 3 0.00051239 -4.11977
10544 1 48.6262 32.3628 9.31858 3 0.00030275 -4.12045
10545 1 51.099 32.3628 9.31858 3 0.00030275 -4.12045
10546 1 50.2261 32.3615 6.98921 3 0.000209208 -4.12082
10547 1 52.6989 32.3615 6.98921 3 0.000209208 -4.12082
10548 1 51.8245 32.3605 4.65959 3 0.000163749 -4.12102
10549 1 54.2973 32.3605 4.65959 3 0.000163749 -4.12102
10550 1 53.4222 32.3599 2.32983 3 0.000142377 -4.12113
10551 1 55.895 32.3599 2.32983 3 0.000142377 -4.12113
10552 1 55.0194 32.3597 2.87993e-09 3 0.00013603 -4.12116
10553 1 57.4922 32.3597 2.88576e-09 3 0.00013603 -4.12116
10554 1 23.6678 30.3403 47.7924 3 0.000141586 -4.12074
10555 1 26.1406 30.3403 47.7924 3 0.000141586 -4.12074
10556 1 25.257 30.3408 45.46 3 0.000154623 -4.12067
10557 1 27.7297 30.3408 45.46 3 0.000154623 -4.12067
10558 1 26.8461 30.3417 43.1275 3 0.00018524 -4.12051
10559 1 29.3189 30.3417 43.1275 3 0.00018524 -4.12051
10560 1 28.4352 30.343 40.7947 3 0.000246691 -4.12024
10561 1 30.908 30.343 40.7947 3 0.000246691 -4.12024
10562 1 30.0243 30.3448 38.4616 3 0.000372786 -4.11979
10563 1 32.4971 30.3448 38.4616 3 0.000372786 -4.11979
10564 1 31.6132 30.3469 36.1279 3 0.000661326 -4.11905
10565 1 34.086 30.3469 36.1279 3 0.000661326 -4.11905
10566 1 33.2017 30.3494 33.7931 3 0.00146478 -4.1177
10567 1 35.6744 30.3494 33.7931 3 0.00146478 -4.1177
10568 1 34.7891 30.3523 31.4565 3 0.00450872 -4.11471
10569 1 37.2619 30.3523 31.4565 3 0.00450872 -4.11471
10570 1 36.3728 30.3548 29.1174 3 0.0254563 -4.10472
10571 1 38.8456 30.3548 29.1174 3 0.0254563 -4.10472
10572 1 37.9139 30.3458 26.7868 5 7.69492 -4.05571
10573 1 40.3867 30.3458 26.7868 5 7.69492 -4.05571
10574 1 38.9463 30.3079 24.4793 5 2.29704 -3.99361
10575 1 41.4191 30.3079 24.4793 5 2.29704 -3.99361
10576 1 39.9788 30.3458 22.1719 5 7.69492 -4.05571
10577 1 42.4516 30.3458 22.1719 5 7.69492 -4.05571
10578 1 41.5198 30.3548 19.8412 3 0.0254563 -4.10472
10579 1 43.9926 30.3548 19.8412 3 0.0254563 -4.10472
10580 1 43.1036 30.3523 17.5021 3 0.00450872 -4.11471
10581 1 45.5763 30.3523 17.5021 3 0.00450872 -4.11471
10582 1 44.691 30.3494 15.1655 3 0.00146478 -4.1177
10583 1 47.1638 30.3494 15.1655 3 0.00146478 -4.1177
10584 1 46.2795 30.3469 12.8307 3 0.000661326 -4.11905
10585 1 48.7523 30.3469 12.8307 3 0.000661326 -4.11905
10586 1 47.8684 30.3448 10.497 3 0.000372786 -4.11979
10587 1 50.3412 30.3448 10.497 3 0.000372786 -4.11979
10588 1 49.4575 30.343 8.16388 3 0.000246692 -4.12024
10589 1 51.9303 30.343 8.16388 3 0.000246692 -4.12024
10590 1 51.0466 30.3417 5.83113 3 0.00018524 -4.12051
10591 1 53.5194 30.3417 5.83113 3 0.00018524 -4.12051
10592 1 52.6357 30.3408 3.4986 3 0.000154623 -4.12067
10593 1 55.1085 30.3408 3.4986 3 0.000154623 -4.12067
10594 1 54.2249 30.3403 1.16619 3 0.000141586 -4.12074
10595 1 56.6977 30.3403 1.16619 3 0.000141586 -4.12074
10596 1 26.9272 28.3211 46.6239 3 0.000129519 -4.1202
10597 1 29.4 28.3211 46.6239 3 0.000129519 -4.1202
10598 1 28.5081 28.3219 44.2889 3 0.000149472 -4.12007
10599 1 30.9809 28.3219 44.2889 3 0.000149472 -4.12007
10600 1 30.0883 28.3233 41.9536 3 0.000191447 -4.11982
10601 1 32.5611 28.3233 41.9536 3 0.000191447 -4.11982
10602 1 31.6672 28.3251 39.6177 3 0.000275951 -4.11942
10603 1 34.1399 28.3251 39.6177 3 0.000275951 -4.11942
10604 1 33.2439 28.3274 37.2809 3 0.000456136 -4.11879
10605 1 35.7167 28.3274 37.2809 3 0.000456136 -4.11879
10606 1 34.8168 28.3302 34.943 3 0.000890241 -4.11774
10607 1 37.2896 28.3302 34.943 3 0.000890241 -4.11774
10608 1 36.3825 28.3332 32.6038 3 0.00219321 -4.11591
10609 1 38.8553 28.3332 32.6038 3 0.00219321 -4.11591
10610 1 37.9321 28.3349 30.2646 3 0.00787771 -4.1127
10611 1 40.4049 28.3349 30.2646 3 0.00787771 -4.1127
10612 1 39.4354 28.3262 27.9331 3 0.04025 -4.10128
10613 1 41.9082 28.3262 27.9331 3 0.04025 -4.10128
10614 1 40.7861 28.2786 25.6293 3 0.0799124 -4.03666
10615 1 43.2589 28.2786 25.6293 3 0.0799124 -4.03666
10616 1 42.0522 28.2786 23.3294 3 0.0799124 -4.03666
10617 1 44.525 28.2786 23.3294 3 0.0799124 -4.03666
10618 1 43.4029 28.3262 21.0255 3 0.04025 -4.10128
10619 1 45.8757 28.3262 21.0255 3 0.04025 -4.10128
10620 1 44.9062 28.3349 18.694 3 0.00787771 -4.1127
10621 1 47.3789 28.3349 18.694 3 0.00787771 -4.1127
10622 1 46.4558 28.3332 16.3548 3 0.00219322 -4.11591
10623 1 48.9286 28.3332 16.3548 3 0.00219322 -4.11591
10624 1 48.0215 28.3302 14.0157 3 0.000890241 -4.11774
10625 1 50.4943 28.3302 14.0157 3 0.000890241 -4.11774
10626 1 49.5944 28.3274 11.6777 3 0.000456136 -4.11879
10627 1 52.0672 28.3274 11.6777 3 0.000456136 -4.11879
10628 1 51.1711 28.3251 9.34094 3 0.000275951 -4.11942
10629 1 53.6439 28.3251 9.34094 3 0.000275951 -4.11942
10630 1 52.75 28.3233 7.00503 3 0.000191447 -4.11982
10631 1 55.2228 28.3233 7.00503 3 0.000191447 -4.11982
10632 1 54.3302 28.3219 4.66972 3 0.000149472 -4.12007
10633 1 56.8029 28.3219 4.66972 3 0.000149472 -4.12007
10634 1 55.911 28.3211 2.33477 3 0.000129519 -4.1202
10635 1 58.3838 28.3211 2.33477 3 0.000129519 -4.1202
10636 1 57.4922 28.3209 4.61038e-09 3 0.000123538 -4.12024
10637 1 59.965 28.3209 4.60715e-09 3 0.000123538 -4.12024
10638 1 28.6058 26.3015 47.7904 3 9.91672e-05 -4.11967
10639 1 31.0786 26.3015 47.7904 3 9.91672e-05 -4.11967
10640 1 30.1795 26.3021 45.4538 3 0.000109496 -4.11957
10641 1 32.6523 26.3021 45.4538 3 0.000109496 -4.11957
10642 1 31.7524 26.3032 43.117 3 0.000133537 -4.11936
10643 1 34.2252 26.3032 43.117 3 0.000133537 -4.11936
10644 1 33.3236 26.3049 40.7797 3 0.000180367 -4.11901
10645 1 35.7964 26.3049 40.7797 3 0.000180367 -4.11901
10646 1 34.8921 26.307 38.4419 3 0.000271562 -4.11847
10647 1 37.3649 26.307 38.4419 3 0.000271562 -4.11847
10648 1 36.4562 26.3093 36.1037 3 0.000464591 -4.11763
10649 1 38.9289 26.3093 36.1037 3 0.000464591 -4.11763
10650 1 38.0123 26.3112 33.7656 3 0.000951108 -4.11627
10651 1 40.4851 26.3112 33.7656 3 0.000951108 -4.11627
10652 1 39.5533 26.3104 31.4299 3 0.00245828 -4.11406
10653 1 42.0261 26.3104 31.4299 3 0.00245828 -4.11406
10654 1 41.0623 26.3002 29.1027 3 0.00637848 -4.10946
10655 1 43.535 26.3002 29.1027 3 0.00637848 -4.10946
10656 1 42.5069 26.2669 26.7934 3 0.00997197 -4.09174
10657 1 44.9797 26.2669 26.7934 3 0.00997197 -4.09174
10658 1 43.8919 26.2457 24.4793 3 0.0166214 -4.08223
10659 1 46.3647 26.2457 24.4793 3 0.0166214 -4.08223
10660 1 45.2769 26.2669 22.1652 3 0.00997198 -4.09174
10661 1 47.7497 26.2669 22.1652 3 0.00997198 -4.09174
10662 1 46.7216 26.3002 19.8559 3 0.00637848 -4.10946
10663 1 49.1944 26.3002 19.8559 3 0.00637848 -4.10946
10664 1 48.2305 26.3104 17.5287 3 0.00245828 -4.11406
10665 1 50.7033 26.3104 17.5287 3 0.00245828 -4.11406
10666 1 49.7715 26.3112 15.193 3 0.000951108 -4.11627
10667 1 52.2443 26.3112 15.193 3 0.000951108 -4.11627
10668 1 51.3277 26.3093 12.8549 3 0.000464591 -4.11763
10669 1 53.8005 26.3093 12.8549 3 0.000464591 -4.11763
10670 1 52.8917 26.307 10.5167 3 0.000271562 -4.11847
10671 1 55.3645 26.307 10.5167 3 0.000271562 -4.11847
10672 1 54.4602 26.3049 8.17893 3 0.000180367 -4.11901
10673 1 56.933 26.3049 8.17893 3 0.000180367 -4.11901
10674 1 56.0315 26.3032 5.84167 3 0.000133537 -4.11936
10675 1 58.5042 26.3032 5.84167 3 0.000133537 -4.11936
10676 1 57.6043 26.3021 3.50483 3 0.000109496 -4.11957
10677 1 60.0771 26.3021 3.50483 3 0.000109496 -4.11957
10678 1 59.178 26.3015 1.16825 3 9.91672e-05 -4.11967
10679 1 61.6508 26.3015 1.16825 3 9.91672e-05 -4.11967
10680 1 31.8591 24.2818 46.6212 3 7.83887e-05 -4.11909
10681 1 34.3318 24.2818 46.6212 3 7.83887e-05 -4.11909
10682 1 33.4258 24.2827 44.2836 3 9.09683e-05 -4.11894
10683 1 35.8986 24.2827 44.2836 3 9.09683e-05 -4.11894
10684 1 34.9911 24.2841 41.9459 3 0.000116215 -4.11866
10685 1 37.4638 24.2841 41.9459 3 0.000116215 -4.11866
10686 1 36.5537 24.2858 39.6081 3 0.000164011 -4.11823
10687 1 39.0265 24.2858 39.6081 3 0.000164011 -4.11823
10688 1 38.112 24.2874 37.2705 3 0.000260539 -4.11759
10689 1 40.5848 24.2874 37.2705 3 0.000260539 -4.11759
10690 1 39.6632 24.2879 34.9338 3 0.000482604 -4.11663
10691 1 42.136 24.2879 34.9338 3 0.000482604 -4.11663
10692 1 41.202 24.2854 32.6002 3 0.00101185 -4.11517
10693 1 43.6747 24.2854 32.6002 3 0.00101185 -4.11517
10694 1 42.7185 24.275 30.2733 3 0.00186199 -4.11259
10695 1 45.1913 24.275 30.2733 3 0.00186199 -4.11259
10696 1 44.1997 24.2507 27.9568 3 0.00236274 -4.10559
10697 1 46.6724 24.2507 27.9568 3 0.00236274 -4.10559
10698 1 45.6477 24.2286 25.64 3 0.0045529 -4.09981
10699 1 48.1205 24.2286 25.64 3 0.0045529 -4.09981
10700 1 47.0817 24.2286 23.3186 3 0.0045529 -4.09981
10701 1 49.5544 24.2286 23.3186 3 0.0045529 -4.09981
10702 1 48.5297 24.2507 21.0019 3 0.00236274 -4.10559
10703 1 51.0025 24.2507 21.0019 3 0.00236274 -4.10559
10704 1 50.0109 24.275 18.6853 3 0.00186199 -4.11259
10705 1 52.4836 24.275 18.6853 3 0.00186199 -4.11259
10706 1 51.5274 24.2854 16.3584 3 0.00101185 -4.11517
10707 1 54.0002 24.2854 16.3584 3 0.00101185 -4.11517
10708 1 53.0662 24.2879 14.0248 3 0.000482604 -4.11663
10709 1 55.539 24.2879 14.0248 3 0.000482604 -4.11663
10710 1 54.6174 24.2874 11.6882 3 0.000260539 -4.11759
10711 1 57.0902 24.2874 11.6882 3 0.000260539 -4.11759
10712 1 56.1757 24.2858 9.35054 3 0.000164011 -4.11823
10713 1 58.6485 24.2858 9.35054 3 0.000164011 -4.11823
10714 1 57.7383 24.2841 7.01272 3 0.000116216 -4.11866
10715 1 60.2111 24.2841 7.01272 3 0.000116216 -4.11866
10716 1 59.3036 24.2827 4.67502 3 9.09683e-05 -4.11894
10717 1 61.7764 24.2827 4.67502 3 9.09683e-05 -4.11894
10718 1 60.8703 24.2818 2.33746 3 7.83887e-05 -4.11909
10719 1 33.5453 22.261 47.7898 3 5.81635e-05 -4.11867
10720 1 36.0181 22.261 47.7898 3 5.81635e-05 -4.11867
10721 1 35.1069 22.2615 45.4521 3 6.41046e-05 -4.11857
10722 1 37.5796 22.2615 45.4521 3 6.41046e-05 -4.11857
10723 1 36.6671 22.2625 43.1146 3 7.79181e-05 -4.11836
10724 1 39.1399 22.2625 43.1146 3 7.79181e-05 -4.11836
10725 1 38.2252 22.2637 40.7772 3 0.000104555 -4.11804
10726 1 40.6979 22.2637 40.7772 3 0.000104555 -4.11804
10727 1 39.7794 22.2646 38.4403 3 0.000157093 -4.11755
10728 1 42.2522 22.2646 38.4403 3 0.000157093 -4.11755
10729 1 41.3276 22.2642 36.1048 3 0.000266142 -4.11685
10730 1 43.8004 22.2642 36.1048 3 0.000266142 -4.11685
10731 1 42.8659 22.2608 33.7722 3 0.000471623 -4.11582
10732 1 45.3387 22.2608 33.7722 3 0.000471623 -4.11582
10733 1 44.3885 22.2512 31.4446 3 0.000701874 -4.11412
10734 1 46.8612 22.2512 31.4446 3 0.000701874 -4.11412
10735 1 45.889 22.2327 29.1232 3 0.000811247 -4.11062
10736 1 48.3618 22.2327 29.1232 3 0.000811247 -4.11062
10737 1 47.3692 22.2131 26.8028 3 0.00142287 -4.10738
10738 1 49.842 22.2131 26.8028 3 0.00142287 -4.10738
10739 1 48.8375 22.2049 24.4793 3 0.00172072 -4.10623
10740 1 51.3103 22.2049 24.4793 3 0.00172072 -4.10623
10741 1 50.3057 22.2131 22.1558 3 0.00142287 -4.10738
10742 1 52.7785 22.2131 22.1558 3 0.00142287 -4.10738
10743 1 51.786 22.2327 19.8354 3 0.000811247 -4.11062
10744 1 54.2588 22.2327 19.8354 3 0.000811247 -4.11062
10745 1 53.2865 22.2512 17.514 3 0.000701874 -4.11412
10746 1 55.7593 22.2512 17.514 3 0.000701874 -4.11412
10747 1 54.8091 22.2608 15.1864 3 0.000471623 -4.11582
10748 1 57.2819 22.2608 15.1864 3 0.000471623 -4.11582
10749 1 56.3474 22.2642 12.8538 3 0.000266141 -4.11685
10750 1 58.8202 22.2642 12.8538 3 0.000266141 -4.11685
10751 1 57.8956 22.2646 10.5183 3 0.000157093 -4.11755
10752 1 60.3683 22.2646 10.5183 3 0.000157093 -4.11755
10753 1 59.4498 22.2637 8.18147 3 0.000104555 -4.11804
10754 1 61.9226 22.2637 8.18147 3 0.000104555 -4.11804
10755 1 61.0078 22.2625 5.84407 3 7.79181e-05 -4.11836
10756 1 36.7941 20.2396 46.6214 3 4.80558e-05 -4.11824
10757 1 39.2668 20.2396 46.6214 3 4.80558e-05 -4.11824
10758 1 38.3501 20.2402 44.2843 3 5.54392e-05 -4.1181
10759 1 40.8229 20.2402 44.2843 3 5.54392e-05 -4.1181
10760 1 39.9043 20.2409 41.9475 3 7.05626e-05 -4.11786
10761 1 42.377 20.2409 41.9475 3 7.05626e-05 -4.11786
10762 1 41.4553 20.2412 39.6115 3 9.97795e-05 -4.11749
10763 1 43.9281 20.2412 39.6115 3 9.97795e-05 -4.11749
10764 1 43.0013 20.2403 37.2769 3 0.000154051 -4.11696
10765 1 45.4741 20.2403 37.2769 3 0.000154051 -4.11696
10766 1 44.5396 20.2367 34.9447 3 0.000237837 -4.1162
10767 1 47.0124 20.2367 34.9447 3 0.000237837 -4.1162
10768 1 46.0665 20.2283 32.6161 3 0.000309047 -4.11501
10769 1 48.5393 20.2283 32.6161 3 0.000309047 -4.11501
10770 1 47.5787 20.2138 30.2916 3 0.000342001 -4.11299
10771 1 50.0515 20.2138 30.2916 3 0.000342001 -4.11299
10772 1 49.0773 20.1974 27.9681 3 0.000541395 -4.11102
10773 1 51.5501 20.1974 27.9681 3 0.000541395 -4.11102
10774 1 50.567 20.1865 25.6426 3 0.000695882 -4.1099
10775 1 53.0398 20.1865 25.6426 3 0.000695882 -4.1099
10776 1 52.0535 20.1865 23.316 3 0.000695882 -4.1099
10777 1 54.5263 20.1865 23.316 3 0.000695882 -4.1099
10778 1 53.5432 20.1974 20.9906 3 0.000541395 -4.11102
10779 1 56.016 20.1974 20.9906 3 0.000541395 -4.11102
10780 1 55.0419 20.2138 18.667 3 0.000342001 -4.11299
10781 1 57.5146 20.2138 18.667 3 0.000342001 -4.11299
10782 1 56.5541 20.2283 16.3425 3 0.000309047 -4.11501
10783 1 59.0268 20.2283 16.3425 3 0.000309047 -4.11501
10784 1 58.0809 20.2367 14.014 3 0.000237836 -4.1162
10785 1 60.5537 20.2367 14.014 3 0.000237836 -4.1162
10786 1 59.6192 20.2403 11.6818 3 0.000154051 -4.11696
10787 1 62.092 20.2403 11.6818 3 0.000154051 -4.11696
10788 1 61.1652 20.2412 9.34714 3 9.97795e-05 -4.11749
10789 1 38.4863 18.2167 47.7904 3 3.80993e-05 -4.11796
10790 1 40.9591 18.2167 47.7904 3 3.80993e-05 -4.11796
10791 1 40.0385 18.2169 45.454 3 4.16723e-05 -4.11787
10792 1 42.5113 18.2169 45.454 3 4.16723e-05 -4.11787
10793 1 41.5894 18.2172 43.1181 3 4.99255e-05 -4.1177
10794 1 44.0621 18.2172 43.1181 3 4.99255e-05 -4.1177
10795 1 43.1377 18.2172 40.7829 3 6.57171e-05 -4.11742
10796 1 45.6105 18.2172 40.7829 3 6.57171e-05 -4.11742
10797 1 44.6819 18.216 38.4489 3 9.22624e-05 -4.11701
10798 1 47.1547 18.216 38.4489 3 9.22624e-05 -4.11701
10799 1 46.2202 18.2126 36.1169 3 0.000127291 -4.11643
10800 1 48.693 18.2126 36.1169 3 0.000127291 -4.11643
10801 1 47.7501 18.2056 33.7876 3 0.000151781 -4.11557
10802 1 50.2228 18.2056 33.7876 3 0.000151781 -4.11557
10803 1 49.2697 18.1942 31.4609 3 0.000165317 -4.11428
10804 1 51.7425 18.1942 31.4609 3 0.000165317 -4.11428
10805 1 50.7797 18.1808 29.135 3 0.000239462 -4.11297
10806 1 53.2525 18.1808 29.135 3 0.000239462 -4.11297
10807 1 52.2831 18.1699 26.8079 3 0.000309455 -4.11207
10808 1 54.7558 18.1699 26.8079 3 0.000309455 -4.11207
10809 1 53.7831 18.1658 24.4793 3 0.000334306 -4.11174
10810 1 56.2558 18.1658 24.4793 3 0.000334306 -4.11174
10811 1 55.283 18.1699 22.1507 3 0.000309455 -4.11207
10812 1 57.7558 18.1699 22.1507 3 0.000309455 -4.11207
10813 1 56.7864 18.1808 19.8236 3 0.000239462 -4.11297
10814 1 59.2592 18.1808 19.8236 3 0.000239462 -4.11297
10815 1 58.2964 18.1942 17.4978 3 0.000165317 -4.11428
10816 1 60.7692 18.1942 17.4978 3 0.000165317 -4.11428
10817 1 59.816 18.2056 15.171 3 0.000151781 -4.11557
10818 1 62.2888 18.2056 15.171 3 0.000151781 -4.11557
10819 1 61.3459 18.2126 12.8417 3 0.000127292 -4.11643
10820 1 41.7315 16.1927 46.6232 3 3.25865e-05 -4.11766
10821 1 44.2043 16.1927 46.6232 3 3.25865e-05 -4.11766
10822 1 43.2793 16.1928 44.2882 3 3.6577e-05 -4.11754
10823 1 45.7521 16.1928 44.2882 3 3.6577e-05 -4.11754
10824 1 44.8252 16.1925 41.9537 3 4.43745e-05 -4.11733
10825 1 47.298 16.1925 41.9537 3 4.43745e-05 -4.11733
10826 1 46.3679 16.1913 39.6204 3 5.67156e-05 -4.11702
10827 1 48.8407 16.1913 39.6204 3 5.67156e-05 -4.11702
10828 1 47.906 16.1884 37.2886 3 7.14129e-05 -4.11657
10829 1 50.3788 16.1884 37.2886 3 7.14129e-05 -4.11657
10830 1 49.4378 16.1827 34.9586 3 8.10424e-05 -4.11593
10831 1 51.9106 16.1827 34.9586 3 8.10424e-05 -4.11593
10832 1 50.9623 16.174 32.6304 3 8.87972e-05 -4.11504
10833 1 53.4351 16.174 32.6304 3 8.87972e-05 -4.11504
10834 1 52.4798 16.1633 30.3028 3 0.000119747 -4.11412
10835 1 54.9526 16.1633 30.3028 3 0.000119747 -4.11412
10836 1 53.9922 16.1536 27.9744 3 0.000151325 -4.1134
10837 1 56.4649 16.1536 27.9744 3 0.000151325 -4.1134
10838 1 55.5016 16.1478 25.6446 3 0.000163251 -4.11301
10839 1 57.9744 16.1478 25.6446 3 0.000163251 -4.11301
10840 1 57.0101 16.1478 23.3141 3 0.000163251 -4.11301
10841 1 59.4829 16.1478 23.3141 3 0.000163251 -4.11301
10842 1 58.5195 16.1536 20.9843 3 0.000151325 -4.1134
10843 1 60.9923 16.1536 20.9843 3 0.000151325 -4.1134
10844 1 60.0319 16.1633 18.6558 3 0.000119747 -4.11412
10845 1 62.5046 16.1633 18.6558 3 0.000119747 -4.11412
10846 1 61.5494 16.174 16.3282 3 8.87972e-05 -4.11504
10847 1 43.4282 14.1675 47.7915 3 2.60015e-05 -4.11745
10848 1 45.901 14.1675 47.7915 3 2.60015e-05 -4.11745
10849 1 44.9732 14.1674 45.4574 3 2.74318e-05 -4.11738
10850 1 47.446 14.1674 45.4574 3 2.74318e-05 -4.11738
10851 1 46.5169 14.167 43.1237 3 3.05819e-05 -4.11723
10852 1 48.9897 14.167 43.1237 3 3.05819e-05 -4.11723
10853 1 48.0582 14.166 40.7909 3 3.56114e-05 -4.11699
10854 1 50.5309 14.166 40.7909 3 3.56114e-05 -4.11699
10855 1 49.5959 14.1636 38.4592 3 4.15637e-05 -4.11665
10856 1 52.0687 14.1636 38.4592 3 4.15637e-05 -4.11665
10857 1 51.129 14.1593 36.1289 3 4.62847e-05 -4.11616
10858 1 53.6018 14.1593 36.1289 3 4.62847e-05 -4.11616
10859 1 52.6567 14.1528 33.7998 3 5.23261e-05 -4.11553
10860 1 55.1295 14.1528 33.7998 3 5.23261e-05 -4.11553
10861 1 54.1792 14.1447 31.471 3 6.74147e-05 -4.11484
10862 1 56.652 14.1447 31.471 3 6.74147e-05 -4.11484
10863 1 55.6977 14.1367 29.1415 3 8.12689e-05 -4.11426
10864 1 58.1705 14.1367 29.1415 3 8.12689e-05 -4.11426
10865 1 57.2137 14.1309 26.8109 3 8.36351e-05 -4.11388
10866 1 59.6865 14.1309 26.8109 3 8.36351e-05 -4.11388
10867 1 58.7286 14.1288 24.4793 3 8.17936e-05 -4.11375
10868 1 61.2014 14.1288 24.4793 3 8.17936e-05 -4.11375
10869 1 60.2435 14.1309 22.1477 3 8.36351e-05 -4.11388
10870 1 62.7163 14.1309 22.1477 3 8.36351e-05 -4.11388
10871 1 61.7595 14.1367 19.8171 3 8.12689e-05 -4.11426
10872 1 46.6706 12.1411 46.6254 3 2.08718e-05 -4.11721
10873 1 49.1434 12.1411 46.6254 3 2.08718e-05 -4.11721
10874 1 48.2121 12.1407 44.2926 3 2.14783e-05 -4.11711
10875 1 50.6849 12.1407 44.2926 3 2.14783e-05 -4.11711
10876 1 49.7519 12.1399 41.9603 3 2.27765e-05 -4.11694
10877 1 52.2247 12.1399 41.9603 3 2.27765e-05 -4.11694
10878 1 51.2891 12.1382 39.6288 3 2.48704e-05 -4.11668
10879 1 53.7619 12.1382 39.6288 3 2.48704e-05 -4.11668
10880 1 52.8229 12.1352 37.2983 3 2.80027e-05 -4.11632
10881 1 55.2957 12.1352 37.2983 3 2.80027e-05 -4.11632
10882 1 54.3528 12.1306 34.9685 3 3.3698e-05 -4.11585
10883 1 56.8256 12.1306 34.9685 3 3.3698e-05 -4.11585
10884 1 55.8787 12.1249 32.6389 3 4.29304e-05 -4.11534
10885 1 58.3515 12.1249 32.6389 3 4.29304e-05 -4.11534
10886 1 57.4015 12.1189 30.3088 3 4.8972e-05 -4.11486
10887 1 59.8743 12.1189 30.3088 3 4.8972e-05 -4.11486
10888 1 58.9222 12.114 27.9776 3 4.63183e-05 -4.1145
10889 1 61.395 12.114 27.9776 3 4.63183e-05 -4.1145
10890 1 60.4418 12.1112 25.6455 3 4.04781e-05 -4.11431
10891 1 62.9146 12.1112 25.6455 3 4.04781e-05 -4.11431
10892 1 61.961 12.1112 23.3131 3 4.04781e-05 -4.11431
10893 1 48.3709 10.1138 47.7925 3 1.59529e-05 -4.11702
10894 1 50.8437 10.1138 47.7925 3 1.59529e-05 -4.11702
10895 1 49.9102 10.1136 45.4603 3 1.54783e-05 -4.11697
10896 1 52.383 10.1136 45.4603 3 1.54783e-05 -4.11697
10897 1 51.4485 10.1131 43.1284 3 1.49876e-05 -4.11685
10898 1 53.9213 10.1131 43.1284 3 1.49876e-05 -4.11685
10899 1 52.985 10.1119 40.7971 3 1.53535e-05 -4.11667
10900 1 55.4578 10.1119 40.7971 3 1.53535e-05 -4.11667
10901 1 54.5192 10.1101 38.4664 3 1.79658e-05 -4.11641
10902 1 56.992 10.1101 38.4664 3 1.79658e-05 -4.11641
10903 1 56.0504 10.1072 36.1361 3 2.37569e-05 -4.11607
10904 1 58.5232 10.1072 36.1361 3 2.37569e-05 -4.11607
10905 1 57.5788 10.1037 33.806 3 3.09937e-05 -4.11568
10906 1 60.0516 10.1037 33.806 3 3.09937e-05 -4.11568
10907 1 59.1047 10.0998 31.4755 3 3.39978e-05 -4.11529
10908 1 61.5775 10.0998 31.4755 3 3.39978e-05 -4.11529
10909 1 60.6288 10.0963 29.1441 3 2.94959e-05 -4.11497
10910 1 63.1016 10.0963 29.1441 3 2.94958e-05 -4.11497
10911 1 62.1517 10.0939 26.812 3 2.15714e-05 -4.11475
10912 1 51.611 8.0857 46.627 3 1.16e-05 -4.11731
10913 1 54.0838 8.0857 46.627 3 1.16e-05 -4.11731
10914 1 53.1476 8.08542 44.2954 3 1.05633e-05 -4.11722
10915 1 55.6204 8.08542 44.2954 3 1.05633e-05 -4.11722
10916 1 54.6832 8.08489 41.9642 3 1.03533e-05 -4.11706
10917 1 57.156 8.08489 41.9642 3 1.03532e-05 -4.11706
10918 1 56.2173 8.084 39.6332 3 1.28943e-05 -4.11683
10919 1 58.6901 8.084 39.6332 3 1.28943e-05 -4.11683
10920 1 57.7494 8.0827 37.3025 3 1.88848e-05 -4.11652
10921 1 60.2222 8.0827 37.3025 3 1.88848e-05 -4.11652
10922 1 59.2795 8.08102 34.9719 3 2.55864e-05 -4.11616
10923 1 61.7523 8.08102 34.9719 3 2.55864e-05 -4.11616
10924 1 60.8077 8.07917 32.641 3 2.77711e-05 -4.11577
10925 1 63.2805 8.07917 32.641 3 2.77711e-05 -4.11577
10926 1 62.3344 8.07741 30.3097 3 2.32112e-05 -4.11542
10927 1 53.3142 6.05706 47.7929 3 0.000192152 -4.11661
10928 1 55.787 6.05706 47.7929 3 0.000192152 -4.11661
10929 1 54.849 6.05706 45.4616 3 0.000190055 -4.11656
10930 1 57.3218 6.05706 45.4616 3 0.000190055 -4.11656
10931 1 56.3834 6.05706 43.1302 3 0.000182136 -4.11648
10932 1 58.8562 6.05706 43.1302 3 0.000182135 -4.11648
10933 1 57.9169 6.05706 40.7989 3 0.000163309 -4.11634
10934 1 60.3897 6.05706 40.7989 3 0.000163309 -4.11634
10935 1 59.4494 6.05706 38.4675 3 0.000131568 -4.11616
10936 1 61.9222 6.05706 38.4675 3 0.000131568 -4.11616
10937 1 60.9807 6.05706 36.1361 3 9.19267e-05 -4.11595
10938 1 63.4535 6.05706 36.1361 3 9.19267e-05 -4.11595
10939 1 62.5106 6.05706 33.8048 3 5.4706e-05 -4.11573
10940 1 56.5535 4.03804 46.6273 3 1.41686e-06 -4.11576
10941 1 59.0263 4.03804 46.6273 3 1.41684e-06 -4.11576
10942 1 58.0873 4.03804 44.2959 3 1.43102e-06 -4.11573
10943 1 60.56 4.03804 44.2959 3 1.43103e-06 -4.11573
10944 1 59.6205 4.03804 41.9645 3 1.4541e-06 -4.11568
10945 1 62.0933 4.03804 41.9645 3 1.4541e-06 -4.11568
10946 1 61.153 4.03804 39.6332 3 1.48587e-06 -4.11564
10947 1 63.6258 4.03804 39.6332 3 1.48585e-06 -4.11564
10948 1 62.6846 4.03804 37.3018 3 1.52673e-06 -4.11559
10949 1 58.2589 2.01902 47.7929 3 8.63883e-07 -4.10005
10950 1 60.7317 2.01902 47.7929 3 8.63883e-07 -4.10005
10951 1 59.7921 2.01902 45.4616 3 8.67506e-07 -4.10002
10952 1 62.2649 2.01902 45.4616 3 8.67515e-07 -4.10002
10953 1 61.325 2.01902 43.1302 3 8.74834e-07 -4.09998
10954 1 63.7978 2.01902 43.1302 3 8.74829e-07 -4.09998
10955 1 62.8575 2.01902 40.7989 3 8.85998e-07 -4.09991
10956 1 61.4978 0 46.6273 5 6.02137 -3.54885
10957 1 63.9705 0 46.6273 5 6.02137 -3.54885
10958 1 63.0303 0 44.2959 5 6.02059 -3.54884
10959 1 1.43552 62.5896 33.8048 5 12.2239 -3.54461
10960 1 0.612338 62.5896 31.4734 5 12.2265 -3.54458
10961 1 3.08512 62.5896 31.4734 5 12.2265 -3.54458
10962 1 2.26248 62.5896 29.142 5 12.2286 -3.54455
10963 1 4.73527 62.5896 29.142 5 12.2286 -3.54455
10964 1 3.91302 62.5896 26.8107 5 12.2309 -3.54454
10965 1 6.3858 62.5896 26.8107 5 12.2309 -3.54454
10966 1 5.56376 62.5896 24.4793 5 12.2318 -3.54453
10967 1 8.03655 62.5896 24.4793 5 12.2318 -3.54453
10968 1 7.21451 62.5896 22.1479 5 12.2309 -3.54454
10969 1 9.68729 62.5896 22.1479 5 12.2309 -3.54454
10970 1 8.86505 62.5896 19.8166 5 12.2286 -3.54455
10971 1 11.3378 62.5896 19.8166 5 12.2286 -3.54455
10972 1 10.5152 62.5896 17.4852 5 12.2265 -3.54458
10973 1 12.988 62.5896 17.4852 5 12.2265 -3.54458
10974 1 12.1648 62.5896 15.1539 5 12.2239 -3.54461
10975 1 14.6376 62.5896 15.1539 5 12.2239 -3.54461
10976 1 13.8138 62.5896 12.8225 5 12.2233 -3.54464
10977 1 16.2866 62.5896 12.8225 5 12.2233 -3.54464
10978 1 15.4621 62.5896 10.4911 5 12.2231 -3.54468
10979 1 17.9349 62.5896 10.4911 5 12.2231 -3.54468
10980 1 17.1098 62.5896 8.15977 5 12.2235 -3.54471
10981 1 19.5826 62.5896 8.15977 5 12.2235 -3.54471
10982 1 18.7569 62.5896 5.82841 5 6.11184 -3.54474
10983 1 21.2297 62.5896 5.82841 5 6.11184 -3.54474
10984 1 20.4036 62.5896 3.49704 5 6.11233 -3.54476
10985 1 22.8764 62.5896 3.49704 5 6.11233 -3.54476
10986 1 22.0501 62.5896 1.16568 5 6.11303 -3.54477
10987 1 24.5229 62.5896 1.16568 5 6.11303 -3.54477
10988 1 1.43291 60.5706 37.3018 3 1.08242e-06 -4.10651
10989 1 0.608792 60.5706 34.9704 3 1.11276e-06 -4.10645
10990 1 3.08158 60.5706 34.9704 3 1.11277e-06 -4.10645
10991 1 2.25831 60.5706 32.6391 3 1.14887e-06 -4.10639
10992 1 4.73109 60.5706 32.6391 3 1.14889e-06 -4.10639
10993 1 3.9086 60.5706 30.3077 3 1.18714e-06 -4.10633
10994 1 6.38138 60.5706 30.3077 3 1.18713e-06 -4.10633
10995 1 5.55951 60.5706 27.9764 3 1.22038e-06 -4.1063
10996 1 8.03229 60.5706 27.9764 3 1.2204e-06 -4.1063
10997 1 7.21082 60.5706 25.645 3 1.24006e-06 -4.10627
10998 1 9.68361 60.5706 25.645 3 1.24004e-06 -4.10627
10999 1 8.86227 60.5706 23.3136 3 1.24005e-06 -4.10627
11000 1 11.3351 60.5706 23.3136 3 1.24004e-06 -4.10627
11001 1 10.5136 60.5706 20.9823 3 1.22039e-06 -4.1063
11002 1 12.9864 60.5706 20.9823 3 1.22041e-06 -4.1063
11003 1 12.1645 60.5706 18.6509 3 1.18715e-06 -4.10633
11004 1 14.6373 60.5706 18.6509 3 1.18712e-06 -4.10633
11005 1 13.8148 60.5706 16.3195 3 1.14889e-06 -4.10639
11006 1 16.2876 60.5706 16.3195 3 1.14887e-06 -4.10639
11007 1 15.4643 60.5706 13.9882 3 1.11276e-06 -4.10645
11008 1 17.9371 60.5706 13.9882 3 1.11275e-06 -4.10645
11009 1 17.113 60.5706 11.6568 3 1.08241e-06 -4.10651
11010 1 19.5858 60.5706 11.6568 3 1.08244e-06 -4.10651
11011 1 18.7608 60.5706 9.32545 3 1.05865e-06 -4.10657
11012 1 21.2336 60.5706 9.32545 3 1.05864e-06 -4.10657
11013 1 20.4079 60.5706 6.99409 3 1.04075e-06 -4.10661
11014 1 22.8806 60.5706 6.99409 3 1.04076e-06 -4.10661
11015 1 22.0543 60.5706 4.66273 3 1.02816e-06 -4.10664
11016 1 24.5271 60.5706 4.66273 3 1.02813e-06 -4.10664
11017 1 23.7003 60.5706 2.33136 3 1.02055e-06 -4.10666
11018 1 26.1731 60.5706 2.33136 3 1.02056e-06 -4.10666
11019 1 25.346 60.5706 0 3 1.01798e-06 -4.10667
11020 1 27.8188 60.5706 0 3 1.01801e-06 -4.10667
11021 1 1.43186 58.5516 40.7989 3 9.07159e-05 -4.12237
11022 1 0.606163 58.5516 38.4675 3 6.97658e-05 -4.1224
11023 1 3.07895 58.5516 38.4675 3 6.97658e-05 -4.1224
11024 1 2.2543 58.5516 36.1361 3 5.08317e-05 -4.12243
11025 1 4.72708 58.5516 36.1361 3 5.08316e-05 -4.12243
11026 1 3.90354 58.5516 33.8048 3 3.52551e-05 -4.12244
11027 1 6.37632 58.5516 33.8048 3 3.52552e-05 -4.12244
11028 1 5.55385 58.5516 31.4734 3 2.24526e-05 -4.12244
11029 1 8.02663 58.5516 31.4734 3 2.24526e-05 -4.12244
11030 1 7.2051 58.5516 29.142 3 1.17354e-05 -4.12244
11031 1 9.67788 58.5516 29.142 3 1.17353e-05 -4.12244
11032 1 8.85703 58.5516 26.8107 3 3.91932e-06 -4.12243
11033 1 11.3298 58.5516 26.8107 3 3.91931e-06 -4.12243
11034 1 10.5093 58.5516 24.4793 3 9.47301e-07 -4.12242
11035 1 12.9821 58.5516 24.4793 3 9.47301e-07 -4.12242
11036 1 12.1616 58.5516 22.1479 3 3.91909e-06 -4.12243
11037 1 14.6344 58.5516 22.1479 3 3.91911e-06 -4.12243
11038 1 13.8136 58.5516 19.8166 3 1.1735e-05 -4.12244
11039 1 16.2864 58.5516 19.8166 3 1.17349e-05 -4.12244
11040 1 15.4648 58.5516 17.4852 3 2.24521e-05 -4.12244
11041 1 17.9376 58.5516 17.4852 3 2.24521e-05 -4.12244
11042 1 17.1151 58.5516 15.1539 3 3.52548e-05 -4.12244
11043 1 19.5879 58.5516 15.1539 3 3.52549e-05 -4.12244
11044 1 18.7644 58.5516 12.8225 3 5.08313e-05 -4.12243
11045 1 21.2372 58.5516 12.8225 3 5.08313e-05 -4.12243
11046 1 20.4125 58.5516 10.4911 3 6.97657e-05 -4.1224
11047 1 22.8853 58.5516 10.4911 3 6.97657e-05 -4.1224
11048 1 22.0596 58.5516 8.15977 3 9.07157e-05 -4.12237
11049 1 24.5324 58.5516 8.15977 3 9.07158e-05 -4.12237
11050 1 23.7058 58.5516 5.82841 3 0.000110457 -4.12234
11051 1 26.1786 58.5516 5.82841 3 0.000110457 -4.12234
11052 1 25.3513 58.5516 3.49704 3 0.000125533 -4.12231
11053 1 27.8241 58.5516 3.49704 3 0.000125533 -4.12231
11054 1 26.9964 58.5516 1.16568 3 0.000133584 -4.1223
11055 1 29.4691 58.5516 1.16568 3 0.000133584 -4.1223
11056 1 1.4343 56.5402 44.2953 3 3.49758e-06 -4.12182
11057 1 0.606981 56.5395 41.9635 3 5.88395e-06 -4.1219
11058 1 3.07977 56.5395 41.9635 3 5.88395e-06 -4.1219
11059 1 2.25354 56.5386 39.6317 3 9.06614e-06 -4.122
11060 1 4.72632 56.5386 39.6317 3 9.06614e-06 -4.122
11061 1 3.90135 56.5374 37.3 3 1.18619e-05 -4.12212
11062 1 6.37414 56.5374 37.3 3 1.18619e-05 -4.12212
11063 1 5.55043 56.5361 34.9684 3 1.27621e-05 -4.12223
11064 1 8.02321 56.5361 34.9684 3 1.2762e-05 -4.12223
11065 1 7.20065 56.5348 32.637 3 1.11233e-05 -4.12233
11066 1 9.67344 56.5348 32.637 3 1.11233e-05 -4.12233
11067 1 8.85182 56.5336 30.3059 3 7.59862e-06 -4.1224
11068 1 11.3246 56.5336 30.3059 3 7.59861e-06 -4.1224
11069 1 10.5037 56.5327 27.9752 3 3.91337e-06 -4.12244
11070 1 12.9765 56.5327 27.9752 3 3.91338e-06 -4.12244
11071 1 12.1559 56.5323 25.6446 3 1.63777e-06 -4.12246
11072 1 14.6287 56.5323 25.6446 3 1.63777e-06 -4.12246
11073 1 13.8083 56.5323 23.3141 3 1.63778e-06 -4.12246
11074 1 16.2811 56.5323 23.3141 3 1.63777e-06 -4.12246
11075 1 15.4606 56.5327 20.9835 3 3.91338e-06 -4.12244
11076 1 17.9333 56.5327 20.9835 3 3.91337e-06 -4.12244
11077 1 17.1124 56.5336 18.6527 3 7.59861e-06 -4.1224
11078 1 19.5852 56.5336 18.6527 3 7.59861e-06 -4.1224
11079 1 18.7636 56.5348 16.3216 3 1.11233e-05 -4.12233
11080 1 21.2364 56.5348 16.3216 3 1.11233e-05 -4.12233
11081 1 20.4138 56.5361 13.9902 3 1.27621e-05 -4.12223
11082 1 22.8866 56.5361 13.9902 3 1.27621e-05 -4.12223
11083 1 22.0629 56.5374 11.6586 3 1.18619e-05 -4.12212
11084 1 24.5357 56.5374 11.6586 3 1.18619e-05 -4.12212
11085 1 23.7107 56.5386 9.32688 3 9.06615e-06 -4.122
11086 1 26.1835 56.5386 9.32688 3 9.06615e-06 -4.122
11087 1 25.3573 56.5395 6.99509 3 5.88395e-06 -4.1219
11088 1 27.83 56.5395 6.99509 3 5.88396e-06 -4.1219
11089 1 27.0027 56.5402 4.66334 3 3.49757e-06 -4.12182
11090 1 29.4755 56.5402 4.66334 3 3.49758e-06 -4.12182
11091 1 28.6474 56.5406 2.33165 3 2.19145e-06 -4.12177
11092 1 31.1202 56.5406 2.33165 3 2.19143e-06 -4.12177
11093 1 30.2916 56.5407 48.9586 3 1.81015e-06 -4.12175
11094 1 32.7644 56.5407 48.9586 3 1.81017e-06 -4.12175
11095 1 1.43975 54.5298 47.7928 3 3.89996e-06 -4.12217
11096 1 0.610351 54.5293 45.4612 3 4.47753e-06 -4.12218
11097 1 3.08313 54.5293 45.4612 3 4.47753e-06 -4.12218
11098 1 2.25456 54.5283 43.1295 3 5.81593e-06 -4.12221
11099 1 4.72734 54.5283 43.1295 3 5.81593e-06 -4.12221
11100 1 3.90005 54.5268 40.7976 3 8.05886e-06 -4.12226
11101 1 6.37283 54.5268 40.7976 3 8.05885e-06 -4.12226
11102 1 5.54709 54.5247 38.4656 3 1.0958e-05 -4.12232
11103 1 8.01987 54.5247 38.4656 3 1.0958e-05 -4.12232
11104 1 7.19576 54.5221 36.1337 3 1.34554e-05 -4.12238
11105 1 9.66854 54.5221 36.1337 3 1.34554e-05 -4.12238
11106 1 8.84591 54.5193 33.802 3 1.40704e-05 -4.12243
11107 1 11.3187 54.5193 33.802 3 1.40704e-05 -4.12243
11108 1 10.4972 54.5166 31.4707 3 1.19593e-05 -4.12246
11109 1 12.97 54.5166 31.4707 3 1.19593e-05 -4.12246
11110 1 12.1494 54.5144 29.1399 3 7.87667e-06 -4.12248
11111 1 14.6222 54.5144 29.1399 3 7.87667e-06 -4.12248
11112 1 13.802 54.5129 26.8095 3 3.97123e-06 -4.12249
11113 1 16.2748 54.5129 26.8095 3 3.97123e-06 -4.12249
11114 1 15.4549 54.5124 24.4793 3 2.41598e-06 -4.12249
11115 1 17.9277 54.5124 24.4793 3 2.41598e-06 -4.12249
11116 1 17.1078 54.5129 22.1492 3 3.97122e-06 -4.12249
11117 1 19.5806 54.5129 22.1492 3 3.97123e-06 -4.12249
11118 1 18.7604 54.5144 19.8188 3 7.87667e-06 -4.12248
11119 1 21.2332 54.5144 19.8188 3 7.87666e-06 -4.12248
11120 1 20.4126 54.5166 17.4879 3 1.19593e-05 -4.12246
11121 1 22.8854 54.5166 17.4879 3 1.19593e-05 -4.12246
11122 1 22.0639 54.5193 15.1566 3 1.40704e-05 -4.12243
11123 1 24.5367 54.5193 15.1566 3 1.40704e-05 -4.12243
11124 1 23.714 54.5221 12.8249 3 1.34554e-05 -4.12238
11125 1 26.1868 54.5221 12.8249 3 1.34554e-05 -4.12238
11126 1 25.3627 54.5247 10.493 3 1.0958e-05 -4.12232
11127 1 27.8355 54.5247 10.493 3 1.0958e-05 -4.12232
11128 1 27.0098 54.5268 8.16101 3 8.05887e-06 -4.12226
11129 1 29.4825 54.5268 8.16101 3 8.05887e-06 -4.12226
11130 1 28.6552 54.5283 5.82911 3 5.81593e-06 -4.12221
11131 1 31.128 54.5283 5.82911 3 5.81593e-06 -4.12221
11132 1 30.2994 54.5293 3.49738 3 4.47753e-06 -4.12218
11133 1 32.7722 54.5293 3.49738 3 4.47753e-06 -4.12218
11134 1 31.9428 54.5298 1.16578 3 3.89996e-06 -4.12217
11135 1 34.4156 54.5298 1.16578 3 3.89996e-06 -4.12217
11136 1 2.25993 52.5183 46.6275 3 7.52735e-06 -4.12216
11137 1 4.73271 52.5183 46.6275 3 7.52735e-06 -4.12216
11138 1 3.90236 52.5174 44.2961 3 8.29609e-06 -4.12218
11139 1 6.37514 52.5174 44.2961 3 8.29609e-06 -4.12218
11140 1 5.54611 52.5157 41.9645 3 9.67675e-06 -4.12221
11141 1 8.0189 52.5157 41.9645 3 9.67675e-06 -4.12221
11142 1 7.19171 52.5132 39.6326 3 1.15574e-05 -4.12226
11143 1 9.66449 52.5132 39.6326 3 1.15574e-05 -4.12226
11144 1 8.8394 52.5098 37.3005 3 1.40121e-05 -4.12233
11145 1 11.3122 52.5098 37.3005 3 1.40121e-05 -4.12233
11146 1 10.4891 52.5057 34.9684 3 1.63502e-05 -4.12239
11147 1 12.9619 52.5057 34.9684 3 1.63502e-05 -4.12239
11148 1 12.1406 52.5014 32.6366 3 1.70391e-05 -4.12245
11149 1 14.6134 52.5014 32.6366 3 1.70391e-05 -4.12245
11150 1 13.7934 52.4973 30.3053 3 1.49964e-05 -4.12248
11151 1 16.2661 52.4973 30.3053 3 1.49964e-05 -4.12248
11152 1 15.4468 52.4943 27.9746 3 1.09793e-05 -4.12249
11153 1 17.9196 52.4943 27.9746 3 1.09793e-05 -4.12249
11154 1 17.1007 52.4926 25.6444 3 7.73925e-06 -4.12249
11155 1 19.5735 52.4926 25.6444 3 7.73925e-06 -4.12249
11156 1 18.7547 52.4926 23.3143 3 7.73924e-06 -4.12249
11157 1 21.2275 52.4926 23.3143 3 7.73924e-06 -4.12249
11158 1 20.4085 52.4943 20.984 3 1.09792e-05 -4.12249
11159 1 22.8813 52.4943 20.984 3 1.09792e-05 -4.12249
11160 1 22.062 52.4973 18.6533 3 1.49964e-05 -4.12248
11161 1 24.5348 52.4973 18.6533 3 1.49964e-05 -4.12248
11162 1 23.7147 52.5014 16.322 3 1.70391e-05 -4.12245
11163 1 26.1875 52.5014 16.322 3 1.70391e-05 -4.12245
11164 1 25.3662 52.5057 13.9902 3 1.63502e-05 -4.12239
11165 1 27.839 52.5057 13.9902 3 1.63502e-05 -4.12239
11166 1 27.016 52.5098 11.6581 3 1.40121e-05 -4.12233
11167 1 29.4888 52.5098 11.6581 3 1.40121e-05 -4.12233
11168 1 28.6637 52.5132 9.32602 3 1.15574e-05 -4.12226
11169 1 31.1364 52.5132 9.32602 3 1.15574e-05 -4.12226
11170 1 30.3093 52.5157 6.99411 3 9.67676e-06 -4.12221
11171 1 32.782 52.5157 6.99411 3 9.67676e-06 -4.12221
11172 1 31.953 52.5174 4.66251 3 8.29609e-06 -4.12218
11173 1 34.4258 52.5174 4.66251 3 8.29609e-06 -4.12218
11174 1 33.5954 52.5183 2.33117 3 7.52735e-06 -4.12216
11175 1 36.0682 52.5183 2.33117 3 7.52735e-06 -4.12216
11176 1 35.2372 52.5186 48.9586 3 7.22158e-06 -4.12216
11177 1 37.71 52.5186 48.9586 3 7.22159e-06 -4.12216
11178 1 3.91087 50.5068 47.7934 3 1.18952e-05 -4.12215
11179 1 6.38365 50.5068 47.7934 3 1.18952e-05 -4.12215
11180 1 5.55104 50.5062 45.4628 3 1.26248e-05 -4.12216
11181 1 8.02382 50.5062 45.4628 3 1.26248e-05 -4.12216
11182 1 7.19243 50.5048 43.1318 3 1.38767e-05 -4.12217
11183 1 9.66521 50.5048 43.1318 3 1.38767e-05 -4.12217
11184 1 8.83576 50.5023 40.8005 3 1.53589e-05 -4.1222
11185 1 11.3085 50.5023 40.8005 3 1.53589e-05 -4.1222
11186 1 10.4816 50.4987 38.4686 3 1.67305e-05 -4.12225
11187 1 12.9544 50.4987 38.4686 3 1.67305e-05 -4.12225
11188 1 12.1302 50.4938 36.1363 3 1.86664e-05 -4.12233
11189 1 14.603 50.4938 36.1363 3 1.86664e-05 -4.12233
11190 1 13.7814 50.488 33.804 3 2.12611e-05 -4.12241
11191 1 16.2542 50.488 33.804 3 2.12611e-05 -4.12241
11192 1 15.4347 50.4822 31.472 3 2.30165e-05 -4.12246
11193 1 17.9075 50.4822 31.472 3 2.30165e-05 -4.12246
11194 1 17.0894 50.477 29.1406 3 2.21126e-05 -4.12249
11195 1 19.5621 50.477 29.1406 3 2.21126e-05 -4.12249
11196 1 18.7448 50.4735 26.8098 3 1.91502e-05 -4.1225
11197 1 21.2175 50.4735 26.8098 3 1.91502e-05 -4.1225
11198 1 20.4005 50.4723 24.4793 3 1.74186e-05 -4.1225
11199 1 22.8733 50.4723 24.4793 3 1.74186e-05 -4.1225
11200 1 22.0562 50.4735 22.1489 3 1.91502e-05 -4.1225
11201 1 24.529 50.4735 22.1489 3 1.91502e-05 -4.1225
11202 1 23.7116 50.477 19.818 3 2.21126e-05 -4.12249
11203 1 26.1844 50.477 19.818 3 2.21126e-05 -4.12249
11204 1 25.3662 50.4822 17.4866 3 2.30165e-05 -4.12246
11205 1 27.839 50.4822 17.4866 3 2.30165e-05 -4.12246
11206 1 27.0195 50.488 15.1546 3 2.12611e-05 -4.12241
11207 1 29.4923 50.488 15.1546 3 2.12611e-05 -4.12241
11208 1 28.6707 50.4938 12.8223 3 1.86664e-05 -4.12233
11209 1 31.1435 50.4938 12.8223 3 1.86664e-05 -4.12233
11210 1 30.3193 50.4987 10.4901 3 1.67305e-05 -4.12225
11211 1 32.7921 50.4987 10.4901 3 1.67305e-05 -4.12225
11212 1 31.9652 50.5023 8.15817 3 1.53589e-05 -4.1222
11213 1 34.438 50.5023 8.15817 3 1.53589e-05 -4.1222
11214 1 33.6085 50.5048 5.82678 3 1.38767e-05 -4.12217
11215 1 36.0813 50.5048 5.82678 3 1.38767e-05 -4.12217
11216 1 35.2499 50.5062 3.49585 3 1.26248e-05 -4.12216
11217 1 37.7227 50.5062 3.49585 3 1.26248e-05 -4.12216
11218 1 36.8901 50.5068 1.16525 3 1.18952e-05 -4.12215
11219 1 39.3629 50.5068 1.16525 3 1.18952e-05 -4.12215
11220 1 7.20132 48.4942 46.629 3 1.78386e-05 -4.12214
11221 1 9.67411 48.4942 46.629 3 1.78386e-05 -4.12214
11222 1 8.8398 48.4932 44.299 3 1.96273e-05 -4.12214
11223 1 11.3126 48.4932 44.299 3 1.96273e-05 -4.12214
11224 1 10.4801 48.4913 41.9686 3 2.20453e-05 -4.12215
11225 1 12.9529 48.4913 41.9686 3 2.20453e-05 -4.12215
11226 1 12.1231 48.4881 39.6374 3 2.41335e-05 -4.12217
11227 1 14.5959 48.4881 39.6374 3 2.41335e-05 -4.12217
11228 1 13.7694 48.4832 37.3054 3 2.49439e-05 -4.12223
11229 1 16.2422 48.4832 37.3054 3 2.49439e-05 -4.12223
11230 1 15.4194 48.4767 34.9729 3 2.64238e-05 -4.12233
11231 1 17.8922 48.4767 34.9729 3 2.64238e-05 -4.12233
11232 1 17.0727 48.4693 32.6402 3 3.04308e-05 -4.12241
11233 1 19.5455 48.4693 32.6402 3 3.04308e-05 -4.12241
11234 1 18.7285 48.4619 30.3078 3 3.52972e-05 -4.12247
11235 1 21.2013 48.4619 30.3078 3 3.52972e-05 -4.12247
11236 1 20.3859 48.456 27.976 3 3.74501e-05 -4.1225
11237 1 22.8587 48.456 27.976 3 3.74501e-05 -4.1225
11238 1 22.0441 48.4526 25.6448 3 3.66337e-05 -4.12251
11239 1 24.5168 48.4526 25.6448 3 3.66337e-05 -4.12251
11240 1 23.7024 48.4526 23.3138 3 3.66337e-05 -4.12251
11241 1 26.1752 48.4526 23.3138 3 3.66337e-05 -4.12251
11242 1 25.3606 48.456 20.9826 3 3.745e-05 -4.1225
11243 1 27.8334 48.456 20.9826 3 3.745e-05 -4.1225
11244 1 27.018 48.4619 18.6508 3 3.52972e-05 -4.12247
11245 1 29.4908 48.4619 18.6508 3 3.52972e-05 -4.12247
11246 1 28.6738 48.4693 16.3184 3 3.04307e-05 -4.12241
11247 1 31.1466 48.4693 16.3184 3 3.04307e-05 -4.12241
11248 1 30.3271 48.4767 13.9857 3 2.64237e-05 -4.12233
11249 1 32.7998 48.4767 13.9857 3 2.64237e-05 -4.12233
11250 1 31.9771 48.4832 11.6532 3 2.49439e-05 -4.12223
11251 1 34.4498 48.4832 11.6532 3 2.49439e-05 -4.12223
11252 1 33.6234 48.4881 9.32123 3 2.41335e-05 -4.12217
11253 1 36.0962 48.4881 9.32123 3 2.41335e-05 -4.12217
11254 1 35.2664 48.4913 6.99006 3 2.20453e-05 -4.12215
11255 1 37.7392 48.4913 6.99006 3 2.20453e-05 -4.12215
11256 1 36.9067 48.4932 4.6596 3 1.96273e-05 -4.12214
11257 1 39.3795 48.4932 4.6596 3 1.96273e-05 -4.12214
11258 1 38.5452 48.4942 2.32967 3 1.78386e-05 -4.12214
11259 1 41.018 48.4942 2.32967 3 1.78386e-05 -4.12214
11260 1 40.1827 48.4945 48.9586 3 1.72512e-05 -4.12214
11261 1 42.6555 48.4945 48.9586 3 1.72512e-05 -4.12214
11262 1 8.85388 46.4812 47.7943 3 2.36101e-05 -4.12212
11263 1 11.3267 46.4812 47.7943 3 2.36101e-05 -4.12212
11264 1 10.489 46.4807 45.4655 3 2.56145e-05 -4.12212
11265 1 12.9618 46.4807 45.4655 3 2.56145e-05 -4.12212
11266 1 12.1257 46.4794 43.1363 3 2.95039e-05 -4.12211
11267 1 14.5985 46.4794 43.1363 3 2.95039e-05 -4.12211
11268 1 13.7648 46.4771 40.8063 3 3.46056e-05 -4.1221
11269 1 16.2376 46.4771 40.8063 3 3.46056e-05 -4.1221
11270 1 15.4076 46.4731 38.4753 3 3.8725e-05 -4.12212
11271 1 17.8804 46.4731 38.4753 3 3.8725e-05 -4.12212
11272 1 17.0549 46.467 36.1432 3 3.9276e-05 -4.12218
11273 1 19.5277 46.467 36.1432 3 3.9276e-05 -4.12218
11274 1 18.707 46.4588 33.8101 3 4.07035e-05 -4.12231
11275 1 21.1798 46.4588 33.8101 3 4.07035e-05 -4.12231
11276 1 20.3633 46.4495 31.4768 3 4.82067e-05 -4.1224
11277 1 22.836 46.4495 31.4768 3 4.82067e-05 -4.1224
11278 1 22.0226 46.4409 29.1438 3 6.04472e-05 -4.12248
11279 1 24.4954 46.4409 29.1438 3 6.04472e-05 -4.12248
11280 1 23.6839 46.4347 26.8113 3 6.90738e-05 -4.12252
11281 1 26.1567 46.4347 26.8113 3 6.90738e-05 -4.12252
11282 1 25.346 46.4324 24.4793 3 7.12415e-05 -4.12253
11283 1 27.8188 46.4324 24.4793 3 7.12415e-05 -4.12253
11284 1 27.0081 46.4347 22.1473 3 6.90738e-05 -4.12252
11285 1 29.4809 46.4347 22.1473 3 6.90738e-05 -4.12252
11286 1 28.6694 46.4409 19.8148 3 6.04472e-05 -4.12248
11287 1 31.1422 46.4409 19.8148 3 6.04472e-05 -4.12248
11288 1 30.3288 46.4495 17.4818 3 4.82066e-05 -4.1224
11289 1 32.8016 46.4495 17.4818 3 4.82066e-05 -4.1224
11290 1 31.9851 46.4588 15.1485 3 4.07035e-05 -4.12231
11291 1 34.4579 46.4588 15.1485 3 4.07035e-05 -4.12231
11292 1 33.6372 46.467 12.8155 3 3.92759e-05 -4.12218
11293 1 36.11 46.467 12.8155 3 3.92759e-05 -4.12218
11294 1 35.2845 46.4731 10.4833 3 3.8725e-05 -4.12212
11295 1 37.7572 46.4731 10.4833 3 3.8725e-05 -4.12212
11296 1 36.9272 46.4771 8.15231 3 3.46057e-05 -4.1221
11297 1 39.4 46.4771 8.15231 3 3.46057e-05 -4.1221
11298 1 38.5664 46.4794 5.82233 3 2.95039e-05 -4.12211
11299 1 41.0392 46.4794 5.82233 3 2.95039e-05 -4.12211
11300 1 40.203 46.4807 3.4931 3 2.56145e-05 -4.12212
11301 1 42.6758 46.4807 3.4931 3 2.56145e-05 -4.12212
11302 1 41.8382 46.4812 1.16432 3 2.36101e-05 -4.12212
11303 1 44.311 46.4812 1.16432 3 2.36101e-05 -4.12212
11304 1 12.1408 44.4667 46.631 3 3.16705e-05 -4.12209
11305 1 14.6136 44.4667 46.631 3 3.16705e-05 -4.12209
11306 1 13.7734 44.4662 44.3031 3 3.62616e-05 -4.12207
11307 1 16.2462 44.4662 44.3031 3 3.62616e-05 -4.12207
11308 1 15.408 44.4648 41.9745 3 4.42897e-05 -4.12205
11309 1 17.8808 44.4648 41.9745 3 4.42897e-05 -4.12205
11310 1 17.0461 44.4622 39.645 3 5.52161e-05 -4.12202
11311 1 19.5188 44.4622 39.645 3 5.52161e-05 -4.12202
11312 1 18.6889 44.4575 37.3141 3 6.50011e-05 -4.12201
11313 1 21.1616 44.4575 37.3141 3 6.50011e-05 -4.12201
11314 1 20.3376 44.4501 34.9816 3 6.6379e-05 -4.12208
11315 1 22.8104 44.4501 34.9816 3 6.6379e-05 -4.12208
11316 1 21.9929 44.44 32.6477 3 6.90114e-05 -4.12229
11317 1 24.4657 44.44 32.6477 3 6.90114e-05 -4.12229
11318 1 23.6535 44.429 30.3136 3 8.3298e-05 -4.12236
11319 1 26.1263 44.429 30.3136 3 8.3298e-05 -4.12236
11320 1 25.3181 44.4195 27.9795 3 0.000113302 -4.12248
11321 1 27.7909 44.4195 27.9795 3 0.000113302 -4.12248
11322 1 26.985 44.4138 25.646 3 0.000134837 -4.12254
11323 1 29.4578 44.4138 25.646 3 0.000134837 -4.12254
11324 1 28.6526 44.4138 23.3127 3 0.000134837 -4.12254
11325 1 31.1254 44.4138 23.3127 3 0.000134837 -4.12254
11326 1 30.3195 44.4195 20.9791 3 0.000113302 -4.12248
11327 1 32.7923 44.4195 20.9791 3 0.000113302 -4.12248
11328 1 31.9841 44.429 18.6451 3 8.3298e-05 -4.12236
11329 1 34.4569 44.429 18.6451 3 8.3298e-05 -4.12236
11330 1 33.6447 44.44 16.3109 3 6.90114e-05 -4.12229
11331 1 36.1175 44.44 16.3109 3 6.90114e-05 -4.12229
11332 1 35.3 44.4501 13.9771 3 6.6379e-05 -4.12208
11333 1 37.7728 44.4501 13.9771 3 6.6379e-05 -4.12208
11334 1 36.9488 44.4575 11.6445 3 6.50011e-05 -4.12201
11335 1 39.4216 44.4575 11.6445 3 6.50011e-05 -4.12201
11336 1 38.5916 44.4622 9.31364 3 5.52162e-05 -4.12202
11337 1 41.0644 44.4622 9.31364 3 5.52162e-05 -4.12202
11338 1 40.2296 44.4648 6.9841 3 4.42897e-05 -4.12205
11339 1 42.7024 44.4648 6.9841 3 4.42897e-05 -4.12205
11340 1 41.8643 44.4662 4.65555 3 3.62616e-05 -4.12207
11341 1 44.337 44.4662 4.65555 3 3.62616e-05 -4.12207
11342 1 43.4968 44.4667 2.32763 3 3.16705e-05 -4.12209
11343 1 45.9696 44.4667 2.32763 3 3.16705e-05 -4.12209
11344 1 45.1283 44.4669 48.9586 3 3.02465e-05 -4.1221
11345 1 47.6011 44.4669 48.9586 3 3.02465e-05 -4.1221
11346 1 13.7959 42.4514 47.7953 3 3.88216e-05 -4.12204
11347 1 16.2687 42.4514 47.7953 3 3.88216e-05 -4.12204
11348 1 15.424 42.4513 45.4685 3 4.29685e-05 -4.12203
11349 1 17.8968 42.4513 45.4685 3 4.29685e-05 -4.12203
11350 1 17.0536 42.4508 43.1414 3 5.21401e-05 -4.122
11351 1 19.5264 42.4508 43.1414 3 5.21401e-05 -4.122
11352 1 18.6861 42.4495 40.8135 3 6.79327e-05 -4.12195
11353 1 21.1589 42.4495 40.8135 3 6.79327e-05 -4.12195
11354 1 20.323 42.4468 38.4844 3 9.11994e-05 -4.12188
11355 1 22.7958 42.4468 38.4844 3 9.11994e-05 -4.12188
11356 1 21.9661 42.4416 36.1535 3 0.000115746 -4.12183
11357 1 24.4388 42.4416 36.1535 3 0.000115746 -4.12183
11358 1 23.6173 42.4328 33.8204 3 0.000121899 -4.12189
11359 1 26.0901 42.4328 33.8204 3 0.000121899 -4.12189
11360 1 25.2774 42.4205 31.4854 3 0.000131069 -4.12226
11361 1 27.7502 42.4205 31.4854 3 0.000131069 -4.12226
11362 1 26.9444 42.408 29.1501 3 0.000154237 -4.12225
11363 1 29.4172 42.408 29.1501 3 0.000154237 -4.12225
11364 1 28.6166 42.3982 26.8146 3 0.000231706 -4.12249
11365 1 31.0894 42.3982 26.8146 3 0.000231706 -4.12249
11366 1 30.2916 42.3944 24.4793 3 0.00027212 -4.12258
11367 1 32.7644 42.3944 24.4793 3 0.00027212 -4.12258
11368 1 31.9666 42.3982 22.144 3 0.000231706 -4.12249
11369 1 34.4394 42.3982 22.144 3 0.000231706 -4.12249
11370 1 33.6388 42.408 19.8085 3 0.000154237 -4.12225
11371 1 36.1116 42.408 19.8085 3 0.000154237 -4.12225
11372 1 35.3058 42.4205 17.4732 3 0.000131069 -4.12226
11373 1 37.7786 42.4205 17.4732 3 0.000131069 -4.12226
11374 1 36.9659 42.4328 15.1382 3 0.000121899 -4.12189
11375 1 39.4387 42.4328 15.1382 3 0.000121899 -4.12189
11376 1 38.6172 42.4416 12.8051 3 0.000115746 -4.12183
11377 1 41.0899 42.4416 12.8051 3 0.000115746 -4.12183
11378 1 40.2602 42.4468 10.4743 3 9.11994e-05 -4.12188
11379 1 42.733 42.4468 10.4743 3 9.11994e-05 -4.12188
11380 1 41.8971 42.4495 8.14516 3 6.79327e-05 -4.12195
11381 1 44.3699 42.4495 8.14516 3 6.79327e-05 -4.12195
11382 1 43.5296 42.4508 5.81726 3 5.21401e-05 -4.122
11383 1 46.0024 42.4508 5.81726 3 5.21401e-05 -4.122
11384 1 45.1592 42.4513 3.4901 3 4.29685e-05 -4.12203
11385 1 47.632 42.4513 3.4901 3 4.29685e-05 -4.12203
11386 1 46.7873 42.4514 1.16333 3 3.88216e-05 -4.12204
11387 1 49.2601 42.4514 1.16333 3 3.88216e-05 -4.12204
11388 1 17.0781 40.4348 46.6326 3 5.18024e-05 -4.12196
11389 1 19.5509 40.4348 46.6326 3 5.18024e-05 -4.12196
11390 1 18.7024 40.4348 44.3065 3 6.06629e-05 -4.12193
11391 1 21.1752 40.4348 44.3065 3 6.06629e-05 -4.12193
11392 1 20.3288 40.4346 41.9799 3 7.80201e-05 -4.12187
11393 1 22.8016 40.4346 41.9799 3 7.80201e-05 -4.12187
11394 1 21.9588 40.4336 39.6526 3 0.000108536 -4.12178
11395 1 24.4316 40.4336 39.6526 3 0.000108536 -4.12178
11396 1 23.5944 40.431 37.324 3 0.000158298 -4.12165
11397 1 26.0672 40.431 37.324 3 0.000158298 -4.12165
11398 1 25.2382 40.4256 34.9932 3 0.000221815 -4.1215
11399 1 27.7109 40.4256 34.9932 3 0.000221815 -4.1215
11400 1 26.8931 40.4155 32.6594 3 0.000248953 -4.12152
11401 1 29.3659 40.4155 32.6594 3 0.000248953 -4.12152
11402 1 28.5609 40.4005 30.3228 3 0.000290858 -4.12227
11403 1 31.0337 40.4005 30.3228 3 0.000290857 -4.12227
11404 1 30.2373 40.3872 27.9861 3 0.000307363 -4.122
11405 1 32.71 40.3872 27.9861 3 0.000307363 -4.122
11406 1 31.9211 40.3784 25.6483 3 0.000523821 -4.12257
11407 1 34.3938 40.3784 25.6483 3 0.000523821 -4.12257
11408 1 33.6077 40.3784 23.3103 3 0.000523821 -4.12257
11409 1 36.0805 40.3784 23.3103 3 0.000523821 -4.12257
11410 1 35.2915 40.3872 20.9725 3 0.000307363 -4.122
11411 1 37.7643 40.3872 20.9725 3 0.000307363 -4.122
11412 1 36.9679 40.4005 18.6358 3 0.000290858 -4.12227
11413 1 39.4407 40.4005 18.6358 3 0.000290858 -4.12227
11414 1 38.6356 40.4155 16.2992 3 0.000248953 -4.12152
11415 1 41.1084 40.4155 16.2992 3 0.000248953 -4.12152
11416 1 40.2906 40.4256 13.9654 3 0.000221816 -4.1215
11417 1 42.7634 40.4256 13.9654 3 0.000221816 -4.1215
11418 1 41.9344 40.431 11.6346 3 0.000158298 -4.12165
11419 1 44.4071 40.431 11.6346 3 0.000158298 -4.12165
11420 1 43.5699 40.4336 9.306 3 0.000108536 -4.12178
11421 1 46.0427 40.4336 9.306 3 0.000108536 -4.12178
11422 1 45.2 40.4346 6.97871 3 7.80201e-05 -4.12187
11423 1 47.6727 40.4346 6.97871 3 7.80201e-05 -4.12187
11424 1 46.8264 40.4348 4.65217 3 6.06629e-05 -4.12193
11425 1 49.2992 40.4348 4.65217 3 6.06629e-05 -4.12193
11426 1 48.4506 40.4348 2.326 3 5.18024e-05 -4.12196
11427 1 50.9234 40.4348 2.326 3 5.18024e-05 -4.12196
11428 1 50.0739 40.4348 48.9586 3 4.90573e-05 -4.12197
11429 1 52.5467 40.4348 48.9586 3 4.90573e-05 -4.12197
11430 1 18.7367 38.4171 47.7957 3 6.55492e-05 -4.12185
11431 1 21.2094 38.4171 47.7957 3 6.55492e-05 -4.12185
11432 1 20.3551 38.4173 45.4699 3 7.3238e-05 -4.12182
11433 1 22.8278 38.4173 45.4699 3 7.3238e-05 -4.12182
11434 1 21.975 38.4176 43.144 3 9.07642e-05 -4.12177
11435 1 24.4477 38.4176 43.144 3 9.07642e-05 -4.12177
11436 1 23.5976 38.4177 40.8179 3 0.00012367 -4.12167
11437 1 26.0704 38.4177 40.8179 3 0.00012367 -4.12167
11438 1 25.2246 38.4172 38.4912 3 0.000183731 -4.12151
11439 1 27.6974 38.4172 38.4912 3 0.000183731 -4.12151
11440 1 26.8586 38.4151 36.1632 3 0.000293667 -4.12125
11441 1 29.3314 38.4151 36.1632 3 0.000293667 -4.12125
11442 1 28.5034 38.4098 33.8328 3 0.000468568 -4.12089
11443 1 30.9762 38.4098 33.8328 3 0.000468568 -4.12089
11444 1 30.1641 38.3984 31.4983 3 0.00059098 -4.12071
11445 1 32.6369 38.3984 31.4983 3 0.00059098 -4.12071
11446 1 31.8443 38.3799 29.1594 3 0.000820378 -4.12241
11447 1 34.3171 38.3799 29.1594 3 0.000820378 -4.12241
11448 1 33.5352 38.3679 26.8212 3 0.000708783 -4.12138
11449 1 36.008 38.3679 26.8212 3 0.000708783 -4.12138
11450 1 35.2372 38.3626 24.4793 3 0.00124499 -4.12296
11451 1 37.71 38.3626 24.4793 3 0.00124499 -4.12296
11452 1 36.9392 38.3679 22.1374 3 0.000708783 -4.12138
11453 1 39.412 38.3679 22.1374 3 0.000708783 -4.12138
11454 1 38.63 38.3799 19.7992 3 0.000820378 -4.12241
11455 1 41.1028 38.3799 19.7992 3 0.000820378 -4.12241
11456 1 40.3102 38.3984 17.4603 3 0.00059098 -4.12071
11457 1 42.783 38.3984 17.4603 3 0.00059098 -4.12071
11458 1 41.9709 38.4098 15.1259 3 0.000468568 -4.12089
11459 1 44.4437 38.4098 15.1259 3 0.000468568 -4.12089
11460 1 43.6157 38.4151 12.7954 3 0.000293667 -4.12125
11461 1 46.0885 38.4151 12.7954 3 0.000293667 -4.12125
11462 1 45.2497 38.4172 10.4675 3 0.000183731 -4.12151
11463 1 47.7225 38.4172 10.4675 3 0.000183731 -4.12151
11464 1 46.8768 38.4177 8.14077 3 0.00012367 -4.12167
11465 1 49.3495 38.4177 8.14077 3 0.00012367 -4.12167
11466 1 48.4994 38.4176 5.81463 3 9.07642e-05 -4.12177
11467 1 50.9722 38.4176 5.81463 3 9.07642e-05 -4.12177
11468 1 50.1193 38.4173 3.48873 3 7.3238e-05 -4.12182
11469 1 52.5921 38.4173 3.48873 3 7.3238e-05 -4.12182
11470 1 51.7377 38.4171 1.16291 3 6.55492e-05 -4.12185
11471 1 54.2105 38.4171 1.16291 3 6.55492e-05 -4.12185
11472 1 22.0125 36.3986 46.6323 3 9.18568e-05 -4.12168
11473 1 24.4852 36.3986 46.6323 3 9.18568e-05 -4.12168
11474 1 23.6253 36.399 44.306 3 0.000108355 -4.12161
11475 1 26.0981 36.399 44.306 3 0.000108355 -4.12161
11476 1 25.24 36.3997 41.9799 3 0.000142159 -4.1215
11477 1 27.7128 36.3997 41.9799 3 0.000142159 -4.1215
11478 1 26.858 36.4003 39.6538 3 0.000206701 -4.12131
11479 1 29.3308 36.4003 39.6538 3 0.000206701 -4.12131
11480 1 28.4811 36.4004 37.3276 3 0.000333509 -4.12101
11481 1 30.9539 36.4004 37.3276 3 0.000333509 -4.12101
11482 1 30.1127 36.3992 35.0006 3 0.000598223 -4.12049
11483 1 32.5854 36.3992 35.0006 3 0.000598223 -4.12049
11484 1 31.7584 36.3945 32.6711 3 0.00114061 -4.1196
11485 1 34.2312 36.3945 32.6711 3 0.00114061 -4.1196
11486 1 33.4281 36.3823 30.3364 3 0.00177736 -4.11866
11487 1 35.9008 36.3823 30.3364 3 0.00177736 -4.11866
11488 1 35.1308 36.3588 27.9942 3 0.00336124 -4.12315
11489 1 37.6036 36.3588 27.9942 3 0.00336124 -4.12315
11490 1 36.8451 36.3546 25.6544 3 0.00208926 -4.12065
11491 1 39.3179 36.3546 25.6544 3 0.00208926 -4.12065
11492 1 38.5748 36.3546 23.3043 3 0.00208926 -4.12065
11493 1 41.0476 36.3546 23.3043 3 0.00208926 -4.12065
11494 1 40.2891 36.3588 20.9644 3 0.00336124 -4.12315
11495 1 42.7619 36.3588 20.9644 3 0.00336124 -4.12315
11496 1 41.9918 36.3823 18.6222 3 0.00177737 -4.11866
11497 1 44.4646 36.3823 18.6222 3 0.00177737 -4.11866
11498 1 43.6615 36.3945 16.2875 3 0.00114061 -4.1196
11499 1 46.1342 36.3945 16.2875 3 0.00114061 -4.1196
11500 1 45.3073 36.3992 13.9581 3 0.000598223 -4.12049
11501 1 47.78 36.3992 13.9581 3 0.000598223 -4.12049
11502 1 46.9388 36.4004 11.631 3 0.00033351 -4.12101
11503 1 49.4116 36.4004 11.631 3 0.00033351 -4.12101
11504 1 48.5619 36.4003 9.30478 3 0.000206702 -4.12131
11505 1 51.0347 36.4003 9.30478 3 0.000206702 -4.12131
11506 1 50.1799 36.3997 6.97872 3 0.000142159 -4.1215
11507 1 52.6526 36.3997 6.97872 3 0.000142159 -4.1215
11508 1 51.7946 36.399 4.65258 3 0.000108355 -4.12161
11509 1 54.2674 36.399 4.65258 3 0.000108355 -4.12161
11510 1 53.4074 36.3986 2.32633 3 9.18568e-05 -4.12168
11511 1 55.8802 36.3986 2.32633 3 9.18568e-05 -4.12168
11512 1 55.0194 36.3984 2.29127e-09 3 8.69562e-05 -4.12169
11513 1 57.4922 36.3984 2.29752e-09 3 8.69562e-05 -4.12169
11514 1 23.6757 34.3792 47.7948 3 0.000115414 -4.12147
11515 1 26.1485 34.3792 47.7948 3 0.000115414 -4.12147
11516 1 25.281 34.3796 45.4671 3 0.000127924 -4.12141
11517 1 27.7538 34.3796 45.4671 3 0.000127924 -4.12141
11518 1 26.8873 34.3803 43.1397 3 0.000158073 -4.12129
11519 1 29.3601 34.3803 43.1397 3 0.000158073 -4.12129
11520 1 28.4956 34.3813 40.8125 3 0.000219406 -4.12107
11521 1 30.9684 34.3813 40.8125 3 0.000219406 -4.12107
11522 1 30.1072 34.3823 38.4858 3 0.00034635 -4.12071
11523 1 32.58 34.3823 38.4858 3 0.00034635 -4.12071
11524 1 31.7243 34.3831 36.1595 3 0.000630913 -4.12007
11525 1 34.1971 34.3831 36.1595 3 0.000630913 -4.12007
11526 1 33.351 34.383 33.8334 3 0.00135468 -4.11886
11527 1 35.8238 34.383 33.8334 3 0.00135468 -4.11886
11528 1 34.9961 34.3799 31.5058 3 0.00346241 -4.11633
11529 1 37.4689 34.3799 31.5058 3 0.00346241 -4.11633
11530 1 36.6792 34.3684 29.1724 3 0.00841238 -4.11182
11531 1 39.152 34.3684 29.1724 3 0.00841238 -4.11182
11532 1 38.4325 34.339 26.8251 3 0.0361452 -4.12628
11533 1 40.9053 34.339 26.8251 3 0.0361452 -4.12628
11534 1 40.1827 34.3611 24.4793 3 0.0111429 -4.10153
11535 1 42.6555 34.3611 24.4793 3 0.0111429 -4.10153
11536 1 41.933 34.339 22.1335 3 0.0361452 -4.12628
11537 1 44.4058 34.339 22.1335 3 0.0361452 -4.12628
11538 1 43.6863 34.3684 19.7862 3 0.00841238 -4.11182
11539 1 46.1591 34.3684 19.7862 3 0.00841238 -4.11182
11540 1 45.3694 34.3799 17.4528 3 0.00346242 -4.11633
11541 1 47.8421 34.3799 17.4528 3 0.00346242 -4.11633
11542 1 47.0145 34.383 15.1253 3 0.00135468 -4.11886
11543 1 49.4872 34.383 15.1253 3 0.00135468 -4.11886
11544 1 48.6412 34.3831 12.7991 3 0.000630913 -4.12007
11545 1 51.114 34.3831 12.7991 3 0.000630913 -4.12007
11546 1 50.2583 34.3823 10.4728 3 0.00034635 -4.12071
11547 1 52.7311 34.3823 10.4728 3 0.00034635 -4.12071
11548 1 51.8699 34.3813 8.14609 3 0.000219406 -4.12107
11549 1 54.3427 34.3813 8.14609 3 0.000219406 -4.12107
11550 1 53.4782 34.3803 5.81895 3 0.000158073 -4.12129
11551 1 55.951 34.3803 5.81895 3 0.000158073 -4.12129
11552 1 55.0845 34.3796 3.49149 3 0.000127924 -4.12141
11553 1 57.5573 34.3796 3.49149 3 0.000127924 -4.12141
11554 1 56.6898 34.3792 1.16385 3 0.000115414 -4.12147
11555 1 59.1625 34.3792 1.16385 3 0.000115414 -4.12147
11556 1 26.9433 32.3599 46.6288 3 0.000142377 -4.12113
11557 1 29.4161 32.3599 46.6288 3 0.000142377 -4.12113
11558 1 28.5409 32.3605 44.299 3 0.000163748 -4.12102
11559 1 31.0137 32.3605 44.299 3 0.000163748 -4.12102
11560 1 30.1394 32.3615 41.9694 3 0.000209208 -4.12082
11561 1 32.6122 32.3615 41.9694 3 0.000209208 -4.12082
11562 1 31.7393 32.3628 39.64 3 0.00030275 -4.12045
11563 1 34.2121 32.3628 39.64 3 0.00030275 -4.12045
11564 1 33.3417 32.3642 37.3111 3 0.00051239 -4.11977
11565 1 35.8145 32.3642 37.3111 3 0.00051239 -4.11977
11566 1 34.9484 32.3657 34.9828 3 0.00106837 -4.11841
11567 1 37.4211 32.3657 34.9828 3 0.00106837 -4.11841
11568 1 36.5634 32.3668 32.6555 3 0.00296101 -4.11528
11569 1 39.0362 32.3668 32.6555 3 0.00296101 -4.11528
11570 1 38.1979 32.3659 30.3292 3 0.0128667 -4.10575
11571 1 40.6707 32.3659 30.3292 3 0.0128667 -4.10575
11572 1 39.8928 32.3588 28.0005 3 0.140712 -4.0469
11573 1 42.3655 32.3588 28.0005 3 0.140712 -4.0469
11574 1 41.8562 32.3521 25.6463 5 5.31346 -4.04848
11575 1 44.329 32.3521 25.6463 5 5.31346 -4.04848
11576 1 43.4548 32.3521 23.3123 5 5.31346 -4.04848
11577 1 45.9276 32.3521 23.3123 5 5.31346 -4.04848
11578 1 45.4183 32.3588 20.9581 3 0.140712 -4.0469
11579 1 47.8911 32.3588 20.9581 3 0.140712 -4.0469
11580 1 47.1131 32.3659 18.6294 3 0.0128667 -4.10575
11581 1 49.5859 32.3659 18.6294 3 0.0128667 -4.10575
11582 1 48.7476 32.3668 16.3031 3 0.00296101 -4.11528
11583 1 51.2204 32.3668 16.3031 3 0.00296101 -4.11528
11584 1 50.3627 32.3657 13.9758 3 0.00106837 -4.11841
11585 1 52.8355 32.3657 13.9758 3 0.00106837 -4.11841
11586 1 51.9694 32.3642 11.6475 3 0.00051239 -4.11977
11587 1 54.4422 32.3642 11.6475 3 0.00051239 -4.11977
11588 1 53.5717 32.3628 9.31858 3 0.00030275 -4.12045
11589 1 56.0445 32.3628 9.31858 3 0.00030275 -4.12045
11590 1 55.1716 32.3615 6.98921 3 0.000209208 -4.12082
11591 1 57.6444 32.3615 6.98921 3 0.000209208 -4.12082
11592 1 56.7701 32.3605 4.65959 3 0.000163749 -4.12102
11593 1 59.2429 32.3605 4.65959 3 0.000163749 -4.12102
11594 1 58.3677 32.3599 2.32983 3 0.000142377 -4.12113
11595 1 60.8405 32.3599 2.32983 3 0.000142377 -4.12113
11596 1 59.965 32.3597 2.88284e-09 3 0.00013603 -4.12116
11597 1 62.4378 32.3597 2.88728e-09 3 0.00013603 -4.12116
11598 1 28.6134 30.3403 47.7924 3 0.000141586 -4.12074
11599 1 31.0862 30.3403 47.7924 3 0.000141586 -4.12074
11600 1 30.2025 30.3408 45.46 3 0.000154623 -4.12067
11601 1 32.6753 30.3408 45.46 3 0.000154623 -4.12067
11602 1 31.7917 30.3417 43.1275 3 0.00018524 -4.12051
11603 1 34.2644 30.3417 43.1275 3 0.00018524 -4.12051
11604 1 33.3808 30.343 40.7947 3 0.000246691 -4.12024
11605 1 35.8536 30.343 40.7947 3 0.000246691 -4.12024
11606 1 34.9699 30.3448 38.4616 3 0.000372786 -4.11979
11607 1 37.4426 30.3448 38.4616 3 0.000372786 -4.11979
11608 1 36.5588 30.3469 36.1279 3 0.000661326 -4.11905
11609 1 39.0316 30.3469 36.1279 3 0.000661326 -4.11905
11610 1 38.1472 30.3494 33.7931 3 0.00146478 -4.1177
11611 1 40.62 30.3494 33.7931 3 0.00146478 -4.1177
11612 1 39.7347 30.3523 31.4565 3 0.00450872 -4.11471
11613 1 42.2075 30.3523 31.4565 3 0.00450872 -4.11471
11614 1 41.3184 30.3548 29.1174 3 0.0254563 -4.10472
11615 1 43.7912 30.3548 29.1174 3 0.0254563 -4.10472
11616 1 42.8594 30.3458 26.7868 5 7.69492 -4.05571
11617 1 45.3322 30.3458 26.7868 5 7.69492 -4.05571
11618 1 43.8919 30.3079 24.4793 5 2.29704 -3.99361
11619 1 46.3647 30.3079 24.4793 5 2.29704 -3.99361
11620 1 44.9244 30.3458 22.1719 5 7.69492 -4.05571
11621 1 47.3972 30.3458 22.1719 5 7.69492 -4.05571
11622 1 46.4654 30.3548 19.8412 3 0.0254563 -4.10472
11623 1 48.9382 30.3548 19.8412 3 0.0254563 -4.10472
11624 1 48.0491 30.3523 17.5021 3 0.00450872 -4.11471
11625 1 50.5219 30.3523 17.5021 3 0.00450872 -4.11471
11626 1 49.6366 30.3494 15.1655 3 0.00146478 -4.1177
11627 1 52.1094 30.3494 15.1655 3 0.00146478 -4.1177
11628 1 51.2251 30.3469 12.8307 3 0.000661326 -4.11905
11629 1 53.6978 30.3469 12.8307 3 0.000661326 -4.11905
11630 1 52.814 30.3448 10.497 3 0.000372786 -4.11979
11631 1 55.2868 30.3448 10.497 3 0.000372786 -4.11979
11632 1 54.403 30.343 8.16388 3 0.000246692 -4.12024
11633 1 56.8758 30.343 8.16388 3 0.000246692 -4.12024
11634 1 55.9922 30.3417 5.83113 3 0.00018524 -4.12051
11635 1 58.465 30.3417 5.83113 3 0.00018524 -4.12051
11636 1 57.5813 30.3408 3.4986 3 0.000154623 -4.12067
11637 1 60.0541 30.3408 3.4986 3 0.000154623 -4.12067
11638 1 59.1704 30.3403 1.16619 3 0.000141586 -4.12074
11639 1 61.6432 30.3403 1.16619 3 0.000141586 -4.12074
11640 1 31.8728 28.3211 46.6239 3 0.000129519 -4.1202
11641 1 34.3456 28.3211 46.6239 3 0.000129519 -4.1202
11642 1 33.4537 28.3219 44.2889 3 0.000149472 -4.12007
11643 1 35.9265 28.3219 44.2889 3 0.000149472 -4.12007
11644 1 35.0338 28.3233 41.9536 3 0.000191447 -4.11982
11645 1 37.5066 28.3233 41.9536 3 0.000191447 -4.11982
11646 1 36.6127 28.3251 39.6177 3 0.000275951 -4.11942
11647 1 39.0855 28.3251 39.6177 3 0.000275951 -4.11942
11648 1 38.1894 28.3274 37.2809 3 0.000456136 -4.11879
11649 1 40.6622 28.3274 37.2809 3 0.000456136 -4.11879
11650 1 39.7623 28.3302 34.943 3 0.000890241 -4.11774
11651 1 42.2351 28.3302 34.943 3 0.000890241 -4.11774
11652 1 41.328 28.3332 32.6038 3 0.00219321 -4.11591
11653 1 43.8008 28.3332 32.6038 3 0.00219321 -4.11591
11654 1 42.8777 28.3349 30.2646 3 0.00787771 -4.1127
11655 1 45.3505 28.3349 30.2646 3 0.00787771 -4.1127
11656 1 44.381 28.3262 27.9331 3 0.04025 -4.10128
11657 1 46.8537 28.3262 27.9331 3 0.04025 -4.10128
11658 1 45.7317 28.2786 25.6293 3 0.0799124 -4.03666
11659 1 48.2044 28.2786 25.6293 3 0.0799124 -4.03666
11660 1 46.9977 28.2786 23.3294 3 0.0799124 -4.03666
11661 1 49.4705 28.2786 23.3294 3 0.0799124 -4.03666
11662 1 48.3484 28.3262 21.0255 3 0.04025 -4.10128
11663 1 50.8212 28.3262 21.0255 3 0.04025 -4.10128
11664 1 49.8517 28.3349 18.694 3 0.00787771 -4.1127
11665 1 52.3245 28.3349 18.694 3 0.00787771 -4.1127
11666 1 51.4014 28.3332 16.3548 3 0.00219322 -4.11591
11667 1 53.8741 28.3332 16.3548 3 0.00219322 -4.11591
11668 1 52.9671 28.3302 14.0157 3 0.000890241 -4.11774
11669 1 55.4398 28.3302 14.0157 3 0.000890241 -4.11774
11670 1 54.54 28.3274 11.6777 3 0.000456136 -4.11879
11671 1 57.0127 28.3274 11.6777 3 0.000456136 -4.11879
11672 1 56.1167 28.3251 9.34094 3 0.000275951 -4.11942
11673 1 58.5895 28.3251 9.34094 3 0.000275951 -4.11942
11674 1 57.6956 28.3233 7.00503 3 0.000191447 -4.11982
11675 1 60.1683 28.3233 7.00503 3 0.000191447 -4.11982
11676 1 59.2757 28.3219 4.66972 3 0.000149472 -4.12007
11677 1 61.7485 28.3219 4.66972 3 0.000149472 -4.12007
11678 1 60.8566 28.3211 2.33477 3 0.000129519 -4.1202
11679 1 33.5514 26.3015 47.7904 3 9.91672e-05 -4.11967
11680 1 36.0242 26.3015 47.7904 3 9.91672e-05 -4.11967
11681 1 35.1251 26.3021 45.4538 3 0.000109496 -4.11957
11682 1 37.5979 26.3021 45.4538 3 0.000109496 -4.11957
11683 1 36.6979 26.3032 43.117 3 0.000133537 -4.11936
11684 1 39.1707 26.3032 43.117 3 0.000133537 -4.11936
11685 1 38.2692 26.3049 40.7797 3 0.000180367 -4.11901
11686 1 40.742 26.3049 40.7797 3 0.000180367 -4.11901
11687 1 39.8377 26.307 38.4419 3 0.000271562 -4.11847
11688 1 42.3105 26.307 38.4419 3 0.000271562 -4.11847
11689 1 41.4017 26.3093 36.1037 3 0.000464591 -4.11763
11690 1 43.8745 26.3093 36.1037 3 0.000464591 -4.11763
11691 1 42.9579 26.3112 33.7656 3 0.000951108 -4.11627
11692 1 45.4307 26.3112 33.7656 3 0.000951108 -4.11627
11693 1 44.4989 26.3104 31.4299 3 0.00245828 -4.11406
11694 1 46.9717 26.3104 31.4299 3 0.00245828 -4.11406
11695 1 46.0078 26.3002 29.1027 3 0.00637848 -4.10946
11696 1 48.4806 26.3002 29.1027 3 0.00637848 -4.10946
11697 1 47.4525 26.2669 26.7934 3 0.00997197 -4.09174
11698 1 49.9253 26.2669 26.7934 3 0.00997197 -4.09174
11699 1 48.8375 26.2457 24.4793 3 0.0166214 -4.08223
11700 1 51.3103 26.2457 24.4793 3 0.0166214 -4.08223
11701 1 50.2225 26.2669 22.1652 3 0.00997198 -4.09174
11702 1 52.6953 26.2669 22.1652 3 0.00997198 -4.09174
11703 1 51.6671 26.3002 19.8559 3 0.00637848 -4.10946
11704 1 54.1399 26.3002 19.8559 3 0.00637848 -4.10946
11705 1 53.1761 26.3104 17.5287 3 0.00245828 -4.11406
11706 1 55.6489 26.3104 17.5287 3 0.00245828 -4.11406
11707 1 54.7171 26.3112 15.193 3 0.000951108 -4.11627
11708 1 57.1899 26.3112 15.193 3 0.000951108 -4.11627
11709 1 56.2732 26.3093 12.8549 3 0.000464591 -4.11763
11710 1 58.746 26.3093 12.8549 3 0.000464591 -4.11763
11711 1 57.8373 26.307 10.5167 3 0.000271562 -4.11847
11712 1 60.31 26.307 10.5167 3 0.000271562 -4.11847
11713 1 59.4058 26.3049 8.17893 3 0.000180367 -4.11901
11714 1 61.8786 26.3049 8.17893 3 0.000180367 -4.11901
11715 1 60.977 26.3032 5.84167 3 0.000133537 -4.11936
11716 1 36.8046 24.2818 46.6212 3 7.83887e-05 -4.11909
11717 1 39.2774 24.2818 46.6212 3 7.83887e-05 -4.11909
11718 1 38.3714 24.2827 44.2836 3 9.09683e-05 -4.11894
11719 1 40.8442 24.2827 44.2836 3 9.09683e-05 -4.11894
11720 1 39.9366 24.2841 41.9459 3 0.000116215 -4.11866
11721 1 42.4094 24.2841 41.9459 3 0.000116215 -4.11866
11722 1 41.4992 24.2858 39.6081 3 0.000164011 -4.11823
11723 1 43.972 24.2858 39.6081 3 0.000164011 -4.11823
11724 1 43.0576 24.2874 37.2705 3 0.000260539 -4.11759
11725 1 45.5304 24.2874 37.2705 3 0.000260539 -4.11759
11726 1 44.6088 24.2879 34.9338 3 0.000482604 -4.11663
11727 1 47.0816 24.2879 34.9338 3 0.000482604 -4.11663
11728 1 46.1475 24.2854 32.6002 3 0.00101185 -4.11517
11729 1 48.6203 24.2854 32.6002 3 0.00101185 -4.11517
11730 1 47.6641 24.275 30.2733 3 0.00186199 -4.11259
11731 1 50.1369 24.275 30.2733 3 0.00186199 -4.11259
11732 1 49.1452 24.2507 27.9568 3 0.00236274 -4.10559
11733 1 51.618 24.2507 27.9568 3 0.00236274 -4.10559
11734 1 50.5933 24.2286 25.64 3 0.0045529 -4.09981
11735 1 53.0661 24.2286 25.64 3 0.0045529 -4.09981
11736 1 52.0272 24.2286 23.3186 3 0.0045529 -4.09981
11737 1 54.5 24.2286 23.3186 3 0.0045529 -4.09981
11738 1 53.4753 24.2507 21.0019 3 0.00236274 -4.10559
11739 1 55.9481 24.2507 21.0019 3 0.00236274 -4.10559
11740 1 54.9564 24.275 18.6853 3 0.00186199 -4.11259
11741 1 57.4292 24.275 18.6853 3 0.00186199 -4.11259
11742 1 56.473 24.2854 16.3584 3 0.00101185 -4.11517
11743 1 58.9458 24.2854 16.3584 3 0.00101185 -4.11517
11744 1 58.0117 24.2879 14.0248 3 0.000482604 -4.11663
11745 1 60.4845 24.2879 14.0248 3 0.000482604 -4.11663
11746 1 59.563 24.2874 11.6882 3 0.000260539 -4.11759
11747 1 62.0357 24.2874 11.6882 3 0.000260539 -4.11759
11748 1 61.1213 24.2858 9.35054 3 0.000164011 -4.11823
11749 1 38.4909 22.261 47.7898 3 5.81635e-05 -4.11867
11750 1 40.9637 22.261 47.7898 3 5.81635e-05 -4.11867
11751 1 40.0524 22.2615 45.4521 3 6.41046e-05 -4.11857
11752 1 42.5252 22.2615 45.4521 3 6.41046e-05 -4.11857
11753 1 41.6127 22.2625 43.1146 3 7.79181e-05 -4.11836
11754 1 44.0855 22.2625 43.1146 3 7.79181e-05 -4.11836
11755 1 43.1707 22.2637 40.7772 3 0.000104555 -4.11804
11756 1 45.6435 22.2637 40.7772 3 0.000104555 -4.11804
11757 1 44.725 22.2646 38.4403 3 0.000157093 -4.11755
11758 1 47.1978 22.2646 38.4403 3 0.000157093 -4.11755
11759 1 46.2732 22.2642 36.1048 3 0.000266142 -4.11685
11760 1 48.746 22.2642 36.1048 3 0.000266142 -4.11685
11761 1 47.8115 22.2608 33.7722 3 0.000471623 -4.11582
11762 1 50.2842 22.2608 33.7722 3 0.000471623 -4.11582
11763 1 49.334 22.2512 31.4446 3 0.000701874 -4.11412
11764 1 51.8068 22.2512 31.4446 3 0.000701874 -4.11412
11765 1 50.8346 22.2327 29.1232 3 0.000811247 -4.11062
11766 1 53.3073 22.2327 29.1232 3 0.000811247 -4.11062
11767 1 52.3148 22.2131 26.8028 3 0.00142287 -4.10738
11768 1 54.7876 22.2131 26.8028 3 0.00142287 -4.10738
11769 1 53.7831 22.2049 24.4793 3 0.00172072 -4.10623
11770 1 56.2558 22.2049 24.4793 3 0.00172072 -4.10623
11771 1 55.2513 22.2131 22.1558 3 0.00142287 -4.10738
11772 1 57.7241 22.2131 22.1558 3 0.00142287 -4.10738
11773 1 56.7315 22.2327 19.8354 3 0.000811247 -4.11062
11774 1 59.2043 22.2327 19.8354 3 0.000811247 -4.11062
11775 1 58.2321 22.2512 17.514 3 0.000701874 -4.11412
11776 1 60.7049 22.2512 17.514 3 0.000701874 -4.11412
11777 1 59.7546 22.2608 15.1864 3 0.000471623 -4.11582
11778 1 62.2274 22.2608 15.1864 3 0.000471623 -4.11582
11779 1 61.2929 22.2642 12.8538 3 0.000266141 -4.11685
11780 1 41.7396 20.2396 46.6214 3 4.80558e-05 -4.11824
11781 1 44.2124 20.2396 46.6214 3 4.80558e-05 -4.11824
11782 1 43.2956 20.2402 44.2843 3 5.54392e-05 -4.1181
11783 1 45.7684 20.2402 44.2843 3 5.54392e-05 -4.1181
11784 1 44.8498 20.2409 41.9475 3 7.05626e-05 -4.11786
11785 1 47.3226 20.2409 41.9475 3 7.05626e-05 -4.11786
11786 1 46.4009 20.2412 39.6115 3 9.97795e-05 -4.11749
11787 1 48.8736 20.2412 39.6115 3 9.97795e-05 -4.11749
11788 1 47.9469 20.2403 37.2769 3 0.000154051 -4.11696
11789 1 50.4197 20.2403 37.2769 3 0.000154051 -4.11696
11790 1 49.4852 20.2367 34.9447 3 0.000237837 -4.1162
11791 1 51.958 20.2367 34.9447 3 0.000237837 -4.1162
11792 1 51.012 20.2283 32.6161 3 0.000309047 -4.11501
11793 1 53.4848 20.2283 32.6161 3 0.000309047 -4.11501
11794 1 52.5242 20.2138 30.2916 3 0.000342001 -4.11299
11795 1 54.997 20.2138 30.2916 3 0.000342001 -4.11299
11796 1 54.0229 20.1974 27.9681 3 0.000541395 -4.11102
11797 1 56.4957 20.1974 27.9681 3 0.000541395 -4.11102
11798 1 55.5126 20.1865 25.6426 3 0.000695882 -4.1099
11799 1 57.9854 20.1865 25.6426 3 0.000695882 -4.1099
11800 1 56.9991 20.1865 23.316 3 0.000695882 -4.1099
11801 1 59.4719 20.1865 23.316 3 0.000695882 -4.1099
11802 1 58.4888 20.1974 20.9906 3 0.000541395 -4.11102
11803 1 60.9616 20.1974 20.9906 3 0.000541395 -4.11102
11804 1 59.9874 20.2138 18.667 3 0.000342001 -4.11299
11805 1 62.4602 20.2138 18.667 3 0.000342001 -4.11299
11806 1 61.4996 20.2283 16.3425 3 0.000309047 -4.11501
11807 1 43.4319 18.2167 47.7904 3 3.80993e-05 -4.11796
11808 1 45.9046 18.2167 47.7904 3 3.80993e-05 -4.11796
11809 1 44.9841 18.2169 45.454 3 4.16723e-05 -4.11787
11810 1 47.4569 18.2169 45.454 3 4.16723e-05 -4.11787
11811 1 46.5349 18.2172 43.1181 3 4.99255e-05 -4.1177
11812 1 49.0077 18.2172 43.1181 3 4.99255e-05 -4.1177
11813 1 48.0832 18.2172 40.7829 3 6.57171e-05 -4.11742
11814 1 50.556 18.2172 40.7829 3 6.57171e-05 -4.11742
11815 1 49.6275 18.216 38.4489 3 9.22624e-05 -4.11701
11816 1 52.1003 18.216 38.4489 3 9.22624e-05 -4.11701
11817 1 51.1658 18.2126 36.1169 3 0.000127291 -4.11643
11818 1 53.6386 18.2126 36.1169 3 0.000127291 -4.11643
11819 1 52.6956 18.2056 33.7876 3 0.000151781 -4.11557
11820 1 55.1684 18.2056 33.7876 3 0.000151781 -4.11557
11821 1 54.2152 18.1942 31.4609 3 0.000165317 -4.11428
11822 1 56.688 18.1942 31.4609 3 0.000165317 -4.11428
11823 1 55.7253 18.1808 29.135 3 0.000239462 -4.11297
11824 1 58.1981 18.1808 29.135 3 0.000239462 -4.11297
11825 1 57.2286 18.1699 26.8079 3 0.000309455 -4.11207
11826 1 59.7014 18.1699 26.8079 3 0.000309455 -4.11207
11827 1 58.7286 18.1658 24.4793 3 0.000334306 -4.11174
11828 1 61.2014 18.1658 24.4793 3 0.000334306 -4.11174
11829 1 60.2286 18.1699 22.1507 3 0.000309455 -4.11207
11830 1 62.7014 18.1699 22.1507 3 0.000309455 -4.11207
11831 1 61.732 18.1808 19.8236 3 0.000239462 -4.11297
11832 1 46.677 16.1927 46.6232 3 3.25865e-05 -4.11766
11833 1 49.1498 16.1927 46.6232 3 3.25865e-05 -4.11766
11834 1 48.2249 16.1928 44.2882 3 3.6577e-05 -4.11754
11835 1 50.6976 16.1928 44.2882 3 3.6577e-05 -4.11754
11836 1 49.7708 16.1925 41.9537 3 4.43745e-05 -4.11733
11837 1 52.2435 16.1925 41.9537 3 4.43745e-05 -4.11733
11838 1 51.3135 16.1913 39.6204 3 5.67156e-05 -4.11702
11839 1 53.7863 16.1913 39.6204 3 5.67156e-05 -4.11702
11840 1 52.8516 16.1884 37.2886 3 7.14129e-05 -4.11657
11841 1 55.3244 16.1884 37.2886 3 7.14129e-05 -4.11657
11842 1 54.3834 16.1827 34.9586 3 8.10424e-05 -4.11593
11843 1 56.8562 16.1827 34.9586 3 8.10424e-05 -4.11593
11844 1 55.9079 16.174 32.6304 3 8.87972e-05 -4.11504
11845 1 58.3807 16.174 32.6304 3 8.87972e-05 -4.11504
11846 1 57.4254 16.1633 30.3028 3 0.000119747 -4.11412
11847 1 59.8982 16.1633 30.3028 3 0.000119747 -4.11412
11848 1 58.9377 16.1536 27.9744 3 0.000151325 -4.1134
11849 1 61.4105 16.1536 27.9744 3 0.000151325 -4.1134
11850 1 60.4472 16.1478 25.6446 3 0.000163251 -4.11301
11851 1 62.9199 16.1478 25.6446 3 0.000163251 -4.11301
11852 1 61.9557 16.1478 23.3141 3 0.000163251 -4.11301
11853 1 48.3738 14.1675 47.7915 3 2.60015e-05 -4.11745
11854 1 50.8466 14.1675 47.7915 3 2.60015e-05 -4.11745
11855 1 49.9188 14.1674 45.4574 3 2.74318e-05 -4.11738
11856 1 52.3916 14.1674 45.4574 3 2.74318e-05 -4.11738
11857 1 51.4624 14.167 43.1237 3 3.05819e-05 -4.11723
11858 1 53.9352 14.167 43.1237 3 3.05819e-05 -4.11723
11859 1 53.0037 14.166 40.7909 3 3.56114e-05 -4.11699
11860 1 55.4765 14.166 40.7909 3 3.56114e-05 -4.11699
11861 1 54.5415 14.1636 38.4592 3 4.15637e-05 -4.11665
11862 1 57.0143 14.1636 38.4592 3 4.15637e-05 -4.11665
11863 1 56.0746 14.1593 36.1289 3 4.62847e-05 -4.11616
11864 1 58.5473 14.1593 36.1289 3 4.62847e-05 -4.11616
11865 1 57.6023 14.1528 33.7998 3 5.23261e-05 -4.11553
11866 1 60.075 14.1528 33.7998 3 5.23261e-05 -4.11553
11867 1 59.1248 14.1447 31.471 3 6.74147e-05 -4.11484
11868 1 61.5976 14.1447 31.471 3 6.74147e-05 -4.11484
11869 1 60.6433 14.1367 29.1415 3 8.12689e-05 -4.11426
11870 1 63.1161 14.1367 29.1415 3 8.12689e-05 -4.11426
11871 1 62.1593 14.1309 26.8109 3 8.36351e-05 -4.11388
11872 1 51.6162 12.1411 46.6254 3 2.08718e-05 -4.11721
11873 1 54.0889 12.1411 46.6254 3 2.08718e-05 -4.11721
11874 1 53.1576 12.1407 44.2926 3 2.14783e-05 -4.11711
11875 1 55.6304 12.1407 44.2926 3 2.14783e-05 -4.11711
11876 1 54.6974 12.1399 41.9603 3 2.27765e-05 -4.11694
11877 1 57.1702 12.1399 41.9603 3 2.27765e-05 -4.11694
11878 1 56.2347 12.1382 39.6288 3 2.48704e-05 -4.11668
11879 1 58.7075 12.1382 39.6288 3 2.48704e-05 -4.11668
11880 1 57.7685 12.1352 37.2983 3 2.80027e-05 -4.11632
11881 1 60.2413 12.1352 37.2983 3 2.80027e-05 -4.11632
11882 1 59.2983 12.1306 34.9685 3 3.3698e-05 -4.11585
11883 1 61.7711 12.1306 34.9685 3 3.3698e-05 -4.11585
11884 1 60.8243 12.1249 32.6389 3 4.29304e-05 -4.11534
11885 1 63.2971 12.1249 32.6389 3 4.29304e-05 -4.11534
11886 1 62.3471 12.1189 30.3088 3 4.8972e-05 -4.11486
11887 1 53.3165 10.1138 47.7925 3 1.59529e-05 -4.11702
11888 1 55.7893 10.1138 47.7925 3 1.59529e-05 -4.11702
11889 1 54.8558 10.1136 45.4603 3 1.54783e-05 -4.11697
11890 1 57.3286 10.1136 45.4603 3 1.54783e-05 -4.11697
11891 1 56.3941 10.1131 43.1284 3 1.49876e-05 -4.11685
11892 1 58.8669 10.1131 43.1284 3 1.49876e-05 -4.11685
11893 1 57.9306 10.1119 40.7971 3 1.53535e-05 -4.11667
11894 1 60.4034 10.1119 40.7971 3 1.53535e-05 -4.11667
11895 1 59.4647 10.1101 38.4664 3 1.79658e-05 -4.11641
11896 1 61.9375 10.1101 38.4664 3 1.79658e-05 -4.11641
11897 1 60.996 10.1072 36.1361 3 2.37569e-05 -4.11607
11898 1 63.4688 10.1072 36.1361 3 2.37569e-05 -4.11607
11899 1 62.5244 10.1037 33.806 3 3.09937e-05 -4.11568
11900 1 56.5566 8.0857 46.627 3 1.16e-05 -4.11731
11901 1 59.0294 8.0857 46.627 3 1.16e-05 -4.11731
11902 1 58.0932 8.08542 44.2954 3 1.05633e-05 -4.11722
11903 1 60.566 8.08542 44.2954 3 1.05633e-05 -4.11722
11904 1 59.6288 8.08489 41.9642 3 1.03533e-05 -4.11706
11905 1 62.1016 8.08489 41.9642 3 1.03533e-05 -4.11706
11906 1 61.1628 8.084 39.6332 3 1.28943e-05 -4.11683
11907 1 63.6356 8.084 39.6332 3 1.28943e-05 -4.11683
11908 1 62.695 8.0827 37.3025 3 1.88848e-05 -4.11652
11909 1 58.2597 6.05706 47.7929 3 0.000192152 -4.11661
11910 1 60.7325 6.05706 47.7929 3 0.000192152 -4.11661
11911 1 59.7946 6.05706 45.4616 3 0.000190055 -4.11656
11912 1 62.2674 6.05706 45.4616 3 0.000190055 -4.11656
11913 1 61.3289 6.05706 43.1302 3 0.000182135 -4.11648
11914 1 63.8017 6.05706 43.1302 3 0.000182136 -4.11648
11915 1 62.8625 6.05706 40.7989 3 0.000163309 -4.11634
11916 1 61.4991 4.03804 46.6273 3 1.41686e-06 -4.11576
11917 1 63.9718 4.03804 46.6273 3 1.41686e-06 -4.11576
11918 1 63.0328 4.03804 44.2959 3 1.43101e-06 -4.11573
11919 1 63.2045 2.01902 47.7929 3 8.63857e-07 -4.10005
11920 1 1.4361 62.5896 40.7989 5 12.2235 -3.54471
11921 1 0.611008 62.5896 38.4675 5 12.2231 -3.54468
11922 1 3.08379 62.5896 38.4675 5 12.2231 -3.54468
11923 1 2.25932 62.5896 36.1361 5 12.2233 -3.54464
11924 1 4.73211 62.5896 36.1361 5 12.2233 -3.54464
11925 1 3.9083 62.5896 33.8048 5 12.2239 -3.54461
11926 1 6.38109 62.5896 33.8048 5 12.2239 -3.54461
11927 1 5.55791 62.5896 31.4734 5 12.2265 -3.54458
11928 1 8.03069 62.5896 31.4734 5 12.2265 -3.54458
11929 1 7.20805 62.5896 29.142 5 12.2286 -3.54455
11930 1 9.68083 62.5896 29.142 5 12.2286 -3.54455
11931 1 8.85859 62.5896 26.8107 5 12.2309 -3.54454
11932 1 11.3314 62.5896 26.8107 5 12.2309 -3.54454
11933 1 10.5093 62.5896 24.4793 5 12.2318 -3.54453
11934 1 12.9821 62.5896 24.4793 5 12.2318 -3.54453
11935 1 12.1601 62.5896 22.1479 5 12.2309 -3.54454
11936 1 14.6329 62.5896 22.1479 5 12.2309 -3.54454
11937 1 13.8106 62.5896 19.8166 5 12.2286 -3.54455
11938 1 16.2834 62.5896 19.8166 5 12.2286 -3.54455
11939 1 15.4608 62.5896 17.4852 5 12.2265 -3.54458
11940 1 17.9335 62.5896 17.4852 5 12.2265 -3.54458
11941 1 17.1104 62.5896 15.1539 5 12.2239 -3.54461
11942 1 19.5831 62.5896 15.1539 5 12.2239 -3.54461
11943 1 18.7593 62.5896 12.8225 5 12.2233 -3.54464
11944 1 21.2321 62.5896 12.8225 5 12.2233 -3.54464
11945 1 20.4077 62.5896 10.4911 5 12.2231 -3.54468
11946 1 22.8804 62.5896 10.4911 5 12.2231 -3.54468
11947 1 22.0553 62.5896 8.15977 5 12.2235 -3.54471
11948 1 24.5281 62.5896 8.15977 5 12.2235 -3.54471
11949 1 23.7025 62.5896 5.82841 5 6.11184 -3.54474
11950 1 26.1753 62.5896 5.82841 5 6.11184 -3.54474
11951 1 25.3492 62.5896 3.49704 5 6.11233 -3.54476
11952 1 27.822 62.5896 3.49704 5 6.11233 -3.54476
11953 1 26.9956 62.5896 1.16568 5 6.11303 -3.54477
11954 1 29.4684 62.5896 1.16568 5 6.11303 -3.54477
11955 1 1.43716 60.5706 44.2959 3 1.02815e-06 -4.10664
11956 1 0.610807 60.5706 41.9645 3 1.04077e-06 -4.10661
11957 1 3.08359 60.5706 41.9645 3 1.04077e-06 -4.10661
11958 1 2.25787 60.5706 39.6332 3 1.05862e-06 -4.10657
11959 1 4.73065 60.5706 39.6332 3 1.05865e-06 -4.10657
11960 1 3.90569 60.5706 37.3018 3 1.08242e-06 -4.10651
11961 1 6.37848 60.5706 37.3018 3 1.08243e-06 -4.10651
11962 1 5.55436 60.5706 34.9704 3 1.11274e-06 -4.10645
11963 1 8.02714 60.5706 34.9704 3 1.11276e-06 -4.10645
11964 1 7.20388 60.5706 32.6391 3 1.14889e-06 -4.10639
11965 1 9.67666 60.5706 32.6391 3 1.14887e-06 -4.10639
11966 1 8.85416 60.5706 30.3077 3 1.18715e-06 -4.10633
11967 1 11.3269 60.5706 30.3077 3 1.18714e-06 -4.10633
11968 1 10.5051 60.5706 27.9764 3 1.22039e-06 -4.1063
11969 1 12.9779 60.5706 27.9764 3 1.22039e-06 -4.1063
11970 1 12.1564 60.5706 25.645 3 1.24005e-06 -4.10627
11971 1 14.6292 60.5706 25.645 3 1.24004e-06 -4.10627
11972 1 13.8078 60.5706 23.3136 3 1.24004e-06 -4.10627
11973 1 16.2806 60.5706 23.3136 3 1.24004e-06 -4.10627
11974 1 15.4592 60.5706 20.9823 3 1.22039e-06 -4.1063
11975 1 17.9319 60.5706 20.9823 3 1.22041e-06 -4.1063
11976 1 17.1101 60.5706 18.6509 3 1.18714e-06 -4.10633
11977 1 19.5829 60.5706 18.6509 3 1.18713e-06 -4.10633
11978 1 18.7604 60.5706 16.3195 3 1.14887e-06 -4.10639
11979 1 21.2331 60.5706 16.3195 3 1.14889e-06 -4.10639
11980 1 20.4099 60.5706 13.9882 3 1.11277e-06 -4.10645
11981 1 22.8827 60.5706 13.9882 3 1.11276e-06 -4.10645
11982 1 22.0585 60.5706 11.6568 3 1.08242e-06 -4.10651
11983 1 24.5313 60.5706 11.6568 3 1.08242e-06 -4.10651
11984 1 23.7064 60.5706 9.32545 3 1.05864e-06 -4.10657
11985 1 26.1791 60.5706 9.32545 3 1.05862e-06 -4.10657
11986 1 25.3534 60.5706 6.99409 3 1.04077e-06 -4.10661
11987 1 27.8262 60.5706 6.99409 3 1.04077e-06 -4.10661
11988 1 26.9999 60.5706 4.66273 3 1.02815e-06 -4.10664
11989 1 29.4726 60.5706 4.66273 3 1.02817e-06 -4.10664
11990 1 28.6458 60.5706 2.33136 3 1.02054e-06 -4.10666
11991 1 31.1186 60.5706 2.33136 3 1.02056e-06 -4.10666
11992 1 30.2916 60.5706 0 3 1.01799e-06 -4.10667
11993 1 32.7644 60.5706 0 3 1.01798e-06 -4.10667
11994 1 1.44066 58.5516 47.7929 3 0.000133584 -4.1223
11995 1 0.612951 58.5516 45.4616 3 0.000125533 -4.12231
11996 1 3.08574 58.5516 45.4616 3 0.000125533 -4.12231
11997 1 2.25845 58.5516 43.1302 3 0.000110457 -4.12234
11998 1 4.73124 58.5516 43.1302 3 0.000110457 -4.12234
11999 1 3.90464 58.5516 40.7989 3 9.07159e-05 -4.12237
12000 1 6.37743 58.5516 40.7989 3 9.07158e-05 -4.12237
12001 1 5.55173 58.5516 38.4675 3 6.97659e-05 -4.1224
12002 1 8.02451 58.5516 38.4675 3 6.97658e-05 -4.1224
12003 1 7.19986 58.5516 36.1361 3 5.08317e-05 -4.12243
12004 1 9.67265 58.5516 36.1361 3 5.08316e-05 -4.12243
12005 1 8.8491 58.5516 33.8048 3 3.52552e-05 -4.12244
12006 1 11.3219 58.5516 33.8048 3 3.52551e-05 -4.12244
12007 1 10.4994 58.5516 31.4734 3 2.24525e-05 -4.12244
12008 1 12.9722 58.5516 31.4734 3 2.24526e-05 -4.12244
12009 1 12.1507 58.5516 29.142 3 1.17352e-05 -4.12244
12010 1 14.6234 58.5516 29.142 3 1.17353e-05 -4.12244
12011 1 13.8026 58.5516 26.8107 3 3.91934e-06 -4.12243
12012 1 16.2754 58.5516 26.8107 3 3.91931e-06 -4.12243
12013 1 15.4549 58.5516 24.4793 3 9.47301e-07 -4.12242
12014 1 17.9277 58.5516 24.4793 3 9.47301e-07 -4.12242
12015 1 17.1072 58.5516 22.1479 3 3.91906e-06 -4.12243
12016 1 19.58 58.5516 22.1479 3 3.91911e-06 -4.12243
12017 1 18.7591 58.5516 19.8166 3 1.1735e-05 -4.12244
12018 1 21.2319 58.5516 19.8166 3 1.17349e-05 -4.12244
12019 1 20.4104 58.5516 17.4852 3 2.24522e-05 -4.12244
12020 1 22.8832 58.5516 17.4852 3 2.24521e-05 -4.12244
12021 1 22.0607 58.5516 15.1539 3 3.52548e-05 -4.12244
12022 1 24.5335 58.5516 15.1539 3 3.52548e-05 -4.12244
12023 1 23.7099 58.5516 12.8225 3 5.08313e-05 -4.12243
12024 1 26.1827 58.5516 12.8225 3 5.08314e-05 -4.12243
12025 1 25.3581 58.5516 10.4911 3 6.97656e-05 -4.1224
12026 1 27.8309 58.5516 10.4911 3 6.97657e-05 -4.1224
12027 1 27.0052 58.5516 8.15977 3 9.07158e-05 -4.12237
12028 1 29.4779 58.5516 8.15977 3 9.07157e-05 -4.12237
12029 1 28.6513 58.5516 5.82841 3 0.000110457 -4.12234
12030 1 31.1241 58.5516 5.82841 3 0.000110457 -4.12234
12031 1 30.2968 58.5516 3.49704 3 0.000125533 -4.12231
12032 1 32.7696 58.5516 3.49704 3 0.000125533 -4.12231
12033 1 31.9419 58.5516 1.16568 3 0.000133584 -4.1223
12034 1 34.4147 58.5516 1.16568 3 0.000133584 -4.1223
12035 1 2.26243 56.5406 46.627 3 2.19143e-06 -4.12177
12036 1 4.73521 56.5406 46.627 3 2.19144e-06 -4.12177
12037 1 3.90709 56.5402 44.2953 3 3.49757e-06 -4.12182
12038 1 6.37987 56.5402 44.2953 3 3.49758e-06 -4.12182
12039 1 5.55255 56.5395 41.9635 3 5.88395e-06 -4.1219
12040 1 8.02533 56.5395 41.9635 3 5.88395e-06 -4.1219
12041 1 7.19911 56.5386 39.6317 3 9.06613e-06 -4.122
12042 1 9.67189 56.5386 39.6317 3 9.06614e-06 -4.122
12043 1 8.84692 56.5374 37.3 3 1.18619e-05 -4.12212
12044 1 11.3197 56.5374 37.3 3 1.18619e-05 -4.12212
12045 1 10.496 56.5361 34.9684 3 1.2762e-05 -4.12223
12046 1 12.9688 56.5361 34.9684 3 1.27621e-05 -4.12223
12047 1 12.1462 56.5348 32.637 3 1.11233e-05 -4.12233
12048 1 14.619 56.5348 32.637 3 1.11233e-05 -4.12233
12049 1 13.7974 56.5336 30.3059 3 7.59862e-06 -4.1224
12050 1 16.2702 56.5336 30.3059 3 7.59861e-06 -4.1224
12051 1 15.4492 56.5327 27.9752 3 3.91337e-06 -4.12244
12052 1 17.922 56.5327 27.9752 3 3.91338e-06 -4.12244
12053 1 17.1015 56.5323 25.6446 3 1.63777e-06 -4.12246
12054 1 19.5743 56.5323 25.6446 3 1.63777e-06 -4.12246
12055 1 18.7539 56.5323 23.3141 3 1.63778e-06 -4.12246
12056 1 21.2267 56.5323 23.3141 3 1.63777e-06 -4.12246
12057 1 20.4061 56.5327 20.9835 3 3.91338e-06 -4.12244
12058 1 22.8789 56.5327 20.9835 3 3.91338e-06 -4.12244
12059 1 22.058 56.5336 18.6527 3 7.5986e-06 -4.1224
12060 1 24.5308 56.5336 18.6527 3 7.59861e-06 -4.1224
12061 1 23.7091 56.5348 16.3216 3 1.11233e-05 -4.12233
12062 1 26.1819 56.5348 16.3216 3 1.11233e-05 -4.12233
12063 1 25.3594 56.5361 13.9902 3 1.27621e-05 -4.12223
12064 1 27.8322 56.5361 13.9902 3 1.27621e-05 -4.12223
12065 1 27.0084 56.5374 11.6586 3 1.18619e-05 -4.12212
12066 1 29.4812 56.5374 11.6586 3 1.18619e-05 -4.12212
12067 1 28.6563 56.5386 9.32688 3 9.06614e-06 -4.122
12068 1 31.129 56.5386 9.32688 3 9.06615e-06 -4.122
12069 1 30.3028 56.5395 6.99509 3 5.88395e-06 -4.1219
12070 1 32.7756 56.5395 6.99509 3 5.88395e-06 -4.1219
12071 1 31.9483 56.5402 4.66334 3 3.49759e-06 -4.12182
12072 1 34.4211 56.5402 4.66334 3 3.49757e-06 -4.12182
12073 1 33.5929 56.5406 2.33165 3 2.19143e-06 -4.12177
12074 1 36.0657 56.5406 2.33165 3 2.19145e-06 -4.12177
12075 1 35.2372 56.5407 48.9586 3 1.81015e-06 -4.12175
12076 1 37.71 56.5407 48.9586 3 1.81015e-06 -4.12175
12077 1 3.91253 54.5298 47.7928 3 3.89996e-06 -4.12217
12078 1 6.38531 54.5298 47.7928 3 3.89996e-06 -4.12217
12079 1 5.55592 54.5293 45.4612 3 4.47753e-06 -4.12218
12080 1 8.0287 54.5293 45.4612 3 4.47753e-06 -4.12218
12081 1 7.20013 54.5283 43.1295 3 5.81593e-06 -4.12221
12082 1 9.67291 54.5283 43.1295 3 5.81593e-06 -4.12221
12083 1 8.84562 54.5268 40.7976 3 8.05886e-06 -4.12226
12084 1 11.3184 54.5268 40.7976 3 8.05886e-06 -4.12226
12085 1 10.4927 54.5247 38.4656 3 1.0958e-05 -4.12232
12086 1 12.9654 54.5247 38.4656 3 1.0958e-05 -4.12232
12087 1 12.1413 54.5221 36.1337 3 1.34554e-05 -4.12238
12088 1 14.6141 54.5221 36.1337 3 1.34554e-05 -4.12238
12089 1 13.7915 54.5193 33.802 3 1.40704e-05 -4.12243
12090 1 16.2643 54.5193 33.802 3 1.40704e-05 -4.12243
12091 1 15.4428 54.5166 31.4707 3 1.19593e-05 -4.12246
12092 1 17.9156 54.5166 31.4707 3 1.19593e-05 -4.12246
12093 1 17.095 54.5144 29.1399 3 7.87667e-06 -4.12248
12094 1 19.5677 54.5144 29.1399 3 7.87667e-06 -4.12248
12095 1 18.7476 54.5129 26.8095 3 3.97123e-06 -4.12249
12096 1 21.2204 54.5129 26.8095 3 3.97123e-06 -4.12249
12097 1 20.4005 54.5124 24.4793 3 2.41598e-06 -4.12249
12098 1 22.8733 54.5124 24.4793 3 2.41598e-06 -4.12249
12099 1 22.0533 54.5129 22.1492 3 3.97123e-06 -4.12249
12100 1 24.5261 54.5129 22.1492 3 3.97122e-06 -4.12249
12101 1 23.706 54.5144 19.8188 3 7.87666e-06 -4.12248
12102 1 26.1788 54.5144 19.8188 3 7.87667e-06 -4.12248
12103 1 25.3581 54.5166 17.4879 3 1.19593e-05 -4.12246
12104 1 27.8309 54.5166 17.4879 3 1.19593e-05 -4.12246
12105 1 27.0095 54.5193 15.1566 3 1.40704e-05 -4.12243
12106 1 29.4822 54.5193 15.1566 3 1.40704e-05 -4.12243
12107 1 28.6596 54.5221 12.8249 3 1.34554e-05 -4.12238
12108 1 31.1324 54.5221 12.8249 3 1.34554e-05 -4.12238
12109 1 30.3083 54.5247 10.493 3 1.09581e-05 -4.12232
12110 1 32.7811 54.5247 10.493 3 1.0958e-05 -4.12232
12111 1 31.9553 54.5268 8.16101 3 8.05887e-06 -4.12226
12112 1 34.4281 54.5268 8.16101 3 8.05886e-06 -4.12226
12113 1 33.6008 54.5283 5.82911 3 5.81593e-06 -4.12221
12114 1 36.0736 54.5283 5.82911 3 5.81593e-06 -4.12221
12115 1 35.245 54.5293 3.49738 3 4.47753e-06 -4.12218
12116 1 37.7178 54.5293 3.49738 3 4.47754e-06 -4.12218
12117 1 36.8884 54.5298 1.16578 3 3.89996e-06 -4.12217
12118 1 39.3612 54.5298 1.16578 3 3.89996e-06 -4.12217
12119 1 7.2055 52.5183 46.6275 3 7.52735e-06 -4.12216
12120 1 9.67828 52.5183 46.6275 3 7.52735e-06 -4.12216
12121 1 8.84792 52.5174 44.2961 3 8.29609e-06 -4.12218
12122 1 11.3207 52.5174 44.2961 3 8.29609e-06 -4.12218
12123 1 10.4917 52.5157 41.9645 3 9.67675e-06 -4.12221
12124 1 12.9645 52.5157 41.9645 3 9.67675e-06 -4.12221
12125 1 12.1373 52.5132 39.6326 3 1.15574e-05 -4.12226
12126 1 14.6101 52.5132 39.6326 3 1.15574e-05 -4.12226
12127 1 13.785 52.5098 37.3005 3 1.40121e-05 -4.12233
12128 1 16.2578 52.5098 37.3005 3 1.40121e-05 -4.12233
12129 1 15.4347 52.5057 34.9684 3 1.63502e-05 -4.12239
12130 1 17.9075 52.5057 34.9684 3 1.63502e-05 -4.12239
12131 1 17.0862 52.5014 32.6366 3 1.70391e-05 -4.12245
12132 1 19.559 52.5014 32.6366 3 1.70391e-05 -4.12245
12133 1 18.7389 52.4973 30.3053 3 1.49964e-05 -4.12248
12134 1 21.2117 52.4973 30.3053 3 1.49964e-05 -4.12248
12135 1 20.3924 52.4943 27.9746 3 1.09793e-05 -4.12249
12136 1 22.8652 52.4943 27.9746 3 1.09793e-05 -4.12249
12137 1 22.0463 52.4926 25.6444 3 7.73925e-06 -4.12249
12138 1 24.5191 52.4926 25.6444 3 7.73925e-06 -4.12249
12139 1 23.7002 52.4926 23.3143 3 7.73924e-06 -4.12249
12140 1 26.173 52.4926 23.3143 3 7.73924e-06 -4.12249
12141 1 25.3541 52.4943 20.984 3 1.09792e-05 -4.12249
12142 1 27.8269 52.4943 20.984 3 1.09792e-05 -4.12249
12143 1 27.0076 52.4973 18.6533 3 1.49964e-05 -4.12248
12144 1 29.4804 52.4973 18.6533 3 1.49964e-05 -4.12248
12145 1 28.6603 52.5014 16.322 3 1.70391e-05 -4.12245
12146 1 31.1331 52.5014 16.322 3 1.70391e-05 -4.12245
12147 1 30.3118 52.5057 13.9902 3 1.63502e-05 -4.12239
12148 1 32.7846 52.5057 13.9902 3 1.63502e-05 -4.12239
12149 1 31.9615 52.5098 11.6581 3 1.40121e-05 -4.12233
12150 1 34.4343 52.5098 11.6581 3 1.40121e-05 -4.12233
12151 1 33.6092 52.5132 9.32602 3 1.15574e-05 -4.12226
12152 1 36.082 52.5132 9.32602 3 1.15574e-05 -4.12226
12153 1 35.2548 52.5157 6.99411 3 9.67676e-06 -4.12221
12154 1 37.7276 52.5157 6.99411 3 9.67676e-06 -4.12221
12155 1 36.8986 52.5174 4.66251 3 8.29609e-06 -4.12218
12156 1 39.3714 52.5174 4.66251 3 8.29609e-06 -4.12218
12157 1 38.541 52.5183 2.33117 3 7.52735e-06 -4.12216
12158 1 41.0138 52.5183 2.33117 3 7.52735e-06 -4.12216
12159 1 40.1827 52.5186 48.9586 3 7.22159e-06 -4.12216
12160 1 42.6555 52.5186 48.9586 3 7.22159e-06 -4.12216
12161 1 8.85643 50.5068 47.7934 3 1.18952e-05 -4.12215
12162 1 11.3292 50.5068 47.7934 3 1.18952e-05 -4.12215
12163 1 10.4966 50.5062 45.4628 3 1.26248e-05 -4.12216
12164 1 12.9694 50.5062 45.4628 3 1.26248e-05 -4.12216
12165 1 12.138 50.5048 43.1318 3 1.38767e-05 -4.12217
12166 1 14.6108 50.5048 43.1318 3 1.38767e-05 -4.12217
12167 1 13.7813 50.5023 40.8005 3 1.53589e-05 -4.1222
12168 1 16.2541 50.5023 40.8005 3 1.53589e-05 -4.1222
12169 1 15.4272 50.4987 38.4686 3 1.67305e-05 -4.12225
12170 1 17.9 50.4987 38.4686 3 1.67305e-05 -4.12225
12171 1 17.0758 50.4938 36.1363 3 1.86664e-05 -4.12233
12172 1 19.5486 50.4938 36.1363 3 1.86664e-05 -4.12233
12173 1 18.727 50.488 33.804 3 2.12611e-05 -4.12241
12174 1 21.1998 50.488 33.804 3 2.12611e-05 -4.12241
12175 1 20.3803 50.4822 31.472 3 2.30165e-05 -4.12246
12176 1 22.8531 50.4822 31.472 3 2.30165e-05 -4.12246
12177 1 22.0349 50.477 29.1406 3 2.21126e-05 -4.12249
12178 1 24.5077 50.477 29.1406 3 2.21126e-05 -4.12249
12179 1 23.6903 50.4735 26.8098 3 1.91502e-05 -4.1225
12180 1 26.1631 50.4735 26.8098 3 1.91502e-05 -4.1225
12181 1 25.346 50.4723 24.4793 3 1.74186e-05 -4.1225
12182 1 27.8188 50.4723 24.4793 3 1.74186e-05 -4.1225
12183 1 27.0017 50.4735 22.1489 3 1.91502e-05 -4.1225
12184 1 29.4745 50.4735 22.1489 3 1.91502e-05 -4.1225
12185 1 28.6571 50.477 19.818 3 2.21126e-05 -4.12249
12186 1 31.1299 50.477 19.818 3 2.21126e-05 -4.12249
12187 1 30.3118 50.4822 17.4866 3 2.30165e-05 -4.12246
12188 1 32.7846 50.4822 17.4866 3 2.30165e-05 -4.12246
12189 1 31.9651 50.488 15.1546 3 2.12611e-05 -4.12241
12190 1 34.4379 50.488 15.1546 3 2.12611e-05 -4.12241
12191 1 33.6163 50.4938 12.8223 3 1.86664e-05 -4.12233
12192 1 36.0891 50.4938 12.8223 3 1.86664e-05 -4.12233
12193 1 35.2649 50.4987 10.4901 3 1.67305e-05 -4.12225
12194 1 37.7377 50.4987 10.4901 3 1.67305e-05 -4.12225
12195 1 36.9107 50.5023 8.15817 3 1.53589e-05 -4.1222
12196 1 39.3835 50.5023 8.15817 3 1.53589e-05 -4.1222
12197 1 38.5541 50.5048 5.82678 3 1.38767e-05 -4.12217
12198 1 41.0269 50.5048 5.82678 3 1.38767e-05 -4.12217
12199 1 40.1955 50.5062 3.49585 3 1.26248e-05 -4.12216
12200 1 42.6682 50.5062 3.49585 3 1.26248e-05 -4.12216
12201 1 41.8356 50.5068 1.16525 3 1.18952e-05 -4.12215
12202 1 44.3084 50.5068 1.16525 3 1.18952e-05 -4.12215
12203 1 12.1469 48.4942 46.629 3 1.78386e-05 -4.12214
12204 1 14.6197 48.4942 46.629 3 1.78386e-05 -4.12214
12205 1 13.7854 48.4932 44.299 3 1.96273e-05 -4.12214
12206 1 16.2581 48.4932 44.299 3 1.96273e-05 -4.12214
12207 1 15.4257 48.4913 41.9686 3 2.20453e-05 -4.12215
12208 1 17.8984 48.4913 41.9686 3 2.20453e-05 -4.12215
12209 1 17.0686 48.4881 39.6374 3 2.41335e-05 -4.12217
12210 1 19.5414 48.4881 39.6374 3 2.41335e-05 -4.12217
12211 1 18.715 48.4832 37.3054 3 2.49439e-05 -4.12223
12212 1 21.1878 48.4832 37.3054 3 2.49439e-05 -4.12223
12213 1 20.365 48.4767 34.9729 3 2.64238e-05 -4.12233
12214 1 22.8378 48.4767 34.9729 3 2.64238e-05 -4.12233
12215 1 22.0183 48.4693 32.6402 3 3.04308e-05 -4.12241
12216 1 24.4911 48.4693 32.6402 3 3.04308e-05 -4.12241
12217 1 23.6741 48.4619 30.3078 3 3.52972e-05 -4.12247
12218 1 26.1469 48.4619 30.3078 3 3.52972e-05 -4.12247
12219 1 25.3315 48.456 27.976 3 3.74501e-05 -4.1225
12220 1 27.8042 48.456 27.976 3 3.74501e-05 -4.1225
12221 1 26.9896 48.4526 25.6448 3 3.66337e-05 -4.12251
12222 1 29.4624 48.4526 25.6448 3 3.66337e-05 -4.12251
12223 1 28.648 48.4526 23.3138 3 3.66337e-05 -4.12251
12224 1 31.1208 48.4526 23.3138 3 3.66337e-05 -4.12251
12225 1 30.3062 48.456 20.9826 3 3.745e-05 -4.1225
12226 1 32.779 48.456 20.9826 3 3.745e-05 -4.1225
12227 1 31.9636 48.4619 18.6508 3 3.52972e-05 -4.12247
12228 1 34.4364 48.4619 18.6508 3 3.52972e-05 -4.12247
12229 1 33.6194 48.4693 16.3184 3 3.04307e-05 -4.12241
12230 1 36.0921 48.4693 16.3184 3 3.04307e-05 -4.12241
12231 1 35.2726 48.4767 13.9857 3 2.64237e-05 -4.12233
12232 1 37.7454 48.4767 13.9857 3 2.64237e-05 -4.12233
12233 1 36.9226 48.4832 11.6532 3 2.49439e-05 -4.12223
12234 1 39.3954 48.4832 11.6532 3 2.49439e-05 -4.12223
12235 1 38.569 48.4881 9.32123 3 2.41335e-05 -4.12217
12236 1 41.0418 48.4881 9.32123 3 2.41335e-05 -4.12217
12237 1 40.212 48.4913 6.99006 3 2.20453e-05 -4.12215
12238 1 42.6848 48.4913 6.99006 3 2.20453e-05 -4.12215
12239 1 41.8523 48.4932 4.6596 3 1.96273e-05 -4.12214
12240 1 44.3251 48.4932 4.6596 3 1.96273e-05 -4.12214
12241 1 43.4907 48.4942 2.32967 3 1.78386e-05 -4.12214
12242 1 45.9635 48.4942 2.32967 3 1.78386e-05 -4.12214
12243 1 45.1283 48.4945 48.9586 3 1.72512e-05 -4.12214
12244 1 47.6011 48.4945 48.9586 3 1.72512e-05 -4.12214
12245 1 13.7994 46.4812 47.7943 3 2.36101e-05 -4.12212
12246 1 16.2722 46.4812 47.7943 3 2.36101e-05 -4.12212
12247 1 15.4346 46.4807 45.4655 3 2.56145e-05 -4.12212
12248 1 17.9074 46.4807 45.4655 3 2.56145e-05 -4.12212
12249 1 17.0712 46.4794 43.1363 3 2.95039e-05 -4.12211
12250 1 19.544 46.4794 43.1363 3 2.95039e-05 -4.12211
12251 1 18.7104 46.4771 40.8063 3 3.46056e-05 -4.1221
12252 1 21.1832 46.4771 40.8063 3 3.46056e-05 -4.1221
12253 1 20.3532 46.4731 38.4753 3 3.8725e-05 -4.12212
12254 1 22.826 46.4731 38.4753 3 3.8725e-05 -4.12212
12255 1 22.0005 46.467 36.1432 3 3.9276e-05 -4.12218
12256 1 24.4732 46.467 36.1432 3 3.9276e-05 -4.12218
12257 1 23.6526 46.4588 33.8101 3 4.07035e-05 -4.12231
12258 1 26.1253 46.4588 33.8101 3 4.07035e-05 -4.12231
12259 1 25.3088 46.4495 31.4768 3 4.82067e-05 -4.1224
12260 1 27.7816 46.4495 31.4768 3 4.82067e-05 -4.1224
12261 1 26.9682 46.4409 29.1438 3 6.04472e-05 -4.12248
12262 1 29.441 46.4409 29.1438 3 6.04472e-05 -4.12248
12263 1 28.6295 46.4347 26.8113 3 6.90738e-05 -4.12252
12264 1 31.1023 46.4347 26.8113 3 6.90738e-05 -4.12252
12265 1 30.2916 46.4324 24.4793 3 7.12415e-05 -4.12253
12266 1 32.7644 46.4324 24.4793 3 7.12415e-05 -4.12253
12267 1 31.9537 46.4347 22.1473 3 6.90738e-05 -4.12252
12268 1 34.4265 46.4347 22.1473 3 6.90738e-05 -4.12252
12269 1 33.615 46.4409 19.8148 3 6.04472e-05 -4.12248
12270 1 36.0878 46.4409 19.8148 3 6.04472e-05 -4.12248
12271 1 35.2744 46.4495 17.4818 3 4.82066e-05 -4.1224
12272 1 37.7472 46.4495 17.4818 3 4.82066e-05 -4.1224
12273 1 36.9306 46.4588 15.1485 3 4.07035e-05 -4.12231
12274 1 39.4034 46.4588 15.1485 3 4.07035e-05 -4.12231
12275 1 38.5827 46.467 12.8155 3 3.92759e-05 -4.12218
12276 1 41.0555 46.467 12.8155 3 3.92759e-05 -4.12218
12277 1 40.23 46.4731 10.4833 3 3.8725e-05 -4.12212
12278 1 42.7028 46.4731 10.4833 3 3.8725e-05 -4.12212
12279 1 41.8728 46.4771 8.15231 3 3.46057e-05 -4.1221
12280 1 44.3456 46.4771 8.15231 3 3.46057e-05 -4.1221
12281 1 43.512 46.4794 5.82233 3 2.95039e-05 -4.12211
12282 1 45.9848 46.4794 5.82233 3 2.95039e-05 -4.12211
12283 1 45.1486 46.4807 3.4931 3 2.56145e-05 -4.12212
12284 1 47.6214 46.4807 3.4931 3 2.56145e-05 -4.12212
12285 1 46.7838 46.4812 1.16432 3 2.36101e-05 -4.12212
12286 1 49.2565 46.4812 1.16432 3 2.36101e-05 -4.12212
12287 1 17.0864 44.4667 46.631 3 3.16705e-05 -4.12209
12288 1 19.5592 44.4667 46.631 3 3.16705e-05 -4.12209
12289 1 18.7189 44.4662 44.3031 3 3.62616e-05 -4.12207
12290 1 21.1917 44.4662 44.3031 3 3.62616e-05 -4.12207
12291 1 20.3536 44.4648 41.9745 3 4.42897e-05 -4.12205
12292 1 22.8264 44.4648 41.9745 3 4.42897e-05 -4.12205
12293 1 21.9916 44.4622 39.645 3 5.52161e-05 -4.12202
12294 1 24.4644 44.4622 39.645 3 5.52161e-05 -4.12202
12295 1 23.6344 44.4575 37.3141 3 6.50011e-05 -4.12201
12296 1 26.1072 44.4575 37.3141 3 6.50011e-05 -4.12201
12297 1 25.2832 44.4501 34.9816 3 6.6379e-05 -4.12208
12298 1 27.756 44.4501 34.9816 3 6.6379e-05 -4.12208
12299 1 26.9385 44.44 32.6477 3 6.90114e-05 -4.12229
12300 1 29.4113 44.44 32.6477 3 6.90114e-05 -4.12229
12301 1 28.5991 44.429 30.3136 3 8.3298e-05 -4.12236
12302 1 31.0719 44.429 30.3136 3 8.3298e-05 -4.12236
12303 1 30.2637 44.4195 27.9795 3 0.000113302 -4.12248
12304 1 32.7365 44.4195 27.9795 3 0.000113302 -4.12248
12305 1 31.9306 44.4138 25.646 3 0.000134837 -4.12254
12306 1 34.4034 44.4138 25.646 3 0.000134837 -4.12254
12307 1 33.5982 44.4138 23.3127 3 0.000134837 -4.12254
12308 1 36.071 44.4138 23.3127 3 0.000134837 -4.12254
12309 1 35.2651 44.4195 20.9791 3 0.000113302 -4.12248
12310 1 37.7379 44.4195 20.9791 3 0.000113302 -4.12248
12311 1 36.9297 44.429 18.6451 3 8.3298e-05 -4.12236
12312 1 39.4025 44.429 18.6451 3 8.3298e-05 -4.12236
12313 1 38.5903 44.44 16.3109 3 6.90114e-05 -4.12229
12314 1 41.0631 44.44 16.3109 3 6.90114e-05 -4.12229
12315 1 40.2456 44.4501 13.9771 3 6.6379e-05 -4.12208
12316 1 42.7183 44.4501 13.9771 3 6.6379e-05 -4.12208
12317 1 41.8944 44.4575 11.6445 3 6.50011e-05 -4.12201
12318 1 44.3671 44.4575 11.6445 3 6.50011e-05 -4.12201
12319 1 43.5371 44.4622 9.31364 3 5.52162e-05 -4.12202
12320 1 46.0099 44.4622 9.31364 3 5.52162e-05 -4.12202
12321 1 45.1752 44.4648 6.9841 3 4.42897e-05 -4.12205
12322 1 47.648 44.4648 6.9841 3 4.42897e-05 -4.12205
12323 1 46.8098 44.4662 4.65555 3 3.62616e-05 -4.12207
12324 1 49.2826 44.4662 4.65555 3 3.62616e-05 -4.12207
12325 1 48.4424 44.4667 2.32763 3 3.16705e-05 -4.12209
12326 1 50.9151 44.4667 2.32763 3 3.16705e-05 -4.12209
12327 1 50.0739 44.4669 48.9586 3 3.02465e-05 -4.1221
12328 1 52.5467 44.4669 48.9586 3 3.02465e-05 -4.1221
12329 1 18.7415 42.4514 47.7953 3 3.88216e-05 -4.12204
12330 1 21.2143 42.4514 47.7953 3 3.88216e-05 -4.12204
12331 1 20.3695 42.4513 45.4685 3 4.29685e-05 -4.12203
12332 1 22.8423 42.4513 45.4685 3 4.29685e-05 -4.12203
12333 1 21.9992 42.4508 43.1414 3 5.21401e-05 -4.122
12334 1 24.472 42.4508 43.1414 3 5.21401e-05 -4.122
12335 1 23.6317 42.4495 40.8135 3 6.79327e-05 -4.12195
12336 1 26.1045 42.4495 40.8135 3 6.79327e-05 -4.12195
12337 1 25.2685 42.4468 38.4844 3 9.11994e-05 -4.12188
12338 1 27.7413 42.4468 38.4844 3 9.11994e-05 -4.12188
12339 1 26.9116 42.4416 36.1535 3 0.000115746 -4.12183
12340 1 29.3844 42.4416 36.1535 3 0.000115746 -4.12183
12341 1 28.5628 42.4328 33.8204 3 0.000121899 -4.12189
12342 1 31.0356 42.4328 33.8204 3 0.000121899 -4.12189
12343 1 30.223 42.4205 31.4854 3 0.000131069 -4.12226
12344 1 32.6958 42.4205 31.4854 3 0.000131069 -4.12226
12345 1 31.8899 42.408 29.1501 3 0.000154237 -4.12225
12346 1 34.3627 42.408 29.1501 3 0.000154237 -4.12225
12347 1 33.5622 42.3982 26.8146 3 0.000231706 -4.12249
12348 1 36.035 42.3982 26.8146 3 0.000231706 -4.12249
12349 1 35.2372 42.3944 24.4793 3 0.00027212 -4.12258
12350 1 37.71 42.3944 24.4793 3 0.00027212 -4.12258
12351 1 36.9122 42.3982 22.144 3 0.000231706 -4.12249
12352 1 39.385 42.3982 22.144 3 0.000231706 -4.12249
12353 1 38.5844 42.408 19.8085 3 0.000154237 -4.12225
12354 1 41.0572 42.408 19.8085 3 0.000154237 -4.12225
12355 1 40.2514 42.4205 17.4732 3 0.000131069 -4.12226
12356 1 42.7242 42.4205 17.4732 3 0.000131069 -4.12226
12357 1 41.9115 42.4328 15.1382 3 0.000121899 -4.12189
12358 1 44.3843 42.4328 15.1382 3 0.000121899 -4.12189
12359 1 43.5627 42.4416 12.8051 3 0.000115746 -4.12183
12360 1 46.0355 42.4416 12.8051 3 0.000115746 -4.12183
12361 1 45.2058 42.4468 10.4743 3 9.11994e-05 -4.12188
12362 1 47.6786 42.4468 10.4743 3 9.11994e-05 -4.12188
12363 1 46.8427 42.4495 8.14516 3 6.79327e-05 -4.12195
12364 1 49.3154 42.4495 8.14516 3 6.79327e-05 -4.12195
12365 1 48.4751 42.4508 5.81726 3 5.21401e-05 -4.122
12366 1 50.9479 42.4508 5.81726 3 5.21401e-05 -4.122
12367 1 50.1048 42.4513 3.4901 3 4.29685e-05 -4.12203
12368 1 52.5776 42.4513 3.4901 3 4.29685e-05 -4.12203
12369 1 51.7329 42.4514 1.16333 3 3.88216e-05 -4.12204
12370 1 54.2057 42.4514 1.16333 3 3.88216e-05 -4.12204
12371 1 22.0237 40.4348 46.6326 3 5.18024e-05 -4.12196
12372 1 24.4965 40.4348 46.6326 3 5.18024e-05 -4.12196
12373 1 23.648 40.4348 44.3065 3 6.06629e-05 -4.12193
12374 1 26.1208 40.4348 44.3065 3 6.06629e-05 -4.12193
12375 1 25.2744 40.4346 41.9799 3 7.80201e-05 -4.12187
12376 1 27.7472 40.4346 41.9799 3 7.80201e-05 -4.12187
12377 1 26.9044 40.4336 39.6526 3 0.000108536 -4.12178
12378 1 29.3772 40.4336 39.6526 3 0.000108536 -4.12178
12379 1 28.54 40.431 37.324 3 0.000158298 -4.12165
12380 1 31.0128 40.431 37.324 3 0.000158298 -4.12165
12381 1 30.1837 40.4256 34.9932 3 0.000221815 -4.1215
12382 1 32.6565 40.4256 34.9932 3 0.000221815 -4.1215
12383 1 31.8387 40.4155 32.6594 3 0.000248953 -4.12152
12384 1 34.3115 40.4155 32.6594 3 0.000248953 -4.12152
12385 1 33.5064 40.4005 30.3228 3 0.000290858 -4.12227
12386 1 35.9792 40.4005 30.3228 3 0.000290857 -4.12227
12387 1 35.1828 40.3872 27.9861 3 0.000307363 -4.122
12388 1 37.6556 40.3872 27.9861 3 0.000307363 -4.122
12389 1 36.8666 40.3784 25.6483 3 0.000523821 -4.12257
12390 1 39.3394 40.3784 25.6483 3 0.000523821 -4.12257
12391 1 38.5533 40.3784 23.3103 3 0.000523821 -4.12257
12392 1 41.0261 40.3784 23.3103 3 0.000523821 -4.12257
12393 1 40.2371 40.3872 20.9725 3 0.000307363 -4.122
12394 1 42.7099 40.3872 20.9725 3 0.000307363 -4.122
12395 1 41.9135 40.4005 18.6358 3 0.000290858 -4.12227
12396 1 44.3863 40.4005 18.6358 3 0.000290858 -4.12227
12397 1 43.5812 40.4155 16.2992 3 0.000248953 -4.12152
12398 1 46.054 40.4155 16.2992 3 0.000248953 -4.12152
12399 1 45.2362 40.4256 13.9654 3 0.000221816 -4.1215
12400 1 47.709 40.4256 13.9654 3 0.000221816 -4.1215
12401 1 46.8799 40.431 11.6346 3 0.000158298 -4.12165
12402 1 49.3527 40.431 11.6346 3 0.000158298 -4.12165
12403 1 48.5155 40.4336 9.306 3 0.000108536 -4.12178
12404 1 50.9883 40.4336 9.306 3 0.000108536 -4.12178
12405 1 50.1455 40.4346 6.97871 3 7.80201e-05 -4.12187
12406 1 52.6183 40.4346 6.97871 3 7.80201e-05 -4.12187
12407 1 51.7719 40.4348 4.65217 3 6.06629e-05 -4.12193
12408 1 54.2447 40.4348 4.65217 3 6.06629e-05 -4.12193
12409 1 53.3962 40.4348 2.326 3 5.18024e-05 -4.12196
12410 1 55.869 40.4348 2.326 3 5.18024e-05 -4.12196
12411 1 55.0194 40.4348 48.9586 3 4.90573e-05 -4.12197
12412 1 57.4922 40.4348 48.9586 3 4.90573e-05 -4.12197
12413 1 23.6822 38.4171 47.7957 3 6.55492e-05 -4.12185
12414 1 26.155 38.4171 47.7957 3 6.55492e-05 -4.12185
12415 1 25.3006 38.4173 45.4699 3 7.3238e-05 -4.12182
12416 1 27.7734 38.4173 45.4699 3 7.3238e-05 -4.12182
12417 1 26.9205 38.4176 43.144 3 9.07642e-05 -4.12177
12418 1 29.3933 38.4176 43.144 3 9.07642e-05 -4.12177
12419 1 28.5432 38.4177 40.8179 3 0.00012367 -4.12167
12420 1 31.0159 38.4177 40.8179 3 0.00012367 -4.12167
12421 1 30.1702 38.4172 38.4912 3 0.000183731 -4.12151
12422 1 32.643 38.4172 38.4912 3 0.000183731 -4.12151
12423 1 31.8042 38.4151 36.1632 3 0.000293667 -4.12125
12424 1 34.277 38.4151 36.1632 3 0.000293667 -4.12125
12425 1 33.449 38.4098 33.8328 3 0.000468568 -4.12089
12426 1 35.9218 38.4098 33.8328 3 0.000468568 -4.12089
12427 1 35.1097 38.3984 31.4983 3 0.00059098 -4.12071
12428 1 37.5825 38.3984 31.4983 3 0.00059098 -4.12071
12429 1 36.7899 38.3799 29.1594 3 0.000820378 -4.12241
12430 1 39.2627 38.3799 29.1594 3 0.000820378 -4.12241
12431 1 38.4807 38.3679 26.8212 3 0.000708783 -4.12138
12432 1 40.9535 38.3679 26.8212 3 0.000708783 -4.12138
12433 1 40.1827 38.3626 24.4793 3 0.00124499 -4.12296
12434 1 42.6555 38.3626 24.4793 3 0.00124499 -4.12296
12435 1 41.8847 38.3679 22.1374 3 0.000708783 -4.12138
12436 1 44.3575 38.3679 22.1374 3 0.000708783 -4.12138
12437 1 43.5756 38.3799 19.7992 3 0.000820378 -4.12241
12438 1 46.0484 38.3799 19.7992 3 0.000820378 -4.12241
12439 1 45.2558 38.3984 17.4603 3 0.00059098 -4.12071
12440 1 47.7286 38.3984 17.4603 3 0.00059098 -4.12071
12441 1 46.9165 38.4098 15.1259 3 0.000468568 -4.12089
12442 1 49.3893 38.4098 15.1259 3 0.000468568 -4.12089
12443 1 48.5613 38.4151 12.7954 3 0.000293667 -4.12125
12444 1 51.0341 38.4151 12.7954 3 0.000293667 -4.12125
12445 1 50.1953 38.4172 10.4675 3 0.000183731 -4.12151
12446 1 52.6681 38.4172 10.4675 3 0.000183731 -4.12151
12447 1 51.8223 38.4177 8.14077 3 0.00012367 -4.12167
12448 1 54.2951 38.4177 8.14077 3 0.00012367 -4.12167
12449 1 53.4449 38.4176 5.81463 3 9.07642e-05 -4.12177
12450 1 55.9177 38.4176 5.81463 3 9.07642e-05 -4.12177
12451 1 55.0648 38.4173 3.48873 3 7.3238e-05 -4.12182
12452 1 57.5376 38.4173 3.48873 3 7.3238e-05 -4.12182
12453 1 56.6833 38.4171 1.16291 3 6.55492e-05 -4.12185
12454 1 59.156 38.4171 1.16291 3 6.55492e-05 -4.12185
12455 1 26.958 36.3986 46.6323 3 9.18568e-05 -4.12168
12456 1 29.4308 36.3986 46.6323 3 9.18568e-05 -4.12168
12457 1 28.5709 36.399 44.306 3 0.000108355 -4.12161
12458 1 31.0437 36.399 44.306 3 0.000108355 -4.12161
12459 1 30.1856 36.3997 41.9799 3 0.000142159 -4.1215
12460 1 32.6584 36.3997 41.9799 3 0.000142159 -4.1215
12461 1 31.8035 36.4003 39.6538 3 0.000206701 -4.12131
12462 1 34.2763 36.4003 39.6538 3 0.000206701 -4.12131
12463 1 33.4267 36.4004 37.3276 3 0.000333509 -4.12101
12464 1 35.8994 36.4004 37.3276 3 0.000333509 -4.12101
12465 1 35.0582 36.3992 35.0006 3 0.000598223 -4.12049
12466 1 37.531 36.3992 35.0006 3 0.000598223 -4.12049
12467 1 36.704 36.3945 32.6711 3 0.00114061 -4.1196
12468 1 39.1768 36.3945 32.6711 3 0.00114061 -4.1196
12469 1 38.3736 36.3823 30.3364 3 0.00177736 -4.11866
12470 1 40.8464 36.3823 30.3364 3 0.00177736 -4.11866
12471 1 40.0763 36.3588 27.9942 3 0.00336124 -4.12315
12472 1 42.5491 36.3588 27.9942 3 0.00336124 -4.12315
12473 1 41.7906 36.3546 25.6544 3 0.00208926 -4.12065
12474 1 44.2634 36.3546 25.6544 3 0.00208926 -4.12065
12475 1 43.5204 36.3546 23.3043 3 0.00208926 -4.12065
12476 1 45.9932 36.3546 23.3043 3 0.00208926 -4.12065
12477 1 45.2347 36.3588 20.9644 3 0.00336124 -4.12315
12478 1 47.7075 36.3588 20.9644 3 0.00336124 -4.12315
12479 1 46.9374 36.3823 18.6222 3 0.00177737 -4.11866
12480 1 49.4102 36.3823 18.6222 3 0.00177737 -4.11866
12481 1 48.607 36.3945 16.2875 3 0.00114061 -4.1196
12482 1 51.0798 36.3945 16.2875 3 0.00114061 -4.1196
12483 1 50.2528 36.3992 13.9581 3 0.000598223 -4.12049
12484 1 52.7256 36.3992 13.9581 3 0.000598223 -4.12049
12485 1 51.8844 36.4004 11.631 3 0.00033351 -4.12101
12486 1 54.3572 36.4004 11.631 3 0.00033351 -4.12101
12487 1 53.5075 36.4003 9.30478 3 0.000206702 -4.12131
12488 1 55.9803 36.4003 9.30478 3 0.000206702 -4.12131
12489 1 55.1254 36.3997 6.97872 3 0.000142159 -4.1215
12490 1 57.5982 36.3997 6.97872 3 0.000142159 -4.1215
12491 1 56.7402 36.399 4.65258 3 0.000108355 -4.12161
12492 1 59.2129 36.399 4.65258 3 0.000108355 -4.12161
12493 1 58.353 36.3986 2.32633 3 9.18568e-05 -4.12168
12494 1 60.8258 36.3986 2.32633 3 9.18568e-05 -4.12168
12495 1 59.965 36.3984 2.29686e-09 3 8.69562e-05 -4.12169
12496 1 62.4378 36.3984 2.29985e-09 3 8.69562e-05 -4.12169
12497 1 28.6213 34.3792 47.7948 3 0.000115414 -4.12147
12498 1 31.0941 34.3792 47.7948 3 0.000115414 -4.12147
12499 1 30.2266 34.3796 45.4671 3 0.000127924 -4.12141
12500 1 32.6993 34.3796 45.4671 3 0.000127924 -4.12141
12501 1 31.8329 34.3803 43.1397 3 0.000158073 -4.12129
12502 1 34.3057 34.3803 43.1397 3 0.000158073 -4.12129
12503 1 33.4412 34.3813 40.8125 3 0.000219406 -4.12107
12504 1 35.9139 34.3813 40.8125 3 0.000219406 -4.12107
12505 1 35.0527 34.3823 38.4858 3 0.00034635 -4.12071
12506 1 37.5255 34.3823 38.4858 3 0.00034635 -4.12071
12507 1 36.6699 34.3831 36.1595 3 0.000630913 -4.12007
12508 1 39.1426 34.3831 36.1595 3 0.000630913 -4.12007
12509 1 38.2966 34.383 33.8334 3 0.00135468 -4.11886
12510 1 40.7694 34.383 33.8334 3 0.00135468 -4.11886
12511 1 39.9417 34.3799 31.5058 3 0.00346241 -4.11633
12512 1 42.4145 34.3799 31.5058 3 0.00346241 -4.11633
12513 1 41.6248 34.3684 29.1724 3 0.00841238 -4.11182
12514 1 44.0975 34.3684 29.1724 3 0.00841238 -4.11182
12515 1 43.378 34.339 26.8251 3 0.0361452 -4.12628
12516 1 45.8508 34.339 26.8251 3 0.0361452 -4.12628
12517 1 45.1283 34.3611 24.4793 3 0.0111429 -4.10153
12518 1 47.6011 34.3611 24.4793 3 0.0111429 -4.10153
12519 1 46.8786 34.339 22.1335 3 0.0361452 -4.12628
12520 1 49.3514 34.339 22.1335 3 0.0361452 -4.12628
12521 1 48.6319 34.3684 19.7862 3 0.00841238 -4.11182
12522 1 51.1046 34.3684 19.7862 3 0.00841238 -4.11182
12523 1 50.3149 34.3799 17.4528 3 0.00346242 -4.11633
12524 1 52.7877 34.3799 17.4528 3 0.00346242 -4.11633
12525 1 51.96 34.383 15.1253 3 0.00135468 -4.11886
12526 1 54.4328 34.383 15.1253 3 0.00135468 -4.11886
12527 1 53.5868 34.3831 12.7991 3 0.000630913 -4.12007
12528 1 56.0595 34.3831 12.7991 3 0.000630913 -4.12007
12529 1 55.2039 34.3823 10.4728 3 0.00034635 -4.12071
12530 1 57.6767 34.3823 10.4728 3 0.00034635 -4.12071
12531 1 56.8155 34.3813 8.14609 3 0.000219406 -4.12107
12532 1 59.2882 34.3813 8.14609 3 0.000219406 -4.12107
12533 1 58.4237 34.3803 5.81895 3 0.000158073 -4.12129
12534 1 60.8965 34.3803 5.81895 3 0.000158073 -4.12129
12535 1 60.0301 34.3796 3.49149 3 0.000127924 -4.12141
12536 1 62.5028 34.3796 3.49149 3 0.000127924 -4.12141
12537 1 61.6353 34.3792 1.16385 3 0.000115414 -4.12147
12538 1 64.1081 34.3792 1.16385 3 0.000115414 -4.12147
12539 1 31.8889 32.3599 46.6288 3 0.000142377 -4.12113
12540 1 34.3617 32.3599 46.6288 3 0.000142377 -4.12113
12541 1 33.4865 32.3605 44.299 3 0.000163748 -4.12102
12542 1 35.9593 32.3605 44.299 3 0.000163748 -4.12102
12543 1 35.085 32.3615 41.9694 3 0.000209208 -4.12082
12544 1 37.5578 32.3615 41.9694 3 0.000209208 -4.12082
12545 1 36.6849 32.3628 39.64 3 0.00030275 -4.12045
12546 1 39.1577 32.3628 39.64 3 0.00030275 -4.12045
12547 1 38.2872 32.3642 37.3111 3 0.00051239 -4.11977
12548 1 40.76 32.3642 37.3111 3 0.00051239 -4.11977
12549 1 39.8939 32.3657 34.9828 3 0.00106837 -4.11841
12550 1 42.3667 32.3657 34.9828 3 0.00106837 -4.11841
12551 1 41.509 32.3668 32.6555 3 0.00296101 -4.11528
12552 1 43.9818 32.3668 32.6555 3 0.00296101 -4.11528
12553 1 43.1435 32.3659 30.3292 3 0.0128667 -4.10575
12554 1 45.6163 32.3659 30.3292 3 0.0128667 -4.10575
12555 1 44.8383 32.3588 28.0005 3 0.140712 -4.0469
12556 1 47.3111 32.3588 28.0005 3 0.140712 -4.0469
12557 1 46.8018 32.3521 25.6463 5 5.31346 -4.04848
12558 1 49.2746 32.3521 25.6463 5 5.31346 -4.04848
12559 1 48.4004 32.3521 23.3123 5 5.31346 -4.04848
12560 1 50.8732 32.3521 23.3123 5 5.31346 -4.04848
12561 1 50.3639 32.3588 20.9581 3 0.140712 -4.0469
12562 1 52.8366 32.3588 20.9581 3 0.140712 -4.0469
12563 1 52.0587 32.3659 18.6294 3 0.0128667 -4.10575
12564 1 54.5315 32.3659 18.6294 3 0.0128667 -4.10575
12565 1 53.6932 32.3668 16.3031 3 0.00296101 -4.11528
12566 1 56.166 32.3668 16.3031 3 0.00296101 -4.11528
12567 1 55.3083 32.3657 13.9758 3 0.00106837 -4.11841
12568 1 57.781 32.3657 13.9758 3 0.00106837 -4.11841
12569 1 56.9149 32.3642 11.6475 3 0.00051239 -4.11977
12570 1 59.3877 32.3642 11.6475 3 0.00051239 -4.11977
12571 1 58.5173 32.3628 9.31858 3 0.00030275 -4.12045
12572 1 60.9901 32.3628 9.31858 3 0.00030275 -4.12045
12573 1 60.1172 32.3615 6.98921 3 0.000209208 -4.12082
12574 1 62.59 32.3615 6.98921 3 0.000209208 -4.12082
12575 1 61.7157 32.3605 4.65959 3 0.000163749 -4.12102
12576 1 64.1885 32.3605 4.65959 3 0.000163749 -4.12102
12577 1 63.3133 32.3599 2.32983 3 0.000142377 -4.12113
12578 1 33.559 30.3403 47.7924 3 0.000141586 -4.12074
12579 1 36.0317 30.3403 47.7924 3 0.000141586 -4.12074
12580 1 35.1481 30.3408 45.46 3 0.000154623 -4.12067
12581 1 37.6209 30.3408 45.46 3 0.000154623 -4.12067
12582 1 36.7372 30.3417 43.1275 3 0.00018524 -4.12051
12583 1 39.21 30.3417 43.1275 3 0.00018524 -4.12051
12584 1 38.3264 30.343 40.7947 3 0.000246691 -4.12024
12585 1 40.7991 30.343 40.7947 3 0.000246691 -4.12024
12586 1 39.9154 30.3448 38.4616 3 0.000372786 -4.11979
12587 1 42.3882 30.3448 38.4616 3 0.000372786 -4.11979
12588 1 41.5043 30.3469 36.1279 3 0.000661326 -4.11905
12589 1 43.9771 30.3469 36.1279 3 0.000661326 -4.11905
12590 1 43.0928 30.3494 33.7931 3 0.00146478 -4.1177
12591 1 45.5656 30.3494 33.7931 3 0.00146478 -4.1177
12592 1 44.6803 30.3523 31.4565 3 0.00450872 -4.11471
12593 1 47.1531 30.3523 31.4565 3 0.00450872 -4.11471
12594 1 46.264 30.3548 29.1174 3 0.0254563 -4.10472
12595 1 48.7368 30.3548 29.1174 3 0.0254563 -4.10472
12596 1 47.805 30.3458 26.7868 5 7.69492 -4.05571
12597 1 50.2778 30.3458 26.7868 5 7.69492 -4.05571
12598 1 48.8375 30.3079 24.4793 5 2.29704 -3.99361
12599 1 51.3103 30.3079 24.4793 5 2.29704 -3.99361
12600 1 49.87 30.3458 22.1719 5 7.69492 -4.05571
12601 1 52.3427 30.3458 22.1719 5 7.69492 -4.05571
12602 1 51.411 30.3548 19.8412 3 0.0254563 -4.10472
12603 1 53.8838 30.3548 19.8412 3 0.0254563 -4.10472
12604 1 52.9947 30.3523 17.5021 3 0.00450872 -4.11471
12605 1 55.4675 30.3523 17.5021 3 0.00450872 -4.11471
12606 1 54.5822 30.3494 15.1655 3 0.00146478 -4.1177
12607 1 57.055 30.3494 15.1655 3 0.00146478 -4.1177
12608 1 56.1706 30.3469 12.8307 3 0.000661326 -4.11905
12609 1 58.6434 30.3469 12.8307 3 0.000661326 -4.11905
12610 1 57.7595 30.3448 10.497 3 0.000372786 -4.11979
12611 1 60.2323 30.3448 10.497 3 0.000372786 -4.11979
12612 1 59.3486 30.343 8.16388 3 0.000246692 -4.12024
12613 1 61.8214 30.343 8.16388 3 0.000246692 -4.12024
12614 1 60.9377 30.3417 5.83113 3 0.00018524 -4.12051
12615 1 36.8184 28.3211 46.6239 3 0.000129519 -4.1202
12616 1 39.2912 28.3211 46.6239 3 0.000129519 -4.1202
12617 1 38.3992 28.3219 44.2889 3 0.000149472 -4.12007
12618 1 40.872 28.3219 44.2889 3 0.000149472 -4.12007
12619 1 39.9794 28.3233 41.9536 3 0.000191447 -4.11982
12620 1 42.4522 28.3233 41.9536 3 0.000191447 -4.11982
12621 1 41.5583 28.3251 39.6177 3 0.000275951 -4.11942
12622 1 44.0311 28.3251 39.6177 3 0.000275951 -4.11942
12623 1 43.135 28.3274 37.2809 3 0.000456136 -4.11879
12624 1 45.6078 28.3274 37.2809 3 0.000456136 -4.11879
12625 1 44.7079 28.3302 34.943 3 0.000890241 -4.11774
12626 1 47.1807 28.3302 34.943 3 0.000890241 -4.11774
12627 1 46.2736 28.3332 32.6038 3 0.00219321 -4.11591
12628 1 48.7464 28.3332 32.6038 3 0.00219321 -4.11591
12629 1 47.8232 28.3349 30.2646 3 0.00787771 -4.1127
12630 1 50.296 28.3349 30.2646 3 0.00787771 -4.1127
12631 1 49.3265 28.3262 27.9331 3 0.04025 -4.10128
12632 1 51.7993 28.3262 27.9331 3 0.04025 -4.10128
12633 1 50.6772 28.2786 25.6293 3 0.0799124 -4.03666
12634 1 53.15 28.2786 25.6293 3 0.0799124 -4.03666
12635 1 51.9433 28.2786 23.3294 3 0.0799124 -4.03666
12636 1 54.4161 28.2786 23.3294 3 0.0799124 -4.03666
12637 1 53.294 28.3262 21.0255 3 0.04025 -4.10128
12638 1 55.7668 28.3262 21.0255 3 0.04025 -4.10128
12639 1 54.7973 28.3349 18.694 3 0.00787771 -4.1127
12640 1 57.2701 28.3349 18.694 3 0.00787771 -4.1127
12641 1 56.3469 28.3332 16.3548 3 0.00219322 -4.11591
12642 1 58.8197 28.3332 16.3548 3 0.00219322 -4.11591
12643 1 57.9126 28.3302 14.0157 3 0.000890241 -4.11774
12644 1 60.3854 28.3302 14.0157 3 0.000890241 -4.11774
12645 1 59.4855 28.3274 11.6777 3 0.000456136 -4.11879
12646 1 61.9583 28.3274 11.6777 3 0.000456136 -4.11879
12647 1 61.0622 28.3251 9.34094 3 0.000275951 -4.11942
12648 1 38.4969 26.3015 47.7904 3 9.91672e-05 -4.11967
12649 1 40.9697 26.3015 47.7904 3 9.91672e-05 -4.11967
12650 1 40.0707 26.3021 45.4538 3 0.000109496 -4.11957
12651 1 42.5434 26.3021 45.4538 3 0.000109496 -4.11957
12652 1 41.6435 26.3032 43.117 3 0.000133537 -4.11936
12653 1 44.1163 26.3032 43.117 3 0.000133537 -4.11936
12654 1 43.2148 26.3049 40.7797 3 0.000180367 -4.11901
12655 1 45.6875 26.3049 40.7797 3 0.000180367 -4.11901
12656 1 44.7833 26.307 38.4419 3 0.000271562 -4.11847
12657 1 47.2561 26.307 38.4419 3 0.000271562 -4.11847
12658 1 46.3473 26.3093 36.1037 3 0.000464591 -4.11763
12659 1 48.8201 26.3093 36.1037 3 0.000464591 -4.11763
12660 1 47.9034 26.3112 33.7656 3 0.000951108 -4.11627
12661 1 50.3762 26.3112 33.7656 3 0.000951108 -4.11627
12662 1 49.4444 26.3104 31.4299 3 0.00245828 -4.11406
12663 1 51.9172 26.3104 31.4299 3 0.00245828 -4.11406
12664 1 50.9534 26.3002 29.1027 3 0.00637848 -4.10946
12665 1 53.4262 26.3002 29.1027 3 0.00637848 -4.10946
12666 1 52.398 26.2669 26.7934 3 0.00997197 -4.09174
12667 1 54.8708 26.2669 26.7934 3 0.00997197 -4.09174
12668 1 53.7831 26.2457 24.4793 3 0.0166214 -4.08223
12669 1 56.2558 26.2457 24.4793 3 0.0166214 -4.08223
12670 1 55.1681 26.2669 22.1652 3 0.00997198 -4.09174
12671 1 57.6408 26.2669 22.1652 3 0.00997198 -4.09174
12672 1 56.6127 26.3002 19.8559 3 0.00637848 -4.10946
12673 1 59.0855 26.3002 19.8559 3 0.00637848 -4.10946
12674 1 58.1217 26.3104 17.5287 3 0.00245828 -4.11406
12675 1 60.5945 26.3104 17.5287 3 0.00245828 -4.11406
12676 1 59.6627 26.3112 15.193 3 0.000951108 -4.11627
12677 1 62.1354 26.3112 15.193 3 0.000951108 -4.11627
12678 1 61.2188 26.3093 12.8549 3 0.000464591 -4.11763
12679 1 41.7502 24.2818 46.6212 3 7.83887e-05 -4.11909
12680 1 44.223 24.2818 46.6212 3 7.83887e-05 -4.11909
12681 1 43.3169 24.2827 44.2836 3 9.09683e-05 -4.11894
12682 1 45.7897 24.2827 44.2836 3 9.09683e-05 -4.11894
12683 1 44.8822 24.2841 41.9459 3 0.000116215 -4.11866
12684 1 47.355 24.2841 41.9459 3 0.000116215 -4.11866
12685 1 46.4448 24.2858 39.6081 3 0.000164011 -4.11823
12686 1 48.9176 24.2858 39.6081 3 0.000164011 -4.11823
12687 1 48.0032 24.2874 37.2705 3 0.000260539 -4.11759
12688 1 50.4759 24.2874 37.2705 3 0.000260539 -4.11759
12689 1 49.5544 24.2879 34.9338 3 0.000482604 -4.11663
12690 1 52.0271 24.2879 34.9338 3 0.000482604 -4.11663
12691 1 51.0931 24.2854 32.6002 3 0.00101185 -4.11517
12692 1 53.5659 24.2854 32.6002 3 0.00101185 -4.11517
12693 1 52.6097 24.275 30.2733 3 0.00186199 -4.11259
12694 1 55.0825 24.275 30.2733 3 0.00186199 -4.11259
12695 1 54.0908 24.2507 27.9568 3 0.00236274 -4.10559
12696 1 56.5636 24.2507 27.9568 3 0.00236274 -4.10559
12697 1 55.5389 24.2286 25.64 3 0.0045529 -4.09981
12698 1 58.0117 24.2286 25.64 3 0.0045529 -4.09981
12699 1 56.9728 24.2286 23.3186 3 0.0045529 -4.09981
12700 1 59.4456 24.2286 23.3186 3 0.0045529 -4.09981
12701 1 58.4209 24.2507 21.0019 3 0.00236274 -4.10559
12702 1 60.8937 24.2507 21.0019 3 0.00236274 -4.10559
12703 1 59.902 24.275 18.6853 3 0.00186199 -4.11259
12704 1 62.3748 24.275 18.6853 3 0.00186199 -4.11259
12705 1 61.4186 24.2854 16.3584 3 0.00101185 -4.11517
12706 1 43.4365 22.261 47.7898 3 5.81635e-05 -4.11867
12707 1 45.9093 22.261 47.7898 3 5.81635e-05 -4.11867
12708 1 44.998 22.2615 45.4521 3 6.41046e-05 -4.11857
12709 1 47.4708 22.2615 45.4521 3 6.41046e-05 -4.11857
12710 1 46.5583 22.2625 43.1146 3 7.79181e-05 -4.11836
12711 1 49.0311 22.2625 43.1146 3 7.79181e-05 -4.11836
12712 1 48.1163 22.2637 40.7772 3 0.000104555 -4.11804
12713 1 50.5891 22.2637 40.7772 3 0.000104555 -4.11804
12714 1 49.6705 22.2646 38.4403 3 0.000157093 -4.11755
12715 1 52.1433 22.2646 38.4403 3 0.000157093 -4.11755
12716 1 51.2187 22.2642 36.1048 3 0.000266142 -4.11685
12717 1 53.6915 22.2642 36.1048 3 0.000266142 -4.11685
12718 1 52.757 22.2608 33.7722 3 0.000471623 -4.11582
12719 1 55.2298 22.2608 33.7722 3 0.000471623 -4.11582
12720 1 54.2796 22.2512 31.4446 3 0.000701874 -4.11412
12721 1 56.7524 22.2512 31.4446 3 0.000701874 -4.11412
12722 1 55.7801 22.2327 29.1232 3 0.000811247 -4.11062
12723 1 58.2529 22.2327 29.1232 3 0.000811247 -4.11062
12724 1 57.2604 22.2131 26.8028 3 0.00142287 -4.10738
12725 1 59.7332 22.2131 26.8028 3 0.00142287 -4.10738
12726 1 58.7286 22.2049 24.4793 3 0.00172072 -4.10623
12727 1 61.2014 22.2049 24.4793 3 0.00172072 -4.10623
12728 1 60.1969 22.2131 22.1558 3 0.00142287 -4.10738
12729 1 62.6697 22.2131 22.1558 3 0.00142287 -4.10738
12730 1 61.6771 22.2327 19.8354 3 0.000811247 -4.11062
12731 1 46.6852 20.2396 46.6214 3 4.80558e-05 -4.11824
12732 1 49.158 20.2396 46.6214 3 4.80558e-05 -4.11824
12733 1 48.2412 20.2402 44.2843 3 5.54392e-05 -4.1181
12734 1 50.714 20.2402 44.2843 3 5.54392e-05 -4.1181
12735 1 49.7954 20.2409 41.9475 3 7.05626e-05 -4.11786
12736 1 52.2682 20.2409 41.9475 3 7.05626e-05 -4.11786
12737 1 51.3464 20.2412 39.6115 3 9.97795e-05 -4.11749
12738 1 53.8192 20.2412 39.6115 3 9.97795e-05 -4.11749
12739 1 52.8925 20.2403 37.2769 3 0.000154051 -4.11696
12740 1 55.3652 20.2403 37.2769 3 0.000154051 -4.11696
12741 1 54.4307 20.2367 34.9447 3 0.000237837 -4.1162
12742 1 56.9035 20.2367 34.9447 3 0.000237837 -4.1162
12743 1 55.9576 20.2283 32.6161 3 0.000309047 -4.11501
12744 1 58.4304 20.2283 32.6161 3 0.000309047 -4.11501
12745 1 57.4698 20.2138 30.2916 3 0.000342001 -4.11299
12746 1 59.9426 20.2138 30.2916 3 0.000342001 -4.11299
12747 1 58.9684 20.1974 27.9681 3 0.000541395 -4.11102
12748 1 61.4412 20.1974 27.9681 3 0.000541395 -4.11102
12749 1 60.4581 20.1865 25.6426 3 0.000695882 -4.1099
12750 1 62.9309 20.1865 25.6426 3 0.000695882 -4.1099
12751 1 61.9447 20.1865 23.316 3 0.000695882 -4.1099
12752 1 48.3774 18.2167 47.7904 3 3.80993e-05 -4.11796
12753 1 50.8502 18.2167 47.7904 3 3.80993e-05 -4.11796
12754 1 49.9297 18.2169 45.454 3 4.16723e-05 -4.11787
12755 1 52.4024 18.2169 45.454 3 4.16723e-05 -4.11787
12756 1 51.4805 18.2172 43.1181 3 4.99255e-05 -4.1177
12757 1 53.9533 18.2172 43.1181 3 4.99255e-05 -4.1177
12758 1 53.0288 18.2172 40.7829 3 6.57171e-05 -4.11742
12759 1 55.5016 18.2172 40.7829 3 6.57171e-05 -4.11742
12760 1 54.5731 18.216 38.4489 3 9.22624e-05 -4.11701
12761 1 57.0459 18.216 38.4489 3 9.22624e-05 -4.11701
12762 1 56.1113 18.2126 36.1169 3 0.000127291 -4.11643
12763 1 58.5841 18.2126 36.1169 3 0.000127291 -4.11643
12764 1 57.6412 18.2056 33.7876 3 0.000151781 -4.11557
12765 1 60.114 18.2056 33.7876 3 0.000151781 -4.11557
12766 1 59.1608 18.1942 31.4609 3 0.000165317 -4.11428
12767 1 61.6336 18.1942 31.4609 3 0.000165317 -4.11428
12768 1 60.6709 18.1808 29.135 3 0.000239462 -4.11297
12769 1 63.1436 18.1808 29.135 3 0.000239462 -4.11297
12770 1 62.1742 18.1699 26.8079 3 0.000309455 -4.11207
12771 1 51.6226 16.1927 46.6232 3 3.25865e-05 -4.11766
12772 1 54.0954 16.1927 46.6232 3 3.25865e-05 -4.11766
12773 1 53.1704 16.1928 44.2882 3 3.6577e-05 -4.11754
12774 1 55.6432 16.1928 44.2882 3 3.6577e-05 -4.11754
12775 1 54.7163 16.1925 41.9537 3 4.43745e-05 -4.11733
12776 1 57.1891 16.1925 41.9537 3 4.43745e-05 -4.11733
12777 1 56.2591 16.1913 39.6204 3 5.67156e-05 -4.11702
12778 1 58.7318 16.1913 39.6204 3 5.67156e-05 -4.11702
12779 1 57.7971 16.1884 37.2886 3 7.14129e-05 -4.11657
12780 1 60.2699 16.1884 37.2886 3 7.14129e-05 -4.11657
12781 1 59.329 16.1827 34.9586 3 8.10424e-05 -4.11593
12782 1 61.8018 16.1827 34.9586 3 8.10424e-05 -4.11593
12783 1 60.8534 16.174 32.6304 3 8.87972e-05 -4.11504
12784 1 63.3262 16.174 32.6304 3 8.87972e-05 -4.11504
12785 1 62.3709 16.1633 30.3028 3 0.000119747 -4.11412
12786 1 53.3194 14.1675 47.7915 3 2.60015e-05 -4.11745
12787 1 55.7922 14.1675 47.7915 3 2.60015e-05 -4.11745
12788 1 54.8644 14.1674 45.4574 3 2.74318e-05 -4.11738
12789 1 57.3372 14.1674 45.4574 3 2.74318e-05 -4.11738
12790 1 56.408 14.167 43.1237 3 3.05819e-05 -4.11723
12791 1 58.8808 14.167 43.1237 3 3.05819e-05 -4.11723
12792 1 57.9493 14.166 40.7909 3 3.56114e-05 -4.11699
12793 1 60.4221 14.166 40.7909 3 3.56114e-05 -4.11699
12794 1 59.487 14.1636 38.4592 3 4.15637e-05 -4.11665
12795 1 61.9598 14.1636 38.4592 3 4.15637e-05 -4.11665
12796 1 61.0201 14.1593 36.1289 3 4.62847e-05 -4.11616
12797 1 63.4929 14.1593 36.1289 3 4.62847e-05 -4.11616
12798 1 62.5478 14.1528 33.7998 3 5.23261e-05 -4.11553
12799 1 56.5617 12.1411 46.6254 3 2.08718e-05 -4.11721
12800 1 59.0345 12.1411 46.6254 3 2.08718e-05 -4.11721
12801 1 58.1032 12.1407 44.2926 3 2.14783e-05 -4.11711
12802 1 60.576 12.1407 44.2926 3 2.14783e-05 -4.11711
12803 1 59.643 12.1399 41.9603 3 2.27765e-05 -4.11694
12804 1 62.1158 12.1399 41.9603 3 2.27765e-05 -4.11694
12805 1 61.1802 12.1382 39.6288 3 2.48704e-05 -4.11668
12806 1 63.653 12.1382 39.6288 3 2.48704e-05 -4.11668
12807 1 62.7141 12.1352 37.2983 3 2.80027e-05 -4.11632
12808 1 58.2621 10.1138 47.7925 3 1.59529e-05 -4.11702
12809 1 60.7348 10.1138 47.7925 3 1.59529e-05 -4.11702
12810 1 59.8014 10.1136 45.4603 3 1.54783e-05 -4.11697
12811 1 62.2742 10.1136 45.4603 3 1.54783e-05 -4.11697
12812 1 61.3396 10.1131 43.1284 3 1.49876e-05 -4.11685
12813 1 63.8124 10.1131 43.1284 3 1.49876e-05 -4.11685
12814 1 62.8762 10.1119 40.7971 3 1.53535e-05 -4.11667
12815 1 61.5022 8.0857 46.627 3 1.16e-05 -4.11731
12816 1 63.9749 8.0857 46.627 3 1.16e-05 -4.11731
12817 1 63.0388 8.08542 44.2954 3 1.05633e-05 -4.11722
12818 1 63.2053 6.05706 47.7929 3 0.000192152 -4.11661
12819 1 1.44137 62.5896 47.7929 5 6.11303 -3.54477
12820 1 0.615037 62.5896 45.4616 5 6.11233 -3.54476
12821 1 3.08782 62.5896 45.4616 5 6.11233 -3.54476
12822 1 2.26175 62.5896 43.1302 5 6.11184 -3.54474
12823 1 4.73453 62.5896 43.1302 5 6.11184 -3.54474
12824 1 3.90889 62.5896 40.7989 5 12.2235 -3.54471
12825 1 6.38167 62.5896 40.7989 5 12.2235 -3.54471
12826 1 5.55658 62.5896 38.4675 5 12.2231 -3.54468
12827 1 8.02936 62.5896 38.4675 5 12.2231 -3.54468
12828 1 7.20489 62.5896 36.1361 5 12.2233 -3.54464
12829 1 9.67768 62.5896 36.1361 5 12.2233 -3.54464
12830 1 8.85387 62.5896 33.8048 5 12.2239 -3.54461
12831 1 11.3267 62.5896 33.8048 5 12.2239 -3.54461
12832 1 10.5035 62.5896 31.4734 5 12.2265 -3.54458
12833 1 12.9763 62.5896 31.4734 5 12.2265 -3.54458
12834 1 12.1536 62.5896 29.142 5 12.2286 -3.54455
12835 1 14.6264 62.5896 29.142 5 12.2286 -3.54455
12836 1 13.8042 62.5896 26.8107 5 12.2309 -3.54454
12837 1 16.2769 62.5896 26.8107 5 12.2309 -3.54454
12838 1 15.4549 62.5896 24.4793 5 12.2318 -3.54453
12839 1 17.9277 62.5896 24.4793 5 12.2318 -3.54453
12840 1 17.1056 62.5896 22.1479 5 12.2309 -3.54454
12841 1 19.5784 62.5896 22.1479 5 12.2309 -3.54454
12842 1 18.7562 62.5896 19.8166 5 12.2286 -3.54455
12843 1 21.229 62.5896 19.8166 5 12.2286 -3.54455
12844 1 20.4063 62.5896 17.4852 5 12.2265 -3.54458
12845 1 22.8791 62.5896 17.4852 5 12.2265 -3.54458
12846 1 22.0559 62.5896 15.1539 5 12.2239 -3.54461
12847 1 24.5287 62.5896 15.1539 5 12.2239 -3.54461
12848 1 23.7049 62.5896 12.8225 5 12.2233 -3.54464
12849 1 26.1777 62.5896 12.8225 5 12.2233 -3.54464
12850 1 25.3532 62.5896 10.4911 5 12.2231 -3.54468
12851 1 27.826 62.5896 10.4911 5 12.2231 -3.54468
12852 1 27.0009 62.5896 8.15977 5 12.2235 -3.54471
12853 1 29.4737 62.5896 8.15977 5 12.2235 -3.54471
12854 1 28.648 62.5896 5.82841 5 6.11184 -3.54474
12855 1 31.1208 62.5896 5.82841 5 6.11184 -3.54474
12856 1 30.2948 62.5896 3.49704 5 6.11233 -3.54476
12857 1 32.7675 62.5896 3.49704 5 6.11233 -3.54476
12858 1 31.9412 62.5896 1.16568 5 6.11303 -3.54477
12859 1 34.414 62.5896 1.16568 5 6.11303 -3.54477
12860 1 2.26395 60.5706 46.6273 3 1.02055e-06 -4.10666
12861 1 4.73674 60.5706 46.6273 3 1.02054e-06 -4.10666
12862 1 3.90994 60.5706 44.2959 3 1.02816e-06 -4.10664
12863 1 6.38273 60.5706 44.2959 3 1.02815e-06 -4.10664
12864 1 5.55638 60.5706 41.9645 3 1.04074e-06 -4.10661
12865 1 8.02916 60.5706 41.9645 3 1.04077e-06 -4.10661
12866 1 7.20344 60.5706 39.6332 3 1.05862e-06 -4.10657
12867 1 9.67622 60.5706 39.6332 3 1.05864e-06 -4.10657
12868 1 8.85126 60.5706 37.3018 3 1.08243e-06 -4.10651
12869 1 11.324 60.5706 37.3018 3 1.08242e-06 -4.10651
12870 1 10.4999 60.5706 34.9704 3 1.11275e-06 -4.10645
12871 1 12.9727 60.5706 34.9704 3 1.11275e-06 -4.10645
12872 1 12.1494 60.5706 32.6391 3 1.14887e-06 -4.10639
12873 1 14.6222 60.5706 32.6391 3 1.14887e-06 -4.10639
12874 1 13.7997 60.5706 30.3077 3 1.18713e-06 -4.10633
12875 1 16.2725 60.5706 30.3077 3 1.18714e-06 -4.10633
12876 1 15.4506 60.5706 27.9764 3 1.2204e-06 -4.1063
12877 1 17.9234 60.5706 27.9764 3 1.22038e-06 -4.1063
12878 1 17.102 60.5706 25.645 3 1.24004e-06 -4.10627
12879 1 19.5747 60.5706 25.645 3 1.24006e-06 -4.10627
12880 1 18.7534 60.5706 23.3136 3 1.24005e-06 -4.10627
12881 1 21.2262 60.5706 23.3136 3 1.24005e-06 -4.10627
12882 1 20.4047 60.5706 20.9823 3 1.22039e-06 -4.1063
12883 1 22.8775 60.5706 20.9823 3 1.22039e-06 -4.1063
12884 1 22.0556 60.5706 18.6509 3 1.18714e-06 -4.10633
12885 1 24.5284 60.5706 18.6509 3 1.18715e-06 -4.10633
12886 1 23.7059 60.5706 16.3195 3 1.14887e-06 -4.10639
12887 1 26.1787 60.5706 16.3195 3 1.14889e-06 -4.10639
12888 1 25.3554 60.5706 13.9882 3 1.11274e-06 -4.10645
12889 1 27.8282 60.5706 13.9882 3 1.11276e-06 -4.10645
12890 1 27.0041 60.5706 11.6568 3 1.08243e-06 -4.10651
12891 1 29.4769 60.5706 11.6568 3 1.08241e-06 -4.10651
12892 1 28.6519 60.5706 9.32545 3 1.05864e-06 -4.10657
12893 1 31.1247 60.5706 9.32545 3 1.05865e-06 -4.10657
12894 1 30.299 60.5706 6.99409 3 1.04077e-06 -4.10661
12895 1 32.7718 60.5706 6.99409 3 1.04075e-06 -4.10661
12896 1 31.9454 60.5706 4.66273 3 1.02814e-06 -4.10664
12897 1 34.4182 60.5706 4.66273 3 1.02816e-06 -4.10664
12898 1 33.5914 60.5706 2.33136 3 1.02056e-06 -4.10666
12899 1 36.0642 60.5706 2.33136 3 1.02054e-06 -4.10666
12900 1 35.2372 60.5706 0 3 1.01799e-06 -4.10667
12901 1 37.71 60.5706 0 3 1.01799e-06 -4.10667
12902 1 3.91344 58.5516 47.7929 3 0.000133584 -4.1223
12903 1 6.38623 58.5516 47.7929 3 0.000133584 -4.1223
12904 1 5.55852 58.5516 45.4616 3 0.000125533 -4.12231
12905 1 8.0313 58.5516 45.4616 3 0.000125533 -4.12231
12906 1 7.20402 58.5516 43.1302 3 0.000110457 -4.12234
12907 1 9.67681 58.5516 43.1302 3 0.000110457 -4.12234
12908 1 8.85021 58.5516 40.7989 3 9.07159e-05 -4.12237
12909 1 11.323 58.5516 40.7989 3 9.07158e-05 -4.12237
12910 1 10.4973 58.5516 38.4675 3 6.97659e-05 -4.1224
12911 1 12.9701 58.5516 38.4675 3 6.97659e-05 -4.1224
12912 1 12.1454 58.5516 36.1361 3 5.08315e-05 -4.12243
12913 1 14.6182 58.5516 36.1361 3 5.08317e-05 -4.12243
12914 1 13.7947 58.5516 33.8048 3 3.52552e-05 -4.12244
12915 1 16.2675 58.5516 33.8048 3 3.52551e-05 -4.12244
12916 1 15.445 58.5516 31.4734 3 2.24525e-05 -4.12244
12917 1 17.9178 58.5516 31.4734 3 2.24526e-05 -4.12244
12918 1 17.0962 58.5516 29.142 3 1.17353e-05 -4.12244
12919 1 19.569 58.5516 29.142 3 1.17354e-05 -4.12244
12920 1 18.7482 58.5516 26.8107 3 3.91935e-06 -4.12243
12921 1 21.221 58.5516 26.8107 3 3.91932e-06 -4.12243
12922 1 20.4005 58.5516 24.4793 3 9.47309e-07 -4.12242
12923 1 22.8733 58.5516 24.4793 3 9.47301e-07 -4.12242
12924 1 22.0528 58.5516 22.1479 3 3.91913e-06 -4.12243
12925 1 24.5256 58.5516 22.1479 3 3.91909e-06 -4.12243
12926 1 23.7047 58.5516 19.8166 3 1.17349e-05 -4.12244
12927 1 26.1775 58.5516 19.8166 3 1.1735e-05 -4.12244
12928 1 25.3559 58.5516 17.4852 3 2.24522e-05 -4.12244
12929 1 27.8287 58.5516 17.4852 3 2.24521e-05 -4.12244
12930 1 27.0063 58.5516 15.1539 3 3.52547e-05 -4.12244
12931 1 29.479 58.5516 15.1539 3 3.52548e-05 -4.12244
12932 1 28.6555 58.5516 12.8225 3 5.08313e-05 -4.12243
12933 1 31.1283 58.5516 12.8225 3 5.08313e-05 -4.12243
12934 1 30.3036 58.5516 10.4911 3 6.97658e-05 -4.1224
12935 1 32.7764 58.5516 10.4911 3 6.97657e-05 -4.1224
12936 1 31.9507 58.5516 8.15977 3 9.07158e-05 -4.12237
12937 1 34.4235 58.5516 8.15977 3 9.07157e-05 -4.12237
12938 1 33.5969 58.5516 5.82841 3 0.000110457 -4.12234
12939 1 36.0697 58.5516 5.82841 3 0.000110457 -4.12234
12940 1 35.2424 58.5516 3.49704 3 0.000125533 -4.12231
12941 1 37.7152 58.5516 3.49704 3 0.000125533 -4.12231
12942 1 36.8875 58.5516 1.16568 3 0.000133584 -4.1223
12943 1 39.3603 58.5516 1.16568 3 0.000133584 -4.1223
12944 1 7.208 56.5406 46.627 3 2.19143e-06 -4.12177
12945 1 9.68078 56.5406 46.627 3 2.19143e-06 -4.12177
12946 1 8.85265 56.5402 44.2953 3 3.49758e-06 -4.12182
12947 1 11.3254 56.5402 44.2953 3 3.49757e-06 -4.12182
12948 1 10.4981 56.5395 41.9635 3 5.88394e-06 -4.1219
12949 1 12.9709 56.5395 41.9635 3 5.88395e-06 -4.1219
12950 1 12.1447 56.5386 39.6317 3 9.06614e-06 -4.122
12951 1 14.6175 56.5386 39.6317 3 9.06613e-06 -4.122
12952 1 13.7925 56.5374 37.3 3 1.18619e-05 -4.12212
12953 1 16.2653 56.5374 37.3 3 1.18619e-05 -4.12212
12954 1 15.4416 56.5361 34.9684 3 1.2762e-05 -4.12223
12955 1 17.9143 56.5361 34.9684 3 1.27621e-05 -4.12223
12956 1 17.0918 56.5348 32.637 3 1.11233e-05 -4.12233
12957 1 19.5646 56.5348 32.637 3 1.11233e-05 -4.12233
12958 1 18.743 56.5336 30.3059 3 7.59862e-06 -4.1224
12959 1 21.2157 56.5336 30.3059 3 7.59862e-06 -4.1224
12960 1 20.3948 56.5327 27.9752 3 3.91338e-06 -4.12244
12961 1 22.8676 56.5327 27.9752 3 3.91337e-06 -4.12244
12962 1 22.0471 56.5323 25.6446 3 1.63777e-06 -4.12246
12963 1 24.5198 56.5323 25.6446 3 1.63777e-06 -4.12246
12964 1 23.6994 56.5323 23.3141 3 1.63777e-06 -4.12246
12965 1 26.1722 56.5323 23.3141 3 1.63778e-06 -4.12246
12966 1 25.3517 56.5327 20.9835 3 3.91337e-06 -4.12244
12967 1 27.8245 56.5327 20.9835 3 3.91338e-06 -4.12244
12968 1 27.0036 56.5336 18.6527 3 7.59862e-06 -4.1224
12969 1 29.4763 56.5336 18.6527 3 7.59861e-06 -4.1224
12970 1 28.6547 56.5348 16.3216 3 1.11233e-05 -4.12233
12971 1 31.1275 56.5348 16.3216 3 1.11233e-05 -4.12233
12972 1 30.3049 56.5361 13.9902 3 1.27621e-05 -4.12223
12973 1 32.7777 56.5361 13.9902 3 1.27621e-05 -4.12223
12974 1 31.954 56.5374 11.6586 3 1.18619e-05 -4.12212
12975 1 34.4268 56.5374 11.6586 3 1.18619e-05 -4.12212
12976 1 33.6018 56.5386 9.32688 3 9.06614e-06 -4.122
12977 1 36.0746 56.5386 9.32688 3 9.06615e-06 -4.122
12978 1 35.2484 56.5395 6.99509 3 5.88394e-06 -4.1219
12979 1 37.7212 56.5395 6.99509 3 5.88395e-06 -4.1219
12980 1 36.8938 56.5402 4.66334 3 3.49759e-06 -4.12182
12981 1 39.3666 56.5402 4.66334 3 3.49757e-06 -4.12182
12982 1 38.5385 56.5406 2.33165 3 2.19143e-06 -4.12177
12983 1 41.0113 56.5406 2.33165 3 2.19145e-06 -4.12177
12984 1 40.1827 56.5407 48.9586 3 1.81015e-06 -4.12175
12985 1 42.6555 56.5407 48.9586 3 1.81015e-06 -4.12175
12986 1 8.8581 54.5298 47.7928 3 3.89996e-06 -4.12217
12987 1 11.3309 54.5298 47.7928 3 3.89996e-06 -4.12217
12988 1 10.5015 54.5293 45.4612 3 4.47753e-06 -4.12218
12989 1 12.9743 54.5293 45.4612 3 4.47753e-06 -4.12218
12990 1 12.1457 54.5283 43.1295 3 5.81593e-06 -4.12221
12991 1 14.6185 54.5283 43.1295 3 5.81593e-06 -4.12221
12992 1 13.7912 54.5268 40.7976 3 8.05885e-06 -4.12226
12993 1 16.264 54.5268 40.7976 3 8.05886e-06 -4.12226
12994 1 15.4382 54.5247 38.4656 3 1.0958e-05 -4.12232
12995 1 17.911 54.5247 38.4656 3 1.0958e-05 -4.12232
12996 1 17.0869 54.5221 36.1337 3 1.34554e-05 -4.12238
12997 1 19.5597 54.5221 36.1337 3 1.34554e-05 -4.12238
12998 1 18.737 54.5193 33.802 3 1.40704e-05 -4.12243
12999 1 21.2098 54.5193 33.802 3 1.40704e-05 -4.12243
13000 1 20.3884 54.5166 31.4707 3 1.19593e-05 -4.12246
13001 1 22.8612 54.5166 31.4707 3 1.19593e-05 -4.12246
13002 1 22.0405 54.5144 29.1399 3 7.87667e-06 -4.12248
13003 1 24.5133 54.5144 29.1399 3 7.87667e-06 -4.12248
13004 1 23.6932 54.5129 26.8095 3 3.97123e-06 -4.12249
13005 1 26.166 54.5129 26.8095 3 3.97123e-06 -4.12249
13006 1 25.346 54.5124 24.4793 3 2.41598e-06 -4.12249
13007 1 27.8188 54.5124 24.4793 3 2.41598e-06 -4.12249
13008 1 26.9989 54.5129 22.1492 3 3.97123e-06 -4.12249
13009 1 29.4717 54.5129 22.1492 3 3.97122e-06 -4.12249
13010 1 28.6515 54.5144 19.8188 3 7.87666e-06 -4.12248
13011 1 31.1243 54.5144 19.8188 3 7.87667e-06 -4.12248
13012 1 30.3037 54.5166 17.4879 3 1.19593e-05 -4.12246
13013 1 32.7765 54.5166 17.4879 3 1.19593e-05 -4.12246
13014 1 31.955 54.5193 15.1566 3 1.40704e-05 -4.12243
13015 1 34.4278 54.5193 15.1566 3 1.40704e-05 -4.12243
13016 1 33.6052 54.5221 12.8249 3 1.34554e-05 -4.12238
13017 1 36.078 54.5221 12.8249 3 1.34554e-05 -4.12238
13018 1 35.2538 54.5247 10.493 3 1.09581e-05 -4.12232
13019 1 37.7266 54.5247 10.493 3 1.0958e-05 -4.12232
13020 1 36.9009 54.5268 8.16101 3 8.05886e-06 -4.12226
13021 1 39.3737 54.5268 8.16101 3 8.05887e-06 -4.12226
13022 1 38.5464 54.5283 5.82911 3 5.81593e-06 -4.12221
13023 1 41.0192 54.5283 5.82911 3 5.81593e-06 -4.12221
13024 1 40.1906 54.5293 3.49738 3 4.47753e-06 -4.12218
13025 1 42.6634 54.5293 3.49738 3 4.47753e-06 -4.12218
13026 1 41.834 54.5298 1.16578 3 3.89996e-06 -4.12217
13027 1 44.3068 54.5298 1.16578 3 3.89996e-06 -4.12217
13028 1 12.1511 52.5183 46.6275 3 7.52735e-06 -4.12216
13029 1 14.6238 52.5183 46.6275 3 7.52735e-06 -4.12216
13030 1 13.7935 52.5174 44.2961 3 8.29609e-06 -4.12218
13031 1 16.2663 52.5174 44.2961 3 8.29609e-06 -4.12218
13032 1 15.4372 52.5157 41.9645 3 9.67675e-06 -4.12221
13033 1 17.91 52.5157 41.9645 3 9.67675e-06 -4.12221
13034 1 17.0828 52.5132 39.6326 3 1.15574e-05 -4.12226
13035 1 19.5556 52.5132 39.6326 3 1.15574e-05 -4.12226
13036 1 18.7305 52.5098 37.3005 3 1.40121e-05 -4.12233
13037 1 21.2033 52.5098 37.3005 3 1.40121e-05 -4.12233
13038 1 20.3803 52.5057 34.9684 3 1.63502e-05 -4.12239
13039 1 22.8531 52.5057 34.9684 3 1.63502e-05 -4.12239
13040 1 22.0318 52.5014 32.6366 3 1.70391e-05 -4.12245
13041 1 24.5045 52.5014 32.6366 3 1.70391e-05 -4.12245
13042 1 23.6845 52.4973 30.3053 3 1.49964e-05 -4.12248
13043 1 26.1573 52.4973 30.3053 3 1.49964e-05 -4.12248
13044 1 25.338 52.4943 27.9746 3 1.09793e-05 -4.12249
13045 1 27.8108 52.4943 27.9746 3 1.09793e-05 -4.12249
13046 1 26.9918 52.4926 25.6444 3 7.73925e-06 -4.12249
13047 1 29.4646 52.4926 25.6444 3 7.73925e-06 -4.12249
13048 1 28.6458 52.4926 23.3143 3 7.73924e-06 -4.12249
13049 1 31.1186 52.4926 23.3143 3 7.73924e-06 -4.12249
13050 1 30.2997 52.4943 20.984 3 1.09792e-05 -4.12249
13051 1 32.7724 52.4943 20.984 3 1.09792e-05 -4.12249
13052 1 31.9532 52.4973 18.6533 3 1.49964e-05 -4.12248
13053 1 34.4259 52.4973 18.6533 3 1.49964e-05 -4.12248
13054 1 33.6059 52.5014 16.322 3 1.70391e-05 -4.12245
13055 1 36.0787 52.5014 16.322 3 1.70391e-05 -4.12245
13056 1 35.2574 52.5057 13.9902 3 1.63502e-05 -4.12239
13057 1 37.7301 52.5057 13.9902 3 1.63502e-05 -4.12239
13058 1 36.9071 52.5098 11.6581 3 1.40121e-05 -4.12233
13059 1 39.3799 52.5098 11.6581 3 1.40121e-05 -4.12233
13060 1 38.5548 52.5132 9.32602 3 1.15574e-05 -4.12226
13061 1 41.0276 52.5132 9.32602 3 1.15574e-05 -4.12226
13062 1 40.2004 52.5157 6.99411 3 9.67676e-06 -4.12221
13063 1 42.6732 52.5157 6.99411 3 9.67676e-06 -4.12221
13064 1 41.8441 52.5174 4.66251 3 8.29609e-06 -4.12218
13065 1 44.3169 52.5174 4.66251 3 8.29609e-06 -4.12218
13066 1 43.4866 52.5183 2.33117 3 7.52735e-06 -4.12216
13067 1 45.9594 52.5183 2.33117 3 7.52735e-06 -4.12216
13068 1 45.1283 52.5186 48.9586 3 7.22158e-06 -4.12216
13069 1 47.6011 52.5186 48.9586 3 7.22158e-06 -4.12216
13070 1 13.802 50.5068 47.7934 3 1.18952e-05 -4.12215
13071 1 16.2748 50.5068 47.7934 3 1.18952e-05 -4.12215
13072 1 15.4422 50.5062 45.4628 3 1.26248e-05 -4.12216
13073 1 17.915 50.5062 45.4628 3 1.26248e-05 -4.12216
13074 1 17.0836 50.5048 43.1318 3 1.38767e-05 -4.12217
13075 1 19.5563 50.5048 43.1318 3 1.38767e-05 -4.12217
13076 1 18.7269 50.5023 40.8005 3 1.53589e-05 -4.1222
13077 1 21.1997 50.5023 40.8005 3 1.53589e-05 -4.1222
13078 1 20.3727 50.4987 38.4686 3 1.67305e-05 -4.12225
13079 1 22.8455 50.4987 38.4686 3 1.67305e-05 -4.12225
13080 1 22.0214 50.4938 36.1363 3 1.86664e-05 -4.12233
13081 1 24.4942 50.4938 36.1363 3 1.86664e-05 -4.12233
13082 1 23.6726 50.488 33.804 3 2.12611e-05 -4.12241
13083 1 26.1454 50.488 33.804 3 2.12611e-05 -4.12241
13084 1 25.3258 50.4822 31.472 3 2.30165e-05 -4.12246
13085 1 27.7986 50.4822 31.472 3 2.30165e-05 -4.12246
13086 1 26.9805 50.477 29.1406 3 2.21126e-05 -4.12249
13087 1 29.4533 50.477 29.1406 3 2.21126e-05 -4.12249
13088 1 28.6359 50.4735 26.8098 3 1.91502e-05 -4.1225
13089 1 31.1087 50.4735 26.8098 3 1.91502e-05 -4.1225
13090 1 30.2916 50.4723 24.4793 3 1.74186e-05 -4.1225
13091 1 32.7644 50.4723 24.4793 3 1.74186e-05 -4.1225
13092 1 31.9473 50.4735 22.1489 3 1.91502e-05 -4.1225
13093 1 34.4201 50.4735 22.1489 3 1.91502e-05 -4.1225
13094 1 33.6027 50.477 19.818 3 2.21126e-05 -4.12249
13095 1 36.0755 50.477 19.818 3 2.21126e-05 -4.12249
13096 1 35.2574 50.4822 17.4866 3 2.30165e-05 -4.12246
13097 1 37.7302 50.4822 17.4866 3 2.30165e-05 -4.12246
13098 1 36.9106 50.488 15.1546 3 2.12611e-05 -4.12241
13099 1 39.3834 50.488 15.1546 3 2.12611e-05 -4.12241
13100 1 38.5618 50.4938 12.8223 3 1.86664e-05 -4.12233
13101 1 41.0346 50.4938 12.8223 3 1.86664e-05 -4.12233
13102 1 40.2105 50.4987 10.4901 3 1.67305e-05 -4.12225
13103 1 42.6832 50.4987 10.4901 3 1.67305e-05 -4.12225
13104 1 41.8563 50.5023 8.15817 3 1.53589e-05 -4.1222
13105 1 44.3291 50.5023 8.15817 3 1.53589e-05 -4.1222
13106 1 43.4996 50.5048 5.82678 3 1.38767e-05 -4.12217
13107 1 45.9724 50.5048 5.82678 3 1.38767e-05 -4.12217
13108 1 45.141 50.5062 3.49585 3 1.26248e-05 -4.12216
13109 1 47.6138 50.5062 3.49585 3 1.26248e-05 -4.12216
13110 1 46.7812 50.5068 1.16525 3 1.18952e-05 -4.12215
13111 1 49.254 50.5068 1.16525 3 1.18952e-05 -4.12215
13112 1 17.0925 48.4942 46.629 3 1.78386e-05 -4.12214
13113 1 19.5652 48.4942 46.629 3 1.78386e-05 -4.12214
13114 1 18.7309 48.4932 44.299 3 1.96273e-05 -4.12214
13115 1 21.2037 48.4932 44.299 3 1.96273e-05 -4.12214
13116 1 20.3712 48.4913 41.9686 3 2.20453e-05 -4.12215
13117 1 22.844 48.4913 41.9686 3 2.20453e-05 -4.12215
13118 1 22.0142 48.4881 39.6374 3 2.41335e-05 -4.12217
13119 1 24.487 48.4881 39.6374 3 2.41335e-05 -4.12217
13120 1 23.6606 48.4832 37.3054 3 2.49439e-05 -4.12223
13121 1 26.1334 48.4832 37.3054 3 2.49439e-05 -4.12223
13122 1 25.3106 48.4767 34.9729 3 2.64238e-05 -4.12233
13123 1 27.7834 48.4767 34.9729 3 2.64238e-05 -4.12233
13124 1 26.9639 48.4693 32.6402 3 3.04308e-05 -4.12241
13125 1 29.4366 48.4693 32.6402 3 3.04308e-05 -4.12241
13126 1 28.6196 48.4619 30.3078 3 3.52972e-05 -4.12247
13127 1 31.0924 48.4619 30.3078 3 3.52972e-05 -4.12247
13128 1 30.277 48.456 27.976 3 3.74501e-05 -4.1225
13129 1 32.7498 48.456 27.976 3 3.74501e-05 -4.1225
13130 1 31.9352 48.4526 25.6448 3 3.66337e-05 -4.12251
13131 1 34.408 48.4526 25.6448 3 3.66337e-05 -4.12251
13132 1 33.5936 48.4526 23.3138 3 3.66337e-05 -4.12251
13133 1 36.0664 48.4526 23.3138 3 3.66337e-05 -4.12251
13134 1 35.2518 48.456 20.9826 3 3.745e-05 -4.1225
13135 1 37.7245 48.456 20.9826 3 3.745e-05 -4.1225
13136 1 36.9091 48.4619 18.6508 3 3.52972e-05 -4.12247
13137 1 39.3819 48.4619 18.6508 3 3.52972e-05 -4.12247
13138 1 38.5649 48.4693 16.3184 3 3.04307e-05 -4.12241
13139 1 41.0377 48.4693 16.3184 3 3.04307e-05 -4.12241
13140 1 40.2182 48.4767 13.9857 3 2.64237e-05 -4.12233
13141 1 42.691 48.4767 13.9857 3 2.64237e-05 -4.12233
13142 1 41.8682 48.4832 11.6532 3 2.49439e-05 -4.12223
13143 1 44.341 48.4832 11.6532 3 2.49439e-05 -4.12223
13144 1 43.5146 48.4881 9.32123 3 2.41335e-05 -4.12217
13145 1 45.9873 48.4881 9.32123 3 2.41335e-05 -4.12217
13146 1 45.1575 48.4913 6.99006 3 2.20453e-05 -4.12215
13147 1 47.6303 48.4913 6.99006 3 2.20453e-05 -4.12215
13148 1 46.7978 48.4932 4.6596 3 1.96273e-05 -4.12214
13149 1 49.2706 48.4932 4.6596 3 1.96273e-05 -4.12214
13150 1 48.4363 48.4942 2.32967 3 1.78386e-05 -4.12214
13151 1 50.9091 48.4942 2.32967 3 1.78386e-05 -4.12214
13152 1 50.0739 48.4945 48.9586 3 1.72512e-05 -4.12214
13153 1 52.5467 48.4945 48.9586 3 1.72512e-05 -4.12214
13154 1 18.745 46.4812 47.7943 3 2.36101e-05 -4.12212
13155 1 21.2178 46.4812 47.7943 3 2.36101e-05 -4.12212
13156 1 20.3802 46.4807 45.4655 3 2.56145e-05 -4.12212
13157 1 22.8529 46.4807 45.4655 3 2.56145e-05 -4.12212
13158 1 22.0168 46.4794 43.1363 3 2.95039e-05 -4.12211
13159 1 24.4896 46.4794 43.1363 3 2.95039e-05 -4.12211
13160 1 23.656 46.4771 40.8063 3 3.46056e-05 -4.1221
13161 1 26.1288 46.4771 40.8063 3 3.46056e-05 -4.1221
13162 1 25.2988 46.4731 38.4753 3 3.8725e-05 -4.12212
13163 1 27.7715 46.4731 38.4753 3 3.8725e-05 -4.12212
13164 1 26.946 46.467 36.1432 3 3.9276e-05 -4.12218
13165 1 29.4188 46.467 36.1432 3 3.9276e-05 -4.12218
13166 1 28.5981 46.4588 33.8101 3 4.07035e-05 -4.12231
13167 1 31.0709 46.4588 33.8101 3 4.07035e-05 -4.12231
13168 1 30.2544 46.4495 31.4768 3 4.82067e-05 -4.1224
13169 1 32.7272 46.4495 31.4768 3 4.82067e-05 -4.1224
13170 1 31.9138 46.4409 29.1438 3 6.04472e-05 -4.12248
13171 1 34.3866 46.4409 29.1438 3 6.04472e-05 -4.12248
13172 1 33.5751 46.4347 26.8113 3 6.90738e-05 -4.12252
13173 1 36.0478 46.4347 26.8113 3 6.90738e-05 -4.12252
13174 1 35.2372 46.4324 24.4793 3 7.12415e-05 -4.12253
13175 1 37.71 46.4324 24.4793 3 7.12415e-05 -4.12253
13176 1 36.8993 46.4347 22.1473 3 6.90738e-05 -4.12252
13177 1 39.3721 46.4347 22.1473 3 6.90738e-05 -4.12252
13178 1 38.5606 46.4409 19.8148 3 6.04472e-05 -4.12248
13179 1 41.0334 46.4409 19.8148 3 6.04472e-05 -4.12248
13180 1 40.22 46.4495 17.4818 3 4.82066e-05 -4.1224
13181 1 42.6927 46.4495 17.4818 3 4.82066e-05 -4.1224
13182 1 41.8762 46.4588 15.1485 3 4.07035e-05 -4.12231
13183 1 44.349 46.4588 15.1485 3 4.07035e-05 -4.12231
13184 1 43.5283 46.467 12.8155 3 3.92759e-05 -4.12218
13185 1 46.0011 46.467 12.8155 3 3.92759e-05 -4.12218
13186 1 45.1756 46.4731 10.4833 3 3.8725e-05 -4.12212
13187 1 47.6484 46.4731 10.4833 3 3.8725e-05 -4.12212
13188 1 46.8184 46.4771 8.15231 3 3.46057e-05 -4.1221
13189 1 49.2912 46.4771 8.15231 3 3.46057e-05 -4.1221
13190 1 48.4575 46.4794 5.82233 3 2.95039e-05 -4.12211
13191 1 50.9303 46.4794 5.82233 3 2.95039e-05 -4.12211
13192 1 50.0942 46.4807 3.4931 3 2.56145e-05 -4.12212
13193 1 52.567 46.4807 3.4931 3 2.56145e-05 -4.12212
13194 1 51.7293 46.4812 1.16432 3 2.36101e-05 -4.12212
13195 1 54.2021 46.4812 1.16432 3 2.36101e-05 -4.12212
13196 1 22.032 44.4667 46.631 3 3.16705e-05 -4.12209
13197 1 24.5048 44.4667 46.631 3 3.16705e-05 -4.12209
13198 1 23.6645 44.4662 44.3031 3 3.62616e-05 -4.12207
13199 1 26.1373 44.4662 44.3031 3 3.62616e-05 -4.12207
13200 1 25.2992 44.4648 41.9745 3 4.42897e-05 -4.12205
13201 1 27.772 44.4648 41.9745 3 4.42897e-05 -4.12205
13202 1 26.9372 44.4622 39.645 3 5.52161e-05 -4.12202
13203 1 29.41 44.4622 39.645 3 5.52161e-05 -4.12202
13204 1 28.58 44.4575 37.3141 3 6.50011e-05 -4.12201
13205 1 31.0528 44.4575 37.3141 3 6.50011e-05 -4.12201
13206 1 30.2288 44.4501 34.9816 3 6.6379e-05 -4.12208
13207 1 32.7016 44.4501 34.9816 3 6.6379e-05 -4.12208
13208 1 31.8841 44.44 32.6477 3 6.90114e-05 -4.12229
13209 1 34.3568 44.44 32.6477 3 6.90114e-05 -4.12229
13210 1 33.5447 44.429 30.3136 3 8.3298e-05 -4.12236
13211 1 36.0175 44.429 30.3136 3 8.3298e-05 -4.12236
13212 1 35.2093 44.4195 27.9795 3 0.000113302 -4.12248
13213 1 37.682 44.4195 27.9795 3 0.000113302 -4.12248
13214 1 36.8761 44.4138 25.646 3 0.000134837 -4.12254
13215 1 39.3489 44.4138 25.646 3 0.000134837 -4.12254
13216 1 38.5438 44.4138 23.3127 3 0.000134837 -4.12254
13217 1 41.0165 44.4138 23.3127 3 0.000134837 -4.12254
13218 1 40.2107 44.4195 20.9791 3 0.000113302 -4.12248
13219 1 42.6834 44.4195 20.9791 3 0.000113302 -4.12248
13220 1 41.8752 44.429 18.6451 3 8.3298e-05 -4.12236
13221 1 44.348 44.429 18.6451 3 8.3298e-05 -4.12236
13222 1 43.5359 44.44 16.3109 3 6.90114e-05 -4.12229
13223 1 46.0086 44.44 16.3109 3 6.90114e-05 -4.12229
13224 1 45.1911 44.4501 13.9771 3 6.6379e-05 -4.12208
13225 1 47.6639 44.4501 13.9771 3 6.6379e-05 -4.12208
13226 1 46.8399 44.4575 11.6445 3 6.50011e-05 -4.12201
13227 1 49.3127 44.4575 11.6445 3 6.50011e-05 -4.12201
13228 1 48.4827 44.4622 9.31364 3 5.52162e-05 -4.12202
13229 1 50.9555 44.4622 9.31364 3 5.52162e-05 -4.12202
13230 1 50.1207 44.4648 6.9841 3 4.42897e-05 -4.12205
13231 1 52.5935 44.4648 6.9841 3 4.42897e-05 -4.12205
13232 1 51.7554 44.4662 4.65555 3 3.62616e-05 -4.12207
13233 1 54.2282 44.4662 4.65555 3 3.62616e-05 -4.12207
13234 1 53.3879 44.4667 2.32763 3 3.16705e-05 -4.12209
13235 1 55.8607 44.4667 2.32763 3 3.16705e-05 -4.12209
13236 1 55.0194 44.4669 48.9586 3 3.02465e-05 -4.1221
13237 1 57.4922 44.4669 48.9586 3 3.02465e-05 -4.1221
13238 1 23.687 42.4514 47.7953 3 3.88216e-05 -4.12204
13239 1 26.1598 42.4514 47.7953 3 3.88216e-05 -4.12204
13240 1 25.3151 42.4513 45.4685 3 4.29685e-05 -4.12203
13241 1 27.7879 42.4513 45.4685 3 4.29685e-05 -4.12203
13242 1 26.9448 42.4508 43.1414 3 5.21401e-05 -4.122
13243 1 29.4176 42.4508 43.1414 3 5.21401e-05 -4.122
13244 1 28.5773 42.4495 40.8135 3 6.79327e-05 -4.12195
13245 1 31.05 42.4495 40.8135 3 6.79327e-05 -4.12195
13246 1 30.2141 42.4468 38.4844 3 9.11994e-05 -4.12188
13247 1 32.6869 42.4468 38.4844 3 9.11994e-05 -4.12188
13248 1 31.8572 42.4416 36.1535 3 0.000115746 -4.12183
13249 1 34.33 42.4416 36.1535 3 0.000115746 -4.12183
13250 1 33.5084 42.4328 33.8204 3 0.000121899 -4.12189
13251 1 35.9812 42.4328 33.8204 3 0.000121899 -4.12189
13252 1 35.1685 42.4205 31.4854 3 0.000131069 -4.12226
13253 1 37.6413 42.4205 31.4854 3 0.000131069 -4.12226
13254 1 36.8355 42.408 29.1501 3 0.000154237 -4.12225
13255 1 39.3083 42.408 29.1501 3 0.000154237 -4.12225
13256 1 38.5077 42.3982 26.8146 3 0.000231706 -4.12249
13257 1 40.9805 42.3982 26.8146 3 0.000231706 -4.12249
13258 1 40.1827 42.3944 24.4793 3 0.00027212 -4.12258
13259 1 42.6555 42.3944 24.4793 3 0.00027212 -4.12258
13260 1 41.8577 42.3982 22.144 3 0.000231706 -4.12249
13261 1 44.3305 42.3982 22.144 3 0.000231706 -4.12249
13262 1 43.53 42.408 19.8085 3 0.000154237 -4.12225
13263 1 46.0028 42.408 19.8085 3 0.000154237 -4.12225
13264 1 45.1969 42.4205 17.4732 3 0.000131069 -4.12226
13265 1 47.6697 42.4205 17.4732 3 0.000131069 -4.12226
13266 1 46.8571 42.4328 15.1382 3 0.000121899 -4.12189
13267 1 49.3298 42.4328 15.1382 3 0.000121899 -4.12189
13268 1 48.5083 42.4416 12.8051 3 0.000115746 -4.12183
13269 1 50.9811 42.4416 12.8051 3 0.000115746 -4.12183
13270 1 50.1514 42.4468 10.4743 3 9.11994e-05 -4.12188
13271 1 52.6242 42.4468 10.4743 3 9.11994e-05 -4.12188
13272 1 51.7882 42.4495 8.14516 3 6.79327e-05 -4.12195
13273 1 54.261 42.4495 8.14516 3 6.79327e-05 -4.12195
13274 1 53.4207 42.4508 5.81726 3 5.21401e-05 -4.122
13275 1 55.8935 42.4508 5.81726 3 5.21401e-05 -4.122
13276 1 55.0504 42.4513 3.4901 3 4.29685e-05 -4.12203
13277 1 57.5232 42.4513 3.4901 3 4.29685e-05 -4.12203
13278 1 56.6784 42.4514 1.16333 3 3.88216e-05 -4.12204
13279 1 59.1512 42.4514 1.16333 3 3.88216e-05 -4.12204
13280 1 26.9693 40.4348 46.6326 3 5.18024e-05 -4.12196
13281 1 29.4421 40.4348 46.6326 3 5.18024e-05 -4.12196
13282 1 28.5935 40.4348 44.3065 3 6.06629e-05 -4.12193
13283 1 31.0663 40.4348 44.3065 3 6.06629e-05 -4.12193
13284 1 30.22 40.4346 41.9799 3 7.80201e-05 -4.12187
13285 1 32.6927 40.4346 41.9799 3 7.80201e-05 -4.12187
13286 1 31.85 40.4336 39.6526 3 0.000108536 -4.12178
13287 1 34.3228 40.4336 39.6526 3 0.000108536 -4.12178
13288 1 33.4856 40.431 37.324 3 0.000158298 -4.12165
13289 1 35.9583 40.431 37.324 3 0.000158298 -4.12165
13290 1 35.1293 40.4256 34.9932 3 0.000221815 -4.1215
13291 1 37.6021 40.4256 34.9932 3 0.000221815 -4.1215
13292 1 36.7843 40.4155 32.6594 3 0.000248953 -4.12152
13293 1 39.2571 40.4155 32.6594 3 0.000248953 -4.12152
13294 1 38.452 40.4005 30.3228 3 0.000290858 -4.12227
13295 1 40.9248 40.4005 30.3228 3 0.000290857 -4.12227
13296 1 40.1284 40.3872 27.9861 3 0.000307363 -4.122
13297 1 42.6012 40.3872 27.9861 3 0.000307363 -4.122
13298 1 41.8122 40.3784 25.6483 3 0.000523821 -4.12257
13299 1 44.285 40.3784 25.6483 3 0.000523821 -4.12257
13300 1 43.4988 40.3784 23.3103 3 0.000523821 -4.12257
13301 1 45.9716 40.3784 23.3103 3 0.000523821 -4.12257
13302 1 45.1827 40.3872 20.9725 3 0.000307363 -4.122
13303 1 47.6554 40.3872 20.9725 3 0.000307363 -4.122
13304 1 46.859 40.4005 18.6358 3 0.000290858 -4.12227
13305 1 49.3318 40.4005 18.6358 3 0.000290858 -4.12227
13306 1 48.5268 40.4155 16.2992 3 0.000248953 -4.12152
13307 1 50.9996 40.4155 16.2992 3 0.000248953 -4.12152
13308 1 50.1817 40.4256 13.9654 3 0.000221816 -4.1215
13309 1 52.6545 40.4256 13.9654 3 0.000221816 -4.1215
13310 1 51.8255 40.431 11.6346 3 0.000158298 -4.12165
13311 1 54.2983 40.431 11.6346 3 0.000158298 -4.12165
13312 1 53.4611 40.4336 9.306 3 0.000108536 -4.12178
13313 1 55.9338 40.4336 9.306 3 0.000108536 -4.12178
13314 1 55.0911 40.4346 6.97871 3 7.80201e-05 -4.12187
13315 1 57.5639 40.4346 6.97871 3 7.80201e-05 -4.12187
13316 1 56.7175 40.4348 4.65217 3 6.06629e-05 -4.12193
13317 1 59.1903 40.4348 4.65217 3 6.06629e-05 -4.12193
13318 1 58.3418 40.4348 2.326 3 5.18024e-05 -4.12196
13319 1 60.8145 40.4348 2.326 3 5.18024e-05 -4.12196
13320 1 59.965 40.4348 48.9586 3 4.90573e-05 -4.12197
13321 1 62.4378 40.4348 48.9586 3 4.90573e-05 -4.12197
13322 1 28.6278 38.4171 47.7957 3 6.55492e-05 -4.12185
13323 1 31.1006 38.4171 47.7957 3 6.55492e-05 -4.12185
13324 1 30.2462 38.4173 45.4699 3 7.3238e-05 -4.12182
13325 1 32.719 38.4173 45.4699 3 7.3238e-05 -4.12182
13326 1 31.8661 38.4176 43.144 3 9.07642e-05 -4.12177
13327 1 34.3389 38.4176 43.144 3 9.07642e-05 -4.12177
13328 1 33.4887 38.4177 40.8179 3 0.00012367 -4.12167
13329 1 35.9615 38.4177 40.8179 3 0.00012367 -4.12167
13330 1 35.1158 38.4172 38.4912 3 0.000183731 -4.12151
13331 1 37.5886 38.4172 38.4912 3 0.000183731 -4.12151
13332 1 36.7498 38.4151 36.1632 3 0.000293667 -4.12125
13333 1 39.2226 38.4151 36.1632 3 0.000293667 -4.12125
13334 1 38.3945 38.4098 33.8328 3 0.000468568 -4.12089
13335 1 40.8673 38.4098 33.8328 3 0.000468568 -4.12089
13336 1 40.0553 38.3984 31.4983 3 0.00059098 -4.12071
13337 1 42.5281 38.3984 31.4983 3 0.00059098 -4.12071
13338 1 41.7355 38.3799 29.1594 3 0.000820378 -4.12241
13339 1 44.2083 38.3799 29.1594 3 0.000820378 -4.12241
13340 1 43.4263 38.3679 26.8212 3 0.000708783 -4.12138
13341 1 45.8991 38.3679 26.8212 3 0.000708783 -4.12138
13342 1 45.1283 38.3626 24.4793 3 0.00124499 -4.12296
13343 1 47.6011 38.3626 24.4793 3 0.00124499 -4.12296
13344 1 46.8303 38.3679 22.1374 3 0.000708783 -4.12138
13345 1 49.3031 38.3679 22.1374 3 0.000708783 -4.12138
13346 1 48.5211 38.3799 19.7992 3 0.000820378 -4.12241
13347 1 50.9939 38.3799 19.7992 3 0.000820378 -4.12241
13348 1 50.2013 38.3984 17.4603 3 0.00059098 -4.12071
13349 1 52.6741 38.3984 17.4603 3 0.00059098 -4.12071
13350 1 51.8621 38.4098 15.1259 3 0.000468568 -4.12089
13351 1 54.3349 38.4098 15.1259 3 0.000468568 -4.12089
13352 1 53.5068 38.4151 12.7954 3 0.000293667 -4.12125
13353 1 55.9796 38.4151 12.7954 3 0.000293667 -4.12125
13354 1 55.1408 38.4172 10.4675 3 0.000183731 -4.12151
13355 1 57.6136 38.4172 10.4675 3 0.000183731 -4.12151
13356 1 56.7679 38.4177 8.14077 3 0.00012367 -4.12167
13357 1 59.2407 38.4177 8.14077 3 0.00012367 -4.12167
13358 1 58.3905 38.4176 5.81463 3 9.07642e-05 -4.12177
13359 1 60.8633 38.4176 5.81463 3 9.07642e-05 -4.12177
13360 1 60.0104 38.4173 3.48873 3 7.3238e-05 -4.12182
13361 1 62.4832 38.4173 3.48873 3 7.3238e-05 -4.12182
13362 1 61.6288 38.4171 1.16291 3 6.55492e-05 -4.12185
13363 1 64.1016 38.4171 1.16291 3 6.55492e-05 -4.12185
13364 1 31.9036 36.3986 46.6323 3 9.18568e-05 -4.12168
13365 1 34.3764 36.3986 46.6323 3 9.18568e-05 -4.12168
13366 1 33.5165 36.399 44.306 3 0.000108355 -4.12161
13367 1 35.9892 36.399 44.306 3 0.000108355 -4.12161
13368 1 35.1312 36.3997 41.9799 3 0.000142159 -4.1215
13369 1 37.604 36.3997 41.9799 3 0.000142159 -4.1215
13370 1 36.7491 36.4003 39.6538 3 0.000206701 -4.12131
13371 1 39.2219 36.4003 39.6538 3 0.000206701 -4.12131
13372 1 38.3722 36.4004 37.3276 3 0.000333509 -4.12101
13373 1 40.845 36.4004 37.3276 3 0.000333509 -4.12101
13374 1 40.0038 36.3992 35.0006 3 0.000598223 -4.12049
13375 1 42.4766 36.3992 35.0006 3 0.000598223 -4.12049
13376 1 41.6496 36.3945 32.6711 3 0.00114061 -4.1196
13377 1 44.1224 36.3945 32.6711 3 0.00114061 -4.1196
13378 1 43.3192 36.3823 30.3364 3 0.00177736 -4.11866
13379 1 45.792 36.3823 30.3364 3 0.00177736 -4.11866
13380 1 45.0219 36.3588 27.9942 3 0.00336124 -4.12315
13381 1 47.4947 36.3588 27.9942 3 0.00336124 -4.12315
13382 1 46.7362 36.3546 25.6544 3 0.00208926 -4.12065
13383 1 49.209 36.3546 25.6544 3 0.00208926 -4.12065
13384 1 48.466 36.3546 23.3043 3 0.00208926 -4.12065
13385 1 50.9388 36.3546 23.3043 3 0.00208926 -4.12065
13386 1 50.1803 36.3588 20.9644 3 0.00336124 -4.12315
13387 1 52.6531 36.3588 20.9644 3 0.00336124 -4.12315
13388 1 51.883 36.3823 18.6222 3 0.00177737 -4.11866
13389 1 54.3558 36.3823 18.6222 3 0.00177737 -4.11866
13390 1 53.5526 36.3945 16.2875 3 0.00114061 -4.1196
13391 1 56.0254 36.3945 16.2875 3 0.00114061 -4.1196
13392 1 55.1984 36.3992 13.9581 3 0.000598223 -4.12049
13393 1 57.6712 36.3992 13.9581 3 0.000598223 -4.12049
13394 1 56.83 36.4004 11.631 3 0.00033351 -4.12101
13395 1 59.3027 36.4004 11.631 3 0.00033351 -4.12101
13396 1 58.4531 36.4003 9.30478 3 0.000206702 -4.12131
13397 1 60.9259 36.4003 9.30478 3 0.000206702 -4.12131
13398 1 60.071 36.3997 6.97872 3 0.000142159 -4.1215
13399 1 62.5438 36.3997 6.97872 3 0.000142159 -4.1215
13400 1 61.6857 36.399 4.65258 3 0.000108355 -4.12161
13401 1 64.1585 36.399 4.65258 3 0.000108355 -4.12161
13402 1 63.2986 36.3986 2.32633 3 9.18568e-05 -4.12168
13403 1 33.5669 34.3792 47.7948 3 0.000115414 -4.12147
13404 1 36.0396 34.3792 47.7948 3 0.000115414 -4.12147
13405 1 35.1721 34.3796 45.4671 3 0.000127924 -4.12141
13406 1 37.6449 34.3796 45.4671 3 0.000127924 -4.12141
13407 1 36.7784 34.3803 43.1397 3 0.000158073 -4.12129
13408 1 39.2512 34.3803 43.1397 3 0.000158073 -4.12129
13409 1 38.3867 34.3813 40.8125 3 0.000219406 -4.12107
13410 1 40.8595 34.3813 40.8125 3 0.000219406 -4.12107
13411 1 39.9983 34.3823 38.4858 3 0.00034635 -4.12071
13412 1 42.4711 34.3823 38.4858 3 0.00034635 -4.12071
13413 1 41.6154 34.3831 36.1595 3 0.000630913 -4.12007
13414 1 44.0882 34.3831 36.1595 3 0.000630913 -4.12007
13415 1 43.2422 34.383 33.8334 3 0.00135468 -4.11886
13416 1 45.7149 34.383 33.8334 3 0.00135468 -4.11886
13417 1 44.8873 34.3799 31.5058 3 0.00346241 -4.11633
13418 1 47.36 34.3799 31.5058 3 0.00346241 -4.11633
13419 1 46.5703 34.3684 29.1724 3 0.00841238 -4.11182
13420 1 49.0431 34.3684 29.1724 3 0.00841238 -4.11182
13421 1 48.3236 34.339 26.8251 3 0.0361452 -4.12628
13422 1 50.7964 34.339 26.8251 3 0.0361452 -4.12628
13423 1 50.0739 34.3611 24.4793 3 0.0111429 -4.10153
13424 1 52.5467 34.3611 24.4793 3 0.0111429 -4.10153
13425 1 51.8241 34.339 22.1335 3 0.0361452 -4.12628
13426 1 54.2969 34.339 22.1335 3 0.0361452 -4.12628
13427 1 53.5774 34.3684 19.7862 3 0.00841238 -4.11182
13428 1 56.0502 34.3684 19.7862 3 0.00841238 -4.11182
13429 1 55.2605 34.3799 17.4528 3 0.00346242 -4.11633
13430 1 57.7333 34.3799 17.4528 3 0.00346242 -4.11633
13431 1 56.9056 34.383 15.1253 3 0.00135468 -4.11886
13432 1 59.3784 34.383 15.1253 3 0.00135468 -4.11886
13433 1 58.5323 34.3831 12.7991 3 0.000630913 -4.12007
13434 1 61.0051 34.3831 12.7991 3 0.000630913 -4.12007
13435 1 60.1494 34.3823 10.4728 3 0.00034635 -4.12071
13436 1 62.6222 34.3823 10.4728 3 0.00034635 -4.12071
13437 1 61.761 34.3813 8.14609 3 0.000219406 -4.12107
13438 1 64.2338 34.3813 8.14609 3 0.000219406 -4.12107
13439 1 63.3693 34.3803 5.81895 3 0.000158073 -4.12129
13440 1 36.8344 32.3599 46.6288 3 0.000142377 -4.12113
13441 1 39.3072 32.3599 46.6288 3 0.000142377 -4.12113
13442 1 38.4321 32.3605 44.299 3 0.000163748 -4.12102
13443 1 40.9049 32.3605 44.299 3 0.000163748 -4.12102
13444 1 40.0305 32.3615 41.9694 3 0.000209208 -4.12082
13445 1 42.5033 32.3615 41.9694 3 0.000209208 -4.12082
13446 1 41.6304 32.3628 39.64 3 0.00030275 -4.12045
13447 1 44.1032 32.3628 39.64 3 0.00030275 -4.12045
13448 1 43.2328 32.3642 37.3111 3 0.00051239 -4.11977
13449 1 45.7056 32.3642 37.3111 3 0.00051239 -4.11977
13450 1 44.8395 32.3657 34.9828 3 0.00106837 -4.11841
13451 1 47.3123 32.3657 34.9828 3 0.00106837 -4.11841
13452 1 46.4546 32.3668 32.6555 3 0.00296101 -4.11528
13453 1 48.9273 32.3668 32.6555 3 0.00296101 -4.11528
13454 1 48.0891 32.3659 30.3292 3 0.0128667 -4.10575
13455 1 50.5618 32.3659 30.3292 3 0.0128667 -4.10575
13456 1 49.7839 32.3588 28.0005 3 0.140712 -4.0469
13457 1 52.2567 32.3588 28.0005 3 0.140712 -4.0469
13458 1 51.7473 32.3521 25.6463 5 5.31346 -4.04848
13459 1 54.2201 32.3521 25.6463 5 5.31346 -4.04848
13460 1 53.346 32.3521 23.3123 5 5.31346 -4.04848
13461 1 55.8188 32.3521 23.3123 5 5.31346 -4.04848
13462 1 55.3094 32.3588 20.9581 3 0.140712 -4.0469
13463 1 57.7822 32.3588 20.9581 3 0.140712 -4.0469
13464 1 57.0043 32.3659 18.6294 3 0.0128667 -4.10575
13465 1 59.477 32.3659 18.6294 3 0.0128667 -4.10575
13466 1 58.6388 32.3668 16.3031 3 0.00296101 -4.11528
13467 1 61.1115 32.3668 16.3031 3 0.00296101 -4.11528
13468 1 60.2538 32.3657 13.9758 3 0.00106837 -4.11841
13469 1 62.7266 32.3657 13.9758 3 0.00106837 -4.11841
13470 1 61.8605 32.3642 11.6475 3 0.00051239 -4.11977
13471 1 0.0409109 32.3642 11.6475 3 0.00051239 -4.11977
13472 1 63.4629 32.3628 9.31858 3 0.00030275 -4.12045
13473 1 38.5045 30.3403 47.7924 3 0.000141586 -4.12074
13474 1 40.9773 30.3403 47.7924 3 0.000141586 -4.12074
13475 1 40.0937 30.3408 45.46 3 0.000154623 -4.12067
13476 1 42.5664 30.3408 45.46 3 0.000154623 -4.12067
13477 1 41.6828 30.3417 43.1275 3 0.00018524 -4.12051
13478 1 44.1556 30.3417 43.1275 3 0.00018524 -4.12051
13479 1 43.2719 30.343 40.7947 3 0.000246691 -4.12024
13480 1 45.7447 30.343 40.7947 3 0.000246691 -4.12024
13481 1 44.861 30.3448 38.4616 3 0.000372786 -4.11979
13482 1 47.3338 30.3448 38.4616 3 0.000372786 -4.11979
13483 1 46.4499 30.3469 36.1279 3 0.000661326 -4.11905
13484 1 48.9227 30.3469 36.1279 3 0.000661326 -4.11905
13485 1 48.0384 30.3494 33.7931 3 0.00146478 -4.1177
13486 1 50.5112 30.3494 33.7931 3 0.00146478 -4.1177
13487 1 49.6258 30.3523 31.4565 3 0.00450872 -4.11471
13488 1 52.0986 30.3523 31.4565 3 0.00450872 -4.11471
13489 1 51.2096 30.3548 29.1174 3 0.0254563 -4.10472
13490 1 53.6823 30.3548 29.1174 3 0.0254563 -4.10472
13491 1 52.7506 30.3458 26.7868 5 7.69492 -4.05571
13492 1 55.2234 30.3458 26.7868 5 7.69492 -4.05571
13493 1 53.7831 30.3079 24.4793 5 2.29704 -3.99361
13494 1 56.2558 30.3079 24.4793 5 2.29704 -3.99361
13495 1 54.8155 30.3458 22.1719 5 7.69492 -4.05571
13496 1 57.2883 30.3458 22.1719 5 7.69492 -4.05571
13497 1 56.3566 30.3548 19.8412 3 0.0254563 -4.10472
13498 1 58.8293 30.3548 19.8412 3 0.0254563 -4.10472
13499 1 57.9403 30.3523 17.5021 3 0.00450872 -4.11471
13500 1 60.413 30.3523 17.5021 3 0.00450872 -4.11471
13501 1 59.5277 30.3494 15.1655 3 0.00146478 -4.1177
13502 1 62.0005 30.3494 15.1655 3 0.00146478 -4.1177
13503 1 61.1162 30.3469 12.8307 3 0.000661326 -4.11905
13504 1 41.7639 28.3211 46.6239 3 0.000129519 -4.1202
13505 1 44.2367 28.3211 46.6239 3 0.000129519 -4.1202
13506 1 43.3448 28.3219 44.2889 3 0.000149472 -4.12007
13507 1 45.8176 28.3219 44.2889 3 0.000149472 -4.12007
13508 1 44.925 28.3233 41.9536 3 0.000191447 -4.11982
13509 1 47.3978 28.3233 41.9536 3 0.000191447 -4.11982
13510 1 46.5039 28.3251 39.6177 3 0.000275951 -4.11942
13511 1 48.9766 28.3251 39.6177 3 0.000275951 -4.11942
13512 1 48.0806 28.3274 37.2809 3 0.000456136 -4.11879
13513 1 50.5534 28.3274 37.2809 3 0.000456136 -4.11879
13514 1 49.6535 28.3302 34.943 3 0.000890241 -4.11774
13515 1 52.1263 28.3302 34.943 3 0.000890241 -4.11774
13516 1 51.2192 28.3332 32.6038 3 0.00219321 -4.11591
13517 1 53.692 28.3332 32.6038 3 0.00219321 -4.11591
13518 1 52.7688 28.3349 30.2646 3 0.00787771 -4.1127
13519 1 55.2416 28.3349 30.2646 3 0.00787771 -4.1127
13520 1 54.2721 28.3262 27.9331 3 0.04025 -4.10128
13521 1 56.7449 28.3262 27.9331 3 0.04025 -4.10128
13522 1 55.6228 28.2786 25.6293 3 0.0799124 -4.03666
13523 1 58.0956 28.2786 25.6293 3 0.0799124 -4.03666
13524 1 56.8889 28.2786 23.3294 3 0.0799124 -4.03666
13525 1 59.3617 28.2786 23.3294 3 0.0799124 -4.03666
13526 1 58.2396 28.3262 21.0255 3 0.04025 -4.10128
13527 1 60.7124 28.3262 21.0255 3 0.04025 -4.10128
13528 1 59.7429 28.3349 18.694 3 0.00787771 -4.1127
13529 1 62.2157 28.3349 18.694 3 0.00787771 -4.1127
13530 1 61.2925 28.3332 16.3548 3 0.00219322 -4.11591
13531 1 43.4425 26.3015 47.7904 3 9.91672e-05 -4.11967
13532 1 45.9153 26.3015 47.7904 3 9.91672e-05 -4.11967
13533 1 45.0162 26.3021 45.4538 3 0.000109496 -4.11957
13534 1 47.489 26.3021 45.4538 3 0.000109496 -4.11957
13535 1 46.5891 26.3032 43.117 3 0.000133537 -4.11936
13536 1 49.0619 26.3032 43.117 3 0.000133537 -4.11936
13537 1 48.1603 26.3049 40.7797 3 0.000180367 -4.11901
13538 1 50.6331 26.3049 40.7797 3 0.000180367 -4.11901
13539 1 49.7289 26.307 38.4419 3 0.000271562 -4.11847
13540 1 52.2016 26.307 38.4419 3 0.000271562 -4.11847
13541 1 51.2929 26.3093 36.1037 3 0.000464591 -4.11763
13542 1 53.7657 26.3093 36.1037 3 0.000464591 -4.11763
13543 1 52.849 26.3112 33.7656 3 0.000951108 -4.11627
13544 1 55.3218 26.3112 33.7656 3 0.000951108 -4.11627
13545 1 54.39 26.3104 31.4299 3 0.00245828 -4.11406
13546 1 56.8628 26.3104 31.4299 3 0.00245828 -4.11406
13547 1 55.899 26.3002 29.1027 3 0.00637848 -4.10946
13548 1 58.3717 26.3002 29.1027 3 0.00637848 -4.10946
13549 1 57.3436 26.2669 26.7934 3 0.00997197 -4.09174
13550 1 59.8164 26.2669 26.7934 3 0.00997197 -4.09174
13551 1 58.7286 26.2457 24.4793 3 0.0166214 -4.08223
13552 1 61.2014 26.2457 24.4793 3 0.0166214 -4.08223
13553 1 60.1136 26.2669 22.1652 3 0.00997198 -4.09174
13554 1 62.5864 26.2669 22.1652 3 0.00997198 -4.09174
13555 1 61.5583 26.3002 19.8559 3 0.00637848 -4.10946
13556 1 46.6958 24.2818 46.6212 3 7.83887e-05 -4.11909
13557 1 49.1685 24.2818 46.6212 3 7.83887e-05 -4.11909
13558 1 48.2625 24.2827 44.2836 3 9.09683e-05 -4.11894
13559 1 50.7353 24.2827 44.2836 3 9.09683e-05 -4.11894
13560 1 49.8278 24.2841 41.9459 3 0.000116215 -4.11866
13561 1 52.3005 24.2841 41.9459 3 0.000116215 -4.11866
13562 1 51.3904 24.2858 39.6081 3 0.000164011 -4.11823
13563 1 53.8632 24.2858 39.6081 3 0.000164011 -4.11823
13564 1 52.9487 24.2874 37.2705 3 0.000260539 -4.11759
13565 1 55.4215 24.2874 37.2705 3 0.000260539 -4.11759
13566 1 54.4999 24.2879 34.9338 3 0.000482604 -4.11663
13567 1 56.9727 24.2879 34.9338 3 0.000482604 -4.11663
13568 1 56.0387 24.2854 32.6002 3 0.00101185 -4.11517
13569 1 58.5115 24.2854 32.6002 3 0.00101185 -4.11517
13570 1 57.5552 24.275 30.2733 3 0.00186199 -4.11259
13571 1 60.028 24.275 30.2733 3 0.00186199 -4.11259
13572 1 59.0364 24.2507 27.9568 3 0.00236274 -4.10559
13573 1 61.5091 24.2507 27.9568 3 0.00236274 -4.10559
13574 1 60.4845 24.2286 25.64 3 0.0045529 -4.09981
13575 1 62.9572 24.2286 25.64 3 0.0045529 -4.09981
13576 1 61.9184 24.2286 23.3186 3 0.0045529 -4.09981
13577 1 48.382 22.261 47.7898 3 5.81635e-05 -4.11867
13578 1 50.8548 22.261 47.7898 3 5.81635e-05 -4.11867
13579 1 49.9436 22.2615 45.4521 3 6.41046e-05 -4.11857
13580 1 52.4163 22.2615 45.4521 3 6.41046e-05 -4.11857
13581 1 51.5039 22.2625 43.1146 3 7.79181e-05 -4.11836
13582 1 53.9766 22.2625 43.1146 3 7.79181e-05 -4.11836
13583 1 53.0619 22.2637 40.7772 3 0.000104555 -4.11804
13584 1 55.5346 22.2637 40.7772 3 0.000104555 -4.11804
13585 1 54.6161 22.2646 38.4403 3 0.000157093 -4.11755
13586 1 57.0889 22.2646 38.4403 3 0.000157093 -4.11755
13587 1 56.1643 22.2642 36.1048 3 0.000266142 -4.11685
13588 1 58.6371 22.2642 36.1048 3 0.000266142 -4.11685
13589 1 57.7026 22.2608 33.7722 3 0.000471623 -4.11582
13590 1 60.1754 22.2608 33.7722 3 0.000471623 -4.11582
13591 1 59.2252 22.2512 31.4446 3 0.000701874 -4.11412
13592 1 61.6979 22.2512 31.4446 3 0.000701874 -4.11412
13593 1 60.7257 22.2327 29.1232 3 0.000811247 -4.11062
13594 1 63.1985 22.2327 29.1232 3 0.000811247 -4.11062
13595 1 62.2059 22.2131 26.8028 3 0.00142287 -4.10738
13596 1 51.6308 20.2396 46.6214 3 4.80558e-05 -4.11824
13597 1 54.1035 20.2396 46.6214 3 4.80558e-05 -4.11824
13598 1 53.1868 20.2402 44.2843 3 5.54392e-05 -4.1181
13599 1 55.6596 20.2402 44.2843 3 5.54392e-05 -4.1181
13600 1 54.741 20.2409 41.9475 3 7.05626e-05 -4.11786
13601 1 57.2137 20.2409 41.9475 3 7.05626e-05 -4.11786
13602 1 56.292 20.2412 39.6115 3 9.97795e-05 -4.11749
13603 1 58.7648 20.2412 39.6115 3 9.97795e-05 -4.11749
13604 1 57.838 20.2403 37.2769 3 0.000154051 -4.11696
13605 1 60.3108 20.2403 37.2769 3 0.000154051 -4.11696
13606 1 59.3763 20.2367 34.9447 3 0.000237837 -4.1162
13607 1 61.8491 20.2367 34.9447 3 0.000237837 -4.1162
13608 1 60.9032 20.2283 32.6161 3 0.000309047 -4.11501
13609 1 63.376 20.2283 32.6161 3 0.000309047 -4.11501
13610 1 62.4154 20.2138 30.2916 3 0.000342001 -4.11299
13611 1 53.323 18.2167 47.7904 3 3.80993e-05 -4.11796
13612 1 55.7958 18.2167 47.7904 3 3.80993e-05 -4.11796
13613 1 54.8752 18.2169 45.454 3 4.16723e-05 -4.11787
13614 1 57.348 18.2169 45.454 3 4.16723e-05 -4.11787
13615 1 56.4261 18.2172 43.1181 3 4.99255e-05 -4.1177
13616 1 58.8988 18.2172 43.1181 3 4.99255e-05 -4.1177
13617 1 57.9744 18.2172 40.7829 3 6.57171e-05 -4.11742
13618 1 60.4472 18.2172 40.7829 3 6.57171e-05 -4.11742
13619 1 59.5187 18.216 38.4489 3 9.22624e-05 -4.11701
13620 1 61.9914 18.216 38.4489 3 9.22624e-05 -4.11701
13621 1 61.0569 18.2126 36.1169 3 0.000127291 -4.11643
13622 1 63.5297 18.2126 36.1169 3 0.000127291 -4.11643
13623 1 62.5868 18.2056 33.7876 3 0.000151781 -4.11557
13624 1 56.5682 16.1927 46.6232 3 3.25865e-05 -4.11766
13625 1 59.041 16.1927 46.6232 3 3.25865e-05 -4.11766
13626 1 58.116 16.1928 44.2882 3 3.6577e-05 -4.11754
13627 1 60.5888 16.1928 44.2882 3 3.6577e-05 -4.11754
13628 1 59.6619 16.1925 41.9537 3 4.43745e-05 -4.11733
13629 1 62.1347 16.1925 41.9537 3 4.43745e-05 -4.11733
13630 1 61.2046 16.1913 39.6204 3 5.67156e-05 -4.11702
13631 1 63.6774 16.1913 39.6204 3 5.67156e-05 -4.11702
13632 1 62.7427 16.1884 37.2886 3 7.14129e-05 -4.11657
13633 1 58.2649 14.1675 47.7915 3 2.60015e-05 -4.11745
13634 1 60.7377 14.1675 47.7915 3 2.60015e-05 -4.11745
13635 1 59.8099 14.1674 45.4574 3 2.74318e-05 -4.11738
13636 1 62.2827 14.1674 45.4574 3 2.74318e-05 -4.11738
13637 1 61.3536 14.167 43.1237 3 3.05819e-05 -4.11723
13638 1 63.8264 14.167 43.1237 3 3.05819e-05 -4.11723
13639 1 62.8949 14.166 40.7909 3 3.56114e-05 -4.11699
13640 1 61.5073 12.1411 46.6254 3 2.08718e-05 -4.11721
13641 1 63.9801 12.1411 46.6254 3 2.08718e-05 -4.11721
13642 1 63.0488 12.1407 44.2926 3 2.14783e-05 -4.11711
13643 1 63.2076 10.1138 47.7925 3 1.59529e-05 -4.11702
13644 1 3.91416 62.5896 47.7929 5 6.11303 -3.54477
13645 1 6.38694 62.5896 47.7929 5 6.11303 -3.54477
13646 1 5.5606 62.5896 45.4616 5 6.11233 -3.54476
13647 1 8.03339 62.5896 45.4616 5 6.11233 -3.54476
13648 1 7.20732 62.5896 43.1302 5 6.11184 -3.54474
13649 1 9.6801 62.5896 43.1302 5 6.11184 -3.54474
13650 1 8.85446 62.5896 40.7989 5 12.2235 -3.54471
13651 1 11.3272 62.5896 40.7989 5 12.2235 -3.54471
13652 1 10.5021 62.5896 38.4675 5 12.2231 -3.54468
13653 1 12.9749 62.5896 38.4675 5 12.2231 -3.54468
13654 1 12.1505 62.5896 36.1361 5 12.2233 -3.54464
13655 1 14.6232 62.5896 36.1361 5 12.2233 -3.54464
13656 1 13.7994 62.5896 33.8048 5 12.2239 -3.54461
13657 1 16.2722 62.5896 33.8048 5 12.2239 -3.54461
13658 1 15.449 62.5896 31.4734 5 12.2265 -3.54458
13659 1 17.9218 62.5896 31.4734 5 12.2265 -3.54458
13660 1 17.0992 62.5896 29.142 5 12.2286 -3.54455
13661 1 19.572 62.5896 29.142 5 12.2286 -3.54455
13662 1 18.7497 62.5896 26.8107 5 12.2309 -3.54454
13663 1 21.2225 62.5896 26.8107 5 12.2309 -3.54454
13664 1 20.4005 62.5896 24.4793 5 12.2318 -3.54453
13665 1 22.8733 62.5896 24.4793 5 12.2318 -3.54453
13666 1 22.0512 62.5896 22.1479 5 12.2309 -3.54454
13667 1 24.524 62.5896 22.1479 5 12.2309 -3.54454
13668 1 23.7018 62.5896 19.8166 5 12.2286 -3.54455
13669 1 26.1745 62.5896 19.8166 5 12.2286 -3.54455
13670 1 25.3519 62.5896 17.4852 5 12.2265 -3.54458
13671 1 27.8247 62.5896 17.4852 5 12.2265 -3.54458
13672 1 27.0015 62.5896 15.1539 5 12.2239 -3.54461
13673 1 29.4743 62.5896 15.1539 5 12.2239 -3.54461
13674 1 28.6505 62.5896 12.8225 5 12.2233 -3.54464
13675 1 31.1233 62.5896 12.8225 5 12.2233 -3.54464
13676 1 30.2988 62.5896 10.4911 5 12.2231 -3.54468
13677 1 32.7716 62.5896 10.4911 5 12.2231 -3.54468
13678 1 31.9465 62.5896 8.15977 5 12.2235 -3.54471
13679 1 34.4193 62.5896 8.15977 5 12.2235 -3.54471
13680 1 33.5936 62.5896 5.82841 5 6.11184 -3.54474
13681 1 36.0664 62.5896 5.82841 5 6.11184 -3.54474
13682 1 35.2403 62.5896 3.49704 5 6.11233 -3.54476
13683 1 37.7131 62.5896 3.49704 5 6.11233 -3.54476
13684 1 36.8868 62.5896 1.16568 5 6.11303 -3.54477
13685 1 39.3596 62.5896 1.16568 5 6.11303 -3.54477
13686 1 7.20952 60.5706 46.6273 3 1.02055e-06 -4.10666
13687 1 9.68231 60.5706 46.6273 3 1.02054e-06 -4.10666
13688 1 8.85551 60.5706 44.2959 3 1.02814e-06 -4.10664
13689 1 11.3283 60.5706 44.2959 3 1.02816e-06 -4.10664
13690 1 10.5019 60.5706 41.9645 3 1.04077e-06 -4.10661
13691 1 12.9747 60.5706 41.9645 3 1.04076e-06 -4.10661
13692 1 12.149 60.5706 39.6332 3 1.05863e-06 -4.10657
13693 1 14.6218 60.5706 39.6332 3 1.05862e-06 -4.10657
13694 1 13.7968 60.5706 37.3018 3 1.08242e-06 -4.10651
13695 1 16.2696 60.5706 37.3018 3 1.08243e-06 -4.10651
13696 1 15.4455 60.5706 34.9704 3 1.11277e-06 -4.10645
13697 1 17.9183 60.5706 34.9704 3 1.11274e-06 -4.10645
13698 1 17.095 60.5706 32.6391 3 1.14889e-06 -4.10639
13699 1 19.5678 60.5706 32.6391 3 1.14889e-06 -4.10639
13700 1 18.7453 60.5706 30.3077 3 1.18713e-06 -4.10633
13701 1 21.2181 60.5706 30.3077 3 1.18713e-06 -4.10633
13702 1 20.3962 60.5706 27.9764 3 1.22041e-06 -4.1063
13703 1 22.869 60.5706 27.9764 3 1.2204e-06 -4.1063
13704 1 22.0475 60.5706 25.645 3 1.24004e-06 -4.10627
13705 1 24.5203 60.5706 25.645 3 1.24005e-06 -4.10627
13706 1 23.699 60.5706 23.3136 3 1.24004e-06 -4.10627
13707 1 26.1718 60.5706 23.3136 3 1.24004e-06 -4.10627
13708 1 25.3503 60.5706 20.9823 3 1.22041e-06 -4.1063
13709 1 27.8231 60.5706 20.9823 3 1.22039e-06 -4.1063
13710 1 27.0012 60.5706 18.6509 3 1.18712e-06 -4.10633
13711 1 29.474 60.5706 18.6509 3 1.18714e-06 -4.10633
13712 1 28.6515 60.5706 16.3195 3 1.14887e-06 -4.10639
13713 1 31.1243 60.5706 16.3195 3 1.14887e-06 -4.10639
13714 1 30.301 60.5706 13.9882 3 1.11275e-06 -4.10645
13715 1 32.7738 60.5706 13.9882 3 1.11277e-06 -4.10645
13716 1 31.9497 60.5706 11.6568 3 1.08244e-06 -4.10651
13717 1 34.4225 60.5706 11.6568 3 1.08242e-06 -4.10651
13718 1 33.5975 60.5706 9.32545 3 1.05864e-06 -4.10657
13719 1 36.0703 60.5706 9.32545 3 1.05864e-06 -4.10657
13720 1 35.2446 60.5706 6.99409 3 1.04076e-06 -4.10661
13721 1 37.7173 60.5706 6.99409 3 1.04077e-06 -4.10661
13722 1 36.891 60.5706 4.66273 3 1.02815e-06 -4.10664
13723 1 39.3638 60.5706 4.66273 3 1.02815e-06 -4.10664
13724 1 38.537 60.5706 2.33136 3 1.02054e-06 -4.10666
13725 1 41.0098 60.5706 2.33136 3 1.02054e-06 -4.10666
13726 1 40.1827 60.5706 0 3 1.01801e-06 -4.10667
13727 1 42.6555 60.5706 0 3 1.01799e-06 -4.10667
13728 1 8.85901 58.5516 47.7929 3 0.000133584 -4.1223
13729 1 11.3318 58.5516 47.7929 3 0.000133584 -4.1223
13730 1 10.5041 58.5516 45.4616 3 0.000125533 -4.12231
13731 1 12.9769 58.5516 45.4616 3 0.000125533 -4.12231
13732 1 12.1496 58.5516 43.1302 3 0.000110457 -4.12234
13733 1 14.6224 58.5516 43.1302 3 0.000110457 -4.12234
13734 1 13.7958 58.5516 40.7989 3 9.07158e-05 -4.12237
13735 1 16.2686 58.5516 40.7989 3 9.07159e-05 -4.12237
13736 1 15.4429 58.5516 38.4675 3 6.97658e-05 -4.1224
13737 1 17.9157 58.5516 38.4675 3 6.97659e-05 -4.1224
13738 1 17.091 58.5516 36.1361 3 5.08316e-05 -4.12243
13739 1 19.5638 58.5516 36.1361 3 5.08317e-05 -4.12243
13740 1 18.7402 58.5516 33.8048 3 3.52553e-05 -4.12244
13741 1 21.213 58.5516 33.8048 3 3.52552e-05 -4.12244
13742 1 20.3906 58.5516 31.4734 3 2.24526e-05 -4.12244
13743 1 22.8633 58.5516 31.4734 3 2.24525e-05 -4.12244
13744 1 22.0418 58.5516 29.142 3 1.17353e-05 -4.12244
13745 1 24.5146 58.5516 29.142 3 1.17352e-05 -4.12244
13746 1 23.6937 58.5516 26.8107 3 3.91931e-06 -4.12243
13747 1 26.1665 58.5516 26.8107 3 3.91934e-06 -4.12243
13748 1 25.346 58.5516 24.4793 3 9.47301e-07 -4.12242
13749 1 27.8188 58.5516 24.4793 3 9.47301e-07 -4.12242
13750 1 26.9983 58.5516 22.1479 3 3.91911e-06 -4.12243
13751 1 29.4711 58.5516 22.1479 3 3.91906e-06 -4.12243
13752 1 28.6503 58.5516 19.8166 3 1.17349e-05 -4.12244
13753 1 31.1231 58.5516 19.8166 3 1.1735e-05 -4.12244
13754 1 30.3015 58.5516 17.4852 3 2.24521e-05 -4.12244
13755 1 32.7743 58.5516 17.4852 3 2.24522e-05 -4.12244
13756 1 31.9518 58.5516 15.1539 3 3.52549e-05 -4.12244
13757 1 34.4246 58.5516 15.1539 3 3.52548e-05 -4.12244
13758 1 33.6011 58.5516 12.8225 3 5.08313e-05 -4.12243
13759 1 36.0739 58.5516 12.8225 3 5.08313e-05 -4.12243
13760 1 35.2492 58.5516 10.4911 3 6.97657e-05 -4.1224
13761 1 37.722 58.5516 10.4911 3 6.97656e-05 -4.1224
13762 1 36.8963 58.5516 8.15977 3 9.07158e-05 -4.12237
13763 1 39.3691 58.5516 8.15977 3 9.07158e-05 -4.12237
13764 1 38.5425 58.5516 5.82841 3 0.000110457 -4.12234
13765 1 41.0153 58.5516 5.82841 3 0.000110457 -4.12234
13766 1 40.188 58.5516 3.49704 3 0.000125533 -4.12231
13767 1 42.6608 58.5516 3.49704 3 0.000125533 -4.12231
13768 1 41.8331 58.5516 1.16568 3 0.000133584 -4.1223
13769 1 44.3058 58.5516 1.16568 3 0.000133584 -4.1223
13770 1 12.1536 56.5406 46.627 3 2.19144e-06 -4.12177
13771 1 14.6263 56.5406 46.627 3 2.19143e-06 -4.12177
13772 1 13.7982 56.5402 44.2953 3 3.49758e-06 -4.12182
13773 1 16.271 56.5402 44.2953 3 3.49757e-06 -4.12182
13774 1 15.4437 56.5395 41.9635 3 5.88395e-06 -4.1219
13775 1 17.9165 56.5395 41.9635 3 5.88395e-06 -4.1219
13776 1 17.0902 56.5386 39.6317 3 9.06614e-06 -4.122
13777 1 19.563 56.5386 39.6317 3 9.06613e-06 -4.122
13778 1 18.7381 56.5374 37.3 3 1.18619e-05 -4.12212
13779 1 21.2108 56.5374 37.3 3 1.18619e-05 -4.12212
13780 1 20.3871 56.5361 34.9684 3 1.2762e-05 -4.12223
13781 1 22.8599 56.5361 34.9684 3 1.2762e-05 -4.12223
13782 1 22.0374 56.5348 32.637 3 1.11233e-05 -4.12233
13783 1 24.5101 56.5348 32.637 3 1.11233e-05 -4.12233
13784 1 23.6885 56.5336 30.3059 3 7.59861e-06 -4.1224
13785 1 26.1613 56.5336 30.3059 3 7.59862e-06 -4.1224
13786 1 25.3404 56.5327 27.9752 3 3.91338e-06 -4.12244
13787 1 27.8132 56.5327 27.9752 3 3.91337e-06 -4.12244
13788 1 26.9926 56.5323 25.6446 3 1.63777e-06 -4.12246
13789 1 29.4654 56.5323 25.6446 3 1.63777e-06 -4.12246
13790 1 28.645 56.5323 23.3141 3 1.63777e-06 -4.12246
13791 1 31.1178 56.5323 23.3141 3 1.63778e-06 -4.12246
13792 1 30.2973 56.5327 20.9835 3 3.91337e-06 -4.12244
13793 1 32.7701 56.5327 20.9835 3 3.91338e-06 -4.12244
13794 1 31.9491 56.5336 18.6527 3 7.59861e-06 -4.1224
13795 1 34.4219 56.5336 18.6527 3 7.5986e-06 -4.1224
13796 1 33.6003 56.5348 16.3216 3 1.11233e-05 -4.12233
13797 1 36.0731 56.5348 16.3216 3 1.11233e-05 -4.12233
13798 1 35.2505 56.5361 13.9902 3 1.27621e-05 -4.12223
13799 1 37.7233 56.5361 13.9902 3 1.27621e-05 -4.12223
13800 1 36.8996 56.5374 11.6586 3 1.18619e-05 -4.12212
13801 1 39.3724 56.5374 11.6586 3 1.18619e-05 -4.12212
13802 1 38.5474 56.5386 9.32688 3 9.06615e-06 -4.122
13803 1 41.0202 56.5386 9.32688 3 9.06614e-06 -4.122
13804 1 40.194 56.5395 6.99509 3 5.88396e-06 -4.1219
13805 1 42.6667 56.5395 6.99509 3 5.88395e-06 -4.1219
13806 1 41.8394 56.5402 4.66334 3 3.49758e-06 -4.12182
13807 1 44.3122 56.5402 4.66334 3 3.49759e-06 -4.12182
13808 1 43.4841 56.5406 2.33165 3 2.19143e-06 -4.12177
13809 1 45.9569 56.5406 2.33165 3 2.19143e-06 -4.12177
13810 1 45.1283 56.5407 48.9586 3 1.81017e-06 -4.12175
13811 1 47.6011 56.5407 48.9586 3 1.81015e-06 -4.12175
13812 1 13.8037 54.5298 47.7928 3 3.89996e-06 -4.12217
13813 1 16.2765 54.5298 47.7928 3 3.89996e-06 -4.12217
13814 1 15.4471 54.5293 45.4612 3 4.47753e-06 -4.12218
13815 1 17.9198 54.5293 45.4612 3 4.47753e-06 -4.12218
13816 1 17.0913 54.5283 43.1295 3 5.81593e-06 -4.12221
13817 1 19.564 54.5283 43.1295 3 5.81593e-06 -4.12221
13818 1 18.7368 54.5268 40.7976 3 8.05885e-06 -4.12226
13819 1 21.2095 54.5268 40.7976 3 8.05886e-06 -4.12226
13820 1 20.3838 54.5247 38.4656 3 1.0958e-05 -4.12232
13821 1 22.8566 54.5247 38.4656 3 1.0958e-05 -4.12232
13822 1 22.0325 54.5221 36.1337 3 1.34554e-05 -4.12238
13823 1 24.5052 54.5221 36.1337 3 1.34554e-05 -4.12238
13824 1 23.6826 54.5193 33.802 3 1.40704e-05 -4.12243
13825 1 26.1554 54.5193 33.802 3 1.40704e-05 -4.12243
13826 1 25.3339 54.5166 31.4707 3 1.19593e-05 -4.12246
13827 1 27.8067 54.5166 31.4707 3 1.19593e-05 -4.12246
13828 1 26.9861 54.5144 29.1399 3 7.87667e-06 -4.12248
13829 1 29.4589 54.5144 29.1399 3 7.87667e-06 -4.12248
13830 1 28.6387 54.5129 26.8095 3 3.97123e-06 -4.12249
13831 1 31.1115 54.5129 26.8095 3 3.97123e-06 -4.12249
13832 1 30.2916 54.5124 24.4793 3 2.41598e-06 -4.12249
13833 1 32.7644 54.5124 24.4793 3 2.41598e-06 -4.12249
13834 1 31.9445 54.5129 22.1492 3 3.97123e-06 -4.12249
13835 1 34.4173 54.5129 22.1492 3 3.97123e-06 -4.12249
13836 1 33.5971 54.5144 19.8188 3 7.87666e-06 -4.12248
13837 1 36.0699 54.5144 19.8188 3 7.87666e-06 -4.12248
13838 1 35.2493 54.5166 17.4879 3 1.19593e-05 -4.12246
13839 1 37.7221 54.5166 17.4879 3 1.19593e-05 -4.12246
13840 1 36.9006 54.5193 15.1566 3 1.40704e-05 -4.12243
13841 1 39.3734 54.5193 15.1566 3 1.40704e-05 -4.12243
13842 1 38.5507 54.5221 12.8249 3 1.34554e-05 -4.12238
13843 1 41.0235 54.5221 12.8249 3 1.34554e-05 -4.12238
13844 1 40.1994 54.5247 10.493 3 1.0958e-05 -4.12232
13845 1 42.6722 54.5247 10.493 3 1.09581e-05 -4.12232
13846 1 41.8465 54.5268 8.16101 3 8.05887e-06 -4.12226
13847 1 44.3192 54.5268 8.16101 3 8.05887e-06 -4.12226
13848 1 43.4919 54.5283 5.82911 3 5.81593e-06 -4.12221
13849 1 45.9647 54.5283 5.82911 3 5.81593e-06 -4.12221
13850 1 45.1362 54.5293 3.49738 3 4.47753e-06 -4.12218
13851 1 47.6089 54.5293 3.49738 3 4.47753e-06 -4.12218
13852 1 46.7795 54.5298 1.16578 3 3.89996e-06 -4.12217
13853 1 49.2523 54.5298 1.16578 3 3.89996e-06 -4.12217
13854 1 17.0966 52.5183 46.6275 3 7.52735e-06 -4.12216
13855 1 19.5694 52.5183 46.6275 3 7.52735e-06 -4.12216
13856 1 18.7391 52.5174 44.2961 3 8.29609e-06 -4.12218
13857 1 21.2118 52.5174 44.2961 3 8.29609e-06 -4.12218
13858 1 20.3828 52.5157 41.9645 3 9.67675e-06 -4.12221
13859 1 22.8556 52.5157 41.9645 3 9.67675e-06 -4.12221
13860 1 22.0284 52.5132 39.6326 3 1.15574e-05 -4.12226
13861 1 24.5012 52.5132 39.6326 3 1.15574e-05 -4.12226
13862 1 23.6761 52.5098 37.3005 3 1.40121e-05 -4.12233
13863 1 26.1489 52.5098 37.3005 3 1.40121e-05 -4.12233
13864 1 25.3259 52.5057 34.9684 3 1.63502e-05 -4.12239
13865 1 27.7986 52.5057 34.9684 3 1.63502e-05 -4.12239
13866 1 26.9773 52.5014 32.6366 3 1.70391e-05 -4.12245
13867 1 29.4501 52.5014 32.6366 3 1.70391e-05 -4.12245
13868 1 28.6301 52.4973 30.3053 3 1.49964e-05 -4.12248
13869 1 31.1028 52.4973 30.3053 3 1.49964e-05 -4.12248
13870 1 30.2835 52.4943 27.9746 3 1.09793e-05 -4.12249
13871 1 32.7563 52.4943 27.9746 3 1.09793e-05 -4.12249
13872 1 31.9374 52.4926 25.6444 3 7.73925e-06 -4.12249
13873 1 34.4102 52.4926 25.6444 3 7.73925e-06 -4.12249
13874 1 33.5914 52.4926 23.3143 3 7.73924e-06 -4.12249
13875 1 36.0642 52.4926 23.3143 3 7.73924e-06 -4.12249
13876 1 35.2452 52.4943 20.984 3 1.09792e-05 -4.12249
13877 1 37.718 52.4943 20.984 3 1.09792e-05 -4.12249
13878 1 36.8987 52.4973 18.6533 3 1.49964e-05 -4.12248
13879 1 39.3715 52.4973 18.6533 3 1.49964e-05 -4.12248
13880 1 38.5514 52.5014 16.322 3 1.70391e-05 -4.12245
13881 1 41.0242 52.5014 16.322 3 1.70391e-05 -4.12245
13882 1 40.2029 52.5057 13.9902 3 1.63502e-05 -4.12239
13883 1 42.6757 52.5057 13.9902 3 1.63502e-05 -4.12239
13884 1 41.8527 52.5098 11.6581 3 1.40121e-05 -4.12233
13885 1 44.3255 52.5098 11.6581 3 1.40121e-05 -4.12233
13886 1 43.5004 52.5132 9.32602 3 1.15574e-05 -4.12226
13887 1 45.9731 52.5132 9.32602 3 1.15574e-05 -4.12226
13888 1 45.146 52.5157 6.99411 3 9.67676e-06 -4.12221
13889 1 47.6187 52.5157 6.99411 3 9.67676e-06 -4.12221
13890 1 46.7897 52.5174 4.66251 3 8.29609e-06 -4.12218
13891 1 49.2625 52.5174 4.66251 3 8.29609e-06 -4.12218
13892 1 48.4321 52.5183 2.33117 3 7.52735e-06 -4.12216
13893 1 50.9049 52.5183 2.33117 3 7.52735e-06 -4.12216
13894 1 50.0739 52.5186 48.9586 3 7.22159e-06 -4.12216
13895 1 52.5467 52.5186 48.9586 3 7.22159e-06 -4.12216
13896 1 18.7476 50.5068 47.7934 3 1.18952e-05 -4.12215
13897 1 21.2204 50.5068 47.7934 3 1.18952e-05 -4.12215
13898 1 20.3877 50.5062 45.4628 3 1.26248e-05 -4.12216
13899 1 22.8605 50.5062 45.4628 3 1.26248e-05 -4.12216
13900 1 22.0291 50.5048 43.1318 3 1.38767e-05 -4.12217
13901 1 24.5019 50.5048 43.1318 3 1.38767e-05 -4.12217
13902 1 23.6725 50.5023 40.8005 3 1.53589e-05 -4.1222
13903 1 26.1452 50.5023 40.8005 3 1.53589e-05 -4.1222
13904 1 25.3183 50.4987 38.4686 3 1.67305e-05 -4.12225
13905 1 27.7911 50.4987 38.4686 3 1.67305e-05 -4.12225
13906 1 26.9669 50.4938 36.1363 3 1.86664e-05 -4.12233
13907 1 29.4397 50.4938 36.1363 3 1.86664e-05 -4.12233
13908 1 28.6181 50.488 33.804 3 2.12611e-05 -4.12241
13909 1 31.0909 50.488 33.804 3 2.12611e-05 -4.12241
13910 1 30.2714 50.4822 31.472 3 2.30165e-05 -4.12246
13911 1 32.7442 50.4822 31.472 3 2.30165e-05 -4.12246
13912 1 31.9261 50.477 29.1406 3 2.21126e-05 -4.12249
13913 1 34.3988 50.477 29.1406 3 2.21126e-05 -4.12249
13914 1 33.5815 50.4735 26.8098 3 1.91502e-05 -4.1225
13915 1 36.0542 50.4735 26.8098 3 1.91502e-05 -4.1225
13916 1 35.2372 50.4723 24.4793 3 1.74186e-05 -4.1225
13917 1 37.71 50.4723 24.4793 3 1.74186e-05 -4.1225
13918 1 36.8929 50.4735 22.1489 3 1.91502e-05 -4.1225
13919 1 39.3657 50.4735 22.1489 3 1.91502e-05 -4.1225
13920 1 38.5483 50.477 19.818 3 2.21126e-05 -4.12249
13921 1 41.0211 50.477 19.818 3 2.21126e-05 -4.12249
13922 1 40.2029 50.4822 17.4866 3 2.30165e-05 -4.12246
13923 1 42.6757 50.4822 17.4866 3 2.30165e-05 -4.12246
13924 1 41.8562 50.488 15.1546 3 2.12611e-05 -4.12241
13925 1 44.329 50.488 15.1546 3 2.12611e-05 -4.12241
13926 1 43.5074 50.4938 12.8223 3 1.86664e-05 -4.12233
13927 1 45.9802 50.4938 12.8223 3 1.86664e-05 -4.12233
13928 1 45.156 50.4987 10.4901 3 1.67305e-05 -4.12225
13929 1 47.6288 50.4987 10.4901 3 1.67305e-05 -4.12225
13930 1 46.8019 50.5023 8.15817 3 1.53589e-05 -4.1222
13931 1 49.2747 50.5023 8.15817 3 1.53589e-05 -4.1222
13932 1 48.4452 50.5048 5.82678 3 1.38767e-05 -4.12217
13933 1 50.918 50.5048 5.82678 3 1.38767e-05 -4.12217
13934 1 50.0866 50.5062 3.49585 3 1.26248e-05 -4.12216
13935 1 52.5594 50.5062 3.49585 3 1.26248e-05 -4.12216
13936 1 51.7268 50.5068 1.16525 3 1.18952e-05 -4.12215
13937 1 54.1996 50.5068 1.16525 3 1.18952e-05 -4.12215
13938 1 22.038 48.4942 46.629 3 1.78386e-05 -4.12214
13939 1 24.5108 48.4942 46.629 3 1.78386e-05 -4.12214
13940 1 23.6765 48.4932 44.299 3 1.96273e-05 -4.12214
13941 1 26.1493 48.4932 44.299 3 1.96273e-05 -4.12214
13942 1 25.3168 48.4913 41.9686 3 2.20453e-05 -4.12215
13943 1 27.7896 48.4913 41.9686 3 2.20453e-05 -4.12215
13944 1 26.9598 48.4881 39.6374 3 2.41335e-05 -4.12217
13945 1 29.4326 48.4881 39.6374 3 2.41335e-05 -4.12217
13946 1 28.6061 48.4832 37.3054 3 2.49439e-05 -4.12223
13947 1 31.0789 48.4832 37.3054 3 2.49439e-05 -4.12223
13948 1 30.2561 48.4767 34.9729 3 2.64238e-05 -4.12233
13949 1 32.7289 48.4767 34.9729 3 2.64238e-05 -4.12233
13950 1 31.9094 48.4693 32.6402 3 3.04308e-05 -4.12241
13951 1 34.3822 48.4693 32.6402 3 3.04308e-05 -4.12241
13952 1 33.5652 48.4619 30.3078 3 3.52972e-05 -4.12247
13953 1 36.038 48.4619 30.3078 3 3.52972e-05 -4.12247
13954 1 35.2226 48.456 27.976 3 3.74501e-05 -4.1225
13955 1 37.6954 48.456 27.976 3 3.74501e-05 -4.1225
13956 1 36.8808 48.4526 25.6448 3 3.66337e-05 -4.12251
13957 1 39.3535 48.4526 25.6448 3 3.66337e-05 -4.12251
13958 1 38.5392 48.4526 23.3138 3 3.66337e-05 -4.12251
13959 1 41.0119 48.4526 23.3138 3 3.66337e-05 -4.12251
13960 1 40.1973 48.456 20.9826 3 3.745e-05 -4.1225
13961 1 42.6701 48.456 20.9826 3 3.745e-05 -4.1225
13962 1 41.8547 48.4619 18.6508 3 3.52972e-05 -4.12247
13963 1 44.3275 48.4619 18.6508 3 3.52972e-05 -4.12247
13964 1 43.5105 48.4693 16.3184 3 3.04307e-05 -4.12241
13965 1 45.9833 48.4693 16.3184 3 3.04307e-05 -4.12241
13966 1 45.1638 48.4767 13.9857 3 2.64237e-05 -4.12233
13967 1 47.6365 48.4767 13.9857 3 2.64237e-05 -4.12233
13968 1 46.8138 48.4832 11.6532 3 2.49439e-05 -4.12223
13969 1 49.2866 48.4832 11.6532 3 2.49439e-05 -4.12223
13970 1 48.4601 48.4881 9.32123 3 2.41335e-05 -4.12217
13971 1 50.9329 48.4881 9.32123 3 2.41335e-05 -4.12217
13972 1 50.1031 48.4913 6.99006 3 2.20453e-05 -4.12215
13973 1 52.5759 48.4913 6.99006 3 2.20453e-05 -4.12215
13974 1 51.7434 48.4932 4.6596 3 1.96273e-05 -4.12214
13975 1 54.2162 48.4932 4.6596 3 1.96273e-05 -4.12214
13976 1 53.3819 48.4942 2.32967 3 1.78386e-05 -4.12214
13977 1 55.8547 48.4942 2.32967 3 1.78386e-05 -4.12214
13978 1 55.0194 48.4945 48.9586 3 1.72512e-05 -4.12214
13979 1 57.4922 48.4945 48.9586 3 1.72512e-05 -4.12214
13980 1 23.6906 46.4812 47.7943 3 2.36101e-05 -4.12212
13981 1 26.1634 46.4812 47.7943 3 2.36101e-05 -4.12212
13982 1 25.3257 46.4807 45.4655 3 2.56145e-05 -4.12212
13983 1 27.7985 46.4807 45.4655 3 2.56145e-05 -4.12212
13984 1 26.9624 46.4794 43.1363 3 2.95039e-05 -4.12211
13985 1 29.4352 46.4794 43.1363 3 2.95039e-05 -4.12211
13986 1 28.6015 46.4771 40.8063 3 3.46056e-05 -4.1221
13987 1 31.0743 46.4771 40.8063 3 3.46056e-05 -4.1221
13988 1 30.2443 46.4731 38.4753 3 3.8725e-05 -4.12212
13989 1 32.7171 46.4731 38.4753 3 3.8725e-05 -4.12212
13990 1 31.8916 46.467 36.1432 3 3.9276e-05 -4.12218
13991 1 34.3644 46.467 36.1432 3 3.9276e-05 -4.12218
13992 1 33.5437 46.4588 33.8101 3 4.07035e-05 -4.12231
13993 1 36.0165 46.4588 33.8101 3 4.07035e-05 -4.12231
13994 1 35.2 46.4495 31.4768 3 4.82067e-05 -4.1224
13995 1 37.6727 46.4495 31.4768 3 4.82067e-05 -4.1224
13996 1 36.8593 46.4409 29.1438 3 6.04472e-05 -4.12248
13997 1 39.3321 46.4409 29.1438 3 6.04472e-05 -4.12248
13998 1 38.5206 46.4347 26.8113 3 6.90738e-05 -4.12252
13999 1 40.9934 46.4347 26.8113 3 6.90738e-05 -4.12252
14000 1 40.1827 46.4324 24.4793 3 7.12415e-05 -4.12253
14001 1 42.6555 46.4324 24.4793 3 7.12415e-05 -4.12253
14002 1 41.8448 46.4347 22.1473 3 6.90738e-05 -4.12252
14003 1 44.3176 46.4347 22.1473 3 6.90738e-05 -4.12252
14004 1 43.5061 46.4409 19.8148 3 6.04472e-05 -4.12248
14005 1 45.9789 46.4409 19.8148 3 6.04472e-05 -4.12248
14006 1 45.1655 46.4495 17.4818 3 4.82066e-05 -4.1224
14007 1 47.6383 46.4495 17.4818 3 4.82066e-05 -4.1224
14008 1 46.8218 46.4588 15.1485 3 4.07035e-05 -4.12231
14009 1 49.2946 46.4588 15.1485 3 4.07035e-05 -4.12231
14010 1 48.4739 46.467 12.8155 3 3.92759e-05 -4.12218
14011 1 50.9467 46.467 12.8155 3 3.92759e-05 -4.12218
14012 1 50.1212 46.4731 10.4833 3 3.8725e-05 -4.12212
14013 1 52.5939 46.4731 10.4833 3 3.8725e-05 -4.12212
14014 1 51.7639 46.4771 8.15231 3 3.46057e-05 -4.1221
14015 1 54.2367 46.4771 8.15231 3 3.46057e-05 -4.1221
14016 1 53.4031 46.4794 5.82233 3 2.95039e-05 -4.12211
14017 1 55.8759 46.4794 5.82233 3 2.95039e-05 -4.12211
14018 1 55.0397 46.4807 3.4931 3 2.56145e-05 -4.12212
14019 1 57.5125 46.4807 3.4931 3 2.56145e-05 -4.12212
14020 1 56.6749 46.4812 1.16432 3 2.36101e-05 -4.12212
14021 1 59.1477 46.4812 1.16432 3 2.36101e-05 -4.12212
14022 1 26.9775 44.4667 46.631 3 3.16705e-05 -4.12209
14023 1 29.4503 44.4667 46.631 3 3.16705e-05 -4.12209
14024 1 28.6101 44.4662 44.3031 3 3.62616e-05 -4.12207
14025 1 31.0829 44.4662 44.3031 3 3.62616e-05 -4.12207
14026 1 30.2447 44.4648 41.9745 3 4.42897e-05 -4.12205
14027 1 32.7175 44.4648 41.9745 3 4.42897e-05 -4.12205
14028 1 31.8828 44.4622 39.645 3 5.52161e-05 -4.12202
14029 1 34.3556 44.4622 39.645 3 5.52161e-05 -4.12202
14030 1 33.5256 44.4575 37.3141 3 6.50011e-05 -4.12201
14031 1 35.9983 44.4575 37.3141 3 6.50011e-05 -4.12201
14032 1 35.1744 44.4501 34.9816 3 6.6379e-05 -4.12208
14033 1 37.6471 44.4501 34.9816 3 6.6379e-05 -4.12208
14034 1 36.8296 44.44 32.6477 3 6.90114e-05 -4.12229
14035 1 39.3024 44.44 32.6477 3 6.90114e-05 -4.12229
14036 1 38.4902 44.429 30.3136 3 8.3298e-05 -4.12236
14037 1 40.963 44.429 30.3136 3 8.3298e-05 -4.12236
14038 1 40.1548 44.4195 27.9795 3 0.000113302 -4.12248
14039 1 42.6276 44.4195 27.9795 3 0.000113302 -4.12248
14040 1 41.8217 44.4138 25.646 3 0.000134837 -4.12254
14041 1 44.2945 44.4138 25.646 3 0.000134837 -4.12254
14042 1 43.4893 44.4138 23.3127 3 0.000134837 -4.12254
14043 1 45.9621 44.4138 23.3127 3 0.000134837 -4.12254
14044 1 45.1562 44.4195 20.9791 3 0.000113302 -4.12248
14045 1 47.629 44.4195 20.9791 3 0.000113302 -4.12248
14046 1 46.8208 44.429 18.6451 3 8.3298e-05 -4.12236
14047 1 49.2936 44.429 18.6451 3 8.3298e-05 -4.12236
14048 1 48.4814 44.44 16.3109 3 6.90114e-05 -4.12229
14049 1 50.9542 44.44 16.3109 3 6.90114e-05 -4.12229
14050 1 50.1367 44.4501 13.9771 3 6.6379e-05 -4.12208
14051 1 52.6095 44.4501 13.9771 3 6.6379e-05 -4.12208
14052 1 51.7855 44.4575 11.6445 3 6.50011e-05 -4.12201
14053 1 54.2583 44.4575 11.6445 3 6.50011e-05 -4.12201
14054 1 53.4283 44.4622 9.31364 3 5.52162e-05 -4.12202
14055 1 55.9011 44.4622 9.31364 3 5.52162e-05 -4.12202
14056 1 55.0663 44.4648 6.9841 3 4.42897e-05 -4.12205
14057 1 57.5391 44.4648 6.9841 3 4.42897e-05 -4.12205
14058 1 56.701 44.4662 4.65555 3 3.62616e-05 -4.12207
14059 1 59.1738 44.4662 4.65555 3 3.62616e-05 -4.12207
14060 1 58.3335 44.4667 2.32763 3 3.16705e-05 -4.12209
14061 1 60.8063 44.4667 2.32763 3 3.16705e-05 -4.12209
14062 1 59.965 44.4669 48.9586 3 3.02465e-05 -4.1221
14063 1 62.4378 44.4669 48.9586 3 3.02465e-05 -4.1221
14064 1 28.6326 42.4514 47.7953 3 3.88216e-05 -4.12204
14065 1 31.1054 42.4514 47.7953 3 3.88216e-05 -4.12204
14066 1 30.2607 42.4513 45.4685 3 4.29685e-05 -4.12203
14067 1 32.7335 42.4513 45.4685 3 4.29685e-05 -4.12203
14068 1 31.8903 42.4508 43.1414 3 5.21401e-05 -4.122
14069 1 34.3631 42.4508 43.1414 3 5.21401e-05 -4.122
14070 1 33.5228 42.4495 40.8135 3 6.79327e-05 -4.12195
14071 1 35.9956 42.4495 40.8135 3 6.79327e-05 -4.12195
14072 1 35.1597 42.4468 38.4844 3 9.11994e-05 -4.12188
14073 1 37.6325 42.4468 38.4844 3 9.11994e-05 -4.12188
14074 1 36.8028 42.4416 36.1535 3 0.000115746 -4.12183
14075 1 39.2755 42.4416 36.1535 3 0.000115746 -4.12183
14076 1 38.454 42.4328 33.8204 3 0.000121899 -4.12189
14077 1 40.9268 42.4328 33.8204 3 0.000121899 -4.12189
14078 1 40.1141 42.4205 31.4854 3 0.000131069 -4.12226
14079 1 42.5869 42.4205 31.4854 3 0.000131069 -4.12226
14080 1 41.7811 42.408 29.1501 3 0.000154237 -4.12225
14081 1 44.2539 42.408 29.1501 3 0.000154237 -4.12225
14082 1 43.4533 42.3982 26.8146 3 0.000231706 -4.12249
14083 1 45.9261 42.3982 26.8146 3 0.000231706 -4.12249
14084 1 45.1283 42.3944 24.4793 3 0.00027212 -4.12258
14085 1 47.6011 42.3944 24.4793 3 0.00027212 -4.12258
14086 1 46.8033 42.3982 22.144 3 0.000231706 -4.12249
14087 1 49.2761 42.3982 22.144 3 0.000231706 -4.12249
14088 1 48.4755 42.408 19.8085 3 0.000154237 -4.12225
14089 1 50.9483 42.408 19.8085 3 0.000154237 -4.12225
14090 1 50.1425 42.4205 17.4732 3 0.000131069 -4.12226
14091 1 52.6153 42.4205 17.4732 3 0.000131069 -4.12226
14092 1 51.8026 42.4328 15.1382 3 0.000121899 -4.12189
14093 1 54.2754 42.4328 15.1382 3 0.000121899 -4.12189
14094 1 53.4539 42.4416 12.8051 3 0.000115746 -4.12183
14095 1 55.9266 42.4416 12.8051 3 0.000115746 -4.12183
14096 1 55.0969 42.4468 10.4743 3 9.11994e-05 -4.12188
14097 1 57.5697 42.4468 10.4743 3 9.11994e-05 -4.12188
14098 1 56.7338 42.4495 8.14516 3 6.79327e-05 -4.12195
14099 1 59.2066 42.4495 8.14516 3 6.79327e-05 -4.12195
14100 1 58.3663 42.4508 5.81726 3 5.21401e-05 -4.122
14101 1 60.8391 42.4508 5.81726 3 5.21401e-05 -4.122
14102 1 59.9959 42.4513 3.4901 3 4.29685e-05 -4.12203
14103 1 62.4687 42.4513 3.4901 3 4.29685e-05 -4.12203
14104 1 61.624 42.4514 1.16333 3 3.88216e-05 -4.12204
14105 1 64.0968 42.4514 1.16333 3 3.88216e-05 -4.12204
14106 1 31.9149 40.4348 46.6326 3 5.18024e-05 -4.12196
14107 1 34.3876 40.4348 46.6326 3 5.18024e-05 -4.12196
14108 1 33.5391 40.4348 44.3065 3 6.06629e-05 -4.12193
14109 1 36.0119 40.4348 44.3065 3 6.06629e-05 -4.12193
14110 1 35.1655 40.4346 41.9799 3 7.80201e-05 -4.12187
14111 1 37.6383 40.4346 41.9799 3 7.80201e-05 -4.12187
14112 1 36.7956 40.4336 39.6526 3 0.000108536 -4.12178
14113 1 39.2683 40.4336 39.6526 3 0.000108536 -4.12178
14114 1 38.4311 40.431 37.324 3 0.000158298 -4.12165
14115 1 40.9039 40.431 37.324 3 0.000158298 -4.12165
14116 1 40.0749 40.4256 34.9932 3 0.000221815 -4.1215
14117 1 42.5477 40.4256 34.9932 3 0.000221815 -4.1215
14118 1 41.7298 40.4155 32.6594 3 0.000248953 -4.12152
14119 1 44.2026 40.4155 32.6594 3 0.000248953 -4.12152
14120 1 43.3976 40.4005 30.3228 3 0.000290858 -4.12227
14121 1 45.8704 40.4005 30.3228 3 0.000290857 -4.12227
14122 1 45.074 40.3872 27.9861 3 0.000307363 -4.122
14123 1 47.5467 40.3872 27.9861 3 0.000307363 -4.122
14124 1 46.7578 40.3784 25.6483 3 0.000523821 -4.12257
14125 1 49.2306 40.3784 25.6483 3 0.000523821 -4.12257
14126 1 48.4444 40.3784 23.3103 3 0.000523821 -4.12257
14127 1 50.9172 40.3784 23.3103 3 0.000523821 -4.12257
14128 1 50.1282 40.3872 20.9725 3 0.000307363 -4.122
14129 1 52.601 40.3872 20.9725 3 0.000307363 -4.122
14130 1 51.8046 40.4005 18.6358 3 0.000290858 -4.12227
14131 1 54.2774 40.4005 18.6358 3 0.000290858 -4.12227
14132 1 53.4723 40.4155 16.2992 3 0.000248953 -4.12152
14133 1 55.9451 40.4155 16.2992 3 0.000248953 -4.12152
14134 1 55.1273 40.4256 13.9654 3 0.000221816 -4.1215
14135 1 57.6001 40.4256 13.9654 3 0.000221816 -4.1215
14136 1 56.7711 40.431 11.6346 3 0.000158298 -4.12165
14137 1 59.2438 40.431 11.6346 3 0.000158298 -4.12165
14138 1 58.4066 40.4336 9.306 3 0.000108536 -4.12178
14139 1 60.8794 40.4336 9.306 3 0.000108536 -4.12178
14140 1 60.0367 40.4346 6.97871 3 7.80201e-05 -4.12187
14141 1 62.5094 40.4346 6.97871 3 7.80201e-05 -4.12187
14142 1 61.6631 40.4348 4.65217 3 6.06629e-05 -4.12193
14143 1 64.1359 40.4348 4.65217 3 6.06629e-05 -4.12193
14144 1 63.2873 40.4348 2.326 3 5.18024e-05 -4.12196
14145 1 33.5734 38.4171 47.7957 3 6.55492e-05 -4.12185
14146 1 36.0461 38.4171 47.7957 3 6.55492e-05 -4.12185
14147 1 35.1918 38.4173 45.4699 3 7.3238e-05 -4.12182
14148 1 37.6646 38.4173 45.4699 3 7.3238e-05 -4.12182
14149 1 36.8117 38.4176 43.144 3 9.07642e-05 -4.12177
14150 1 39.2845 38.4176 43.144 3 9.07642e-05 -4.12177
14151 1 38.4343 38.4177 40.8179 3 0.00012367 -4.12167
14152 1 40.9071 38.4177 40.8179 3 0.00012367 -4.12167
14153 1 40.0613 38.4172 38.4912 3 0.000183731 -4.12151
14154 1 42.5341 38.4172 38.4912 3 0.000183731 -4.12151
14155 1 41.6953 38.4151 36.1632 3 0.000293667 -4.12125
14156 1 44.1681 38.4151 36.1632 3 0.000293667 -4.12125
14157 1 43.3401 38.4098 33.8328 3 0.000468568 -4.12089
14158 1 45.8129 38.4098 33.8328 3 0.000468568 -4.12089
14159 1 45.0008 38.3984 31.4983 3 0.00059098 -4.12071
14160 1 47.4736 38.3984 31.4983 3 0.00059098 -4.12071
14161 1 46.681 38.3799 29.1594 3 0.000820378 -4.12241
14162 1 49.1538 38.3799 29.1594 3 0.000820378 -4.12241
14163 1 48.3719 38.3679 26.8212 3 0.000708783 -4.12138
14164 1 50.8447 38.3679 26.8212 3 0.000708783 -4.12138
14165 1 50.0739 38.3626 24.4793 3 0.00124499 -4.12296
14166 1 52.5467 38.3626 24.4793 3 0.00124499 -4.12296
14167 1 51.7759 38.3679 22.1374 3 0.000708783 -4.12138
14168 1 54.2487 38.3679 22.1374 3 0.000708783 -4.12138
14169 1 53.4667 38.3799 19.7992 3 0.000820378 -4.12241
14170 1 55.9395 38.3799 19.7992 3 0.000820378 -4.12241
14171 1 55.1469 38.3984 17.4603 3 0.00059098 -4.12071
14172 1 57.6197 38.3984 17.4603 3 0.00059098 -4.12071
14173 1 56.8076 38.4098 15.1259 3 0.000468568 -4.12089
14174 1 59.2804 38.4098 15.1259 3 0.000468568 -4.12089
14175 1 58.4524 38.4151 12.7954 3 0.000293667 -4.12125
14176 1 60.9252 38.4151 12.7954 3 0.000293667 -4.12125
14177 1 60.0864 38.4172 10.4675 3 0.000183731 -4.12151
14178 1 62.5592 38.4172 10.4675 3 0.000183731 -4.12151
14179 1 61.7135 38.4177 8.14077 3 0.00012367 -4.12167
14180 1 64.1862 38.4177 8.14077 3 0.00012367 -4.12167
14181 1 63.3361 38.4176 5.81463 3 9.07642e-05 -4.12177
14182 1 36.8492 36.3986 46.6323 3 9.18568e-05 -4.12168
14183 1 39.322 36.3986 46.6323 3 9.18568e-05 -4.12168
14184 1 38.462 36.399 44.306 3 0.000108355 -4.12161
14185 1 40.9348 36.399 44.306 3 0.000108355 -4.12161
14186 1 40.0768 36.3997 41.9799 3 0.000142159 -4.1215
14187 1 42.5495 36.3997 41.9799 3 0.000142159 -4.1215
14188 1 41.6947 36.4003 39.6538 3 0.000206701 -4.12131
14189 1 44.1675 36.4003 39.6538 3 0.000206701 -4.12131
14190 1 43.3178 36.4004 37.3276 3 0.000333509 -4.12101
14191 1 45.7906 36.4004 37.3276 3 0.000333509 -4.12101
14192 1 44.9494 36.3992 35.0006 3 0.000598223 -4.12049
14193 1 47.4221 36.3992 35.0006 3 0.000598223 -4.12049
14194 1 46.5952 36.3945 32.6711 3 0.00114061 -4.1196
14195 1 49.0679 36.3945 32.6711 3 0.00114061 -4.1196
14196 1 48.2648 36.3823 30.3364 3 0.00177736 -4.11866
14197 1 50.7376 36.3823 30.3364 3 0.00177736 -4.11866
14198 1 49.9675 36.3588 27.9942 3 0.00336124 -4.12315
14199 1 52.4403 36.3588 27.9942 3 0.00336124 -4.12315
14200 1 51.6818 36.3546 25.6544 3 0.00208926 -4.12065
14201 1 54.1546 36.3546 25.6544 3 0.00208926 -4.12065
14202 1 53.4115 36.3546 23.3043 3 0.00208926 -4.12065
14203 1 55.8843 36.3546 23.3043 3 0.00208926 -4.12065
14204 1 55.1258 36.3588 20.9644 3 0.00336124 -4.12315
14205 1 57.5986 36.3588 20.9644 3 0.00336124 -4.12315
14206 1 56.8286 36.3823 18.6222 3 0.00177737 -4.11866
14207 1 59.3013 36.3823 18.6222 3 0.00177737 -4.11866
14208 1 58.4982 36.3945 16.2875 3 0.00114061 -4.1196
14209 1 60.971 36.3945 16.2875 3 0.00114061 -4.1196
14210 1 60.144 36.3992 13.9581 3 0.000598223 -4.12049
14211 1 62.6167 36.3992 13.9581 3 0.000598223 -4.12049
14212 1 61.7755 36.4004 11.631 3 0.00033351 -4.12101
14213 1 64.2483 36.4004 11.631 3 0.00033351 -4.12101
14214 1 63.3986 36.4003 9.30478 3 0.000206702 -4.12131
14215 1 38.5124 34.3792 47.7948 3 0.000115414 -4.12147
14216 1 40.9852 34.3792 47.7948 3 0.000115414 -4.12147
14217 1 40.1177 34.3796 45.4671 3 0.000127924 -4.12141
14218 1 42.5905 34.3796 45.4671 3 0.000127924 -4.12141
14219 1 41.724 34.3803 43.1397 3 0.000158073 -4.12129
14220 1 44.1968 34.3803 43.1397 3 0.000158073 -4.12129
14221 1 43.3323 34.3813 40.8125 3 0.000219406 -4.12107
14222 1 45.8051 34.3813 40.8125 3 0.000219406 -4.12107
14223 1 44.9439 34.3823 38.4858 3 0.00034635 -4.12071
14224 1 47.4167 34.3823 38.4858 3 0.00034635 -4.12071
14225 1 46.561 34.3831 36.1595 3 0.000630913 -4.12007
14226 1 49.0338 34.3831 36.1595 3 0.000630913 -4.12007
14227 1 48.1877 34.383 33.8334 3 0.00135468 -4.11886
14228 1 50.6605 34.383 33.8334 3 0.00135468 -4.11886
14229 1 49.8328 34.3799 31.5058 3 0.00346241 -4.11633
14230 1 52.3056 34.3799 31.5058 3 0.00346241 -4.11633
14231 1 51.5159 34.3684 29.1724 3 0.00841238 -4.11182
14232 1 53.9887 34.3684 29.1724 3 0.00841238 -4.11182
14233 1 53.2692 34.339 26.8251 3 0.0361452 -4.12628
14234 1 55.742 34.339 26.8251 3 0.0361452 -4.12628
14235 1 55.0194 34.3611 24.4793 3 0.0111429 -4.10153
14236 1 57.4922 34.3611 24.4793 3 0.0111429 -4.10153
14237 1 56.7697 34.339 22.1335 3 0.0361452 -4.12628
14238 1 59.2425 34.339 22.1335 3 0.0361452 -4.12628
14239 1 58.523 34.3684 19.7862 3 0.00841238 -4.11182
14240 1 60.9958 34.3684 19.7862 3 0.00841238 -4.11182
14241 1 60.2061 34.3799 17.4528 3 0.00346242 -4.11633
14242 1 62.6788 34.3799 17.4528 3 0.00346242 -4.11633
14243 1 61.8512 34.383 15.1253 3 0.00135468 -4.11886
14244 1 0.0315572 34.383 15.1253 3 0.00135468 -4.11886
14245 1 63.4779 34.3831 12.7991 3 0.000630913 -4.12007
14246 1 41.78 32.3599 46.6288 3 0.000142377 -4.12113
14247 1 44.2528 32.3599 46.6288 3 0.000142377 -4.12113
14248 1 43.3776 32.3605 44.299 3 0.000163748 -4.12102
14249 1 45.8504 32.3605 44.299 3 0.000163748 -4.12102
14250 1 44.9761 32.3615 41.9694 3 0.000209208 -4.12082
14251 1 47.4489 32.3615 41.9694 3 0.000209208 -4.12082
14252 1 46.576 32.3628 39.64 3 0.00030275 -4.12045
14253 1 49.0488 32.3628 39.64 3 0.00030275 -4.12045
14254 1 48.1784 32.3642 37.3111 3 0.00051239 -4.11977
14255 1 50.6512 32.3642 37.3111 3 0.00051239 -4.11977
14256 1 49.7851 32.3657 34.9828 3 0.00106837 -4.11841
14257 1 52.2578 32.3657 34.9828 3 0.00106837 -4.11841
14258 1 51.4001 32.3668 32.6555 3 0.00296101 -4.11528
14259 1 53.8729 32.3668 32.6555 3 0.00296101 -4.11528
14260 1 53.0346 32.3659 30.3292 3 0.0128667 -4.10575
14261 1 55.5074 32.3659 30.3292 3 0.0128667 -4.10575
14262 1 54.7295 32.3588 28.0005 3 0.140712 -4.0469
14263 1 57.2022 32.3588 28.0005 3 0.140712 -4.0469
14264 1 56.6929 32.3521 25.6463 5 5.31346 -4.04848
14265 1 59.1657 32.3521 25.6463 5 5.31346 -4.04848
14266 1 58.2915 32.3521 23.3123 5 5.31346 -4.04848
14267 1 60.7643 32.3521 23.3123 5 5.31346 -4.04848
14268 1 60.255 32.3588 20.9581 3 0.140712 -4.0469
14269 1 62.7278 32.3588 20.9581 3 0.140712 -4.0469
14270 1 61.9498 32.3659 18.6294 3 0.0128667 -4.10575
14271 1 0.130234 32.3659 18.6294 3 0.0128667 -4.10575
14272 1 63.5843 32.3668 16.3031 3 0.00296101 -4.11528
14273 1 43.4501 30.3403 47.7924 3 0.000141586 -4.12074
14274 1 45.9229 30.3403 47.7924 3 0.000141586 -4.12074
14275 1 45.0392 30.3408 45.46 3 0.000154623 -4.12067
14276 1 47.512 30.3408 45.46 3 0.000154623 -4.12067
14277 1 46.6284 30.3417 43.1275 3 0.00018524 -4.12051
14278 1 49.1011 30.3417 43.1275 3 0.00018524 -4.12051
14279 1 48.2175 30.343 40.7947 3 0.000246691 -4.12024
14280 1 50.6903 30.343 40.7947 3 0.000246691 -4.12024
14281 1 49.8066 30.3448 38.4616 3 0.000372786 -4.11979
14282 1 52.2793 30.3448 38.4616 3 0.000372786 -4.11979
14283 1 51.3955 30.3469 36.1279 3 0.000661326 -4.11905
14284 1 53.8683 30.3469 36.1279 3 0.000661326 -4.11905
14285 1 52.9839 30.3494 33.7931 3 0.00146478 -4.1177
14286 1 55.4567 30.3494 33.7931 3 0.00146478 -4.1177
14287 1 54.5714 30.3523 31.4565 3 0.00450872 -4.11471
14288 1 57.0442 30.3523 31.4565 3 0.00450872 -4.11471
14289 1 56.1551 30.3548 29.1174 3 0.0254563 -4.10472
14290 1 58.6279 30.3548 29.1174 3 0.0254563 -4.10472
14291 1 57.6961 30.3458 26.7868 5 7.69492 -4.05571
14292 1 60.1689 30.3458 26.7868 5 7.69492 -4.05571
14293 1 58.7286 30.3079 24.4793 5 2.29704 -3.99361
14294 1 61.2014 30.3079 24.4793 5 2.29704 -3.99361
14295 1 59.7611 30.3458 22.1719 5 7.69492 -4.05571
14296 1 62.2339 30.3458 22.1719 5 7.69492 -4.05571
14297 1 61.3021 30.3548 19.8412 3 0.0254563 -4.10472
14298 1 46.7095 28.3211 46.6239 3 0.000129519 -4.1202
14299 1 49.1823 28.3211 46.6239 3 0.000129519 -4.1202
14300 1 48.2904 28.3219 44.2889 3 0.000149472 -4.12007
14301 1 50.7632 28.3219 44.2889 3 0.000149472 -4.12007
14302 1 49.8705 28.3233 41.9536 3 0.000191447 -4.11982
14303 1 52.3433 28.3233 41.9536 3 0.000191447 -4.11982
14304 1 51.4494 28.3251 39.6177 3 0.000275951 -4.11942
14305 1 53.9222 28.3251 39.6177 3 0.000275951 -4.11942
14306 1 53.0261 28.3274 37.2809 3 0.000456136 -4.11879
14307 1 55.4989 28.3274 37.2809 3 0.000456136 -4.11879
14308 1 54.5991 28.3302 34.943 3 0.000890241 -4.11774
14309 1 57.0718 28.3302 34.943 3 0.000890241 -4.11774
14310 1 56.1647 28.3332 32.6038 3 0.00219321 -4.11591
14311 1 58.6375 28.3332 32.6038 3 0.00219321 -4.11591
14312 1 57.7144 28.3349 30.2646 3 0.00787771 -4.1127
14313 1 60.1872 28.3349 30.2646 3 0.00787771 -4.1127
14314 1 59.2177 28.3262 27.9331 3 0.04025 -4.10128
14315 1 61.6904 28.3262 27.9331 3 0.04025 -4.10128
14316 1 60.5684 28.2786 25.6293 3 0.0799124 -4.03666
14317 1 63.0412 28.2786 25.6293 3 0.0799124 -4.03666
14318 1 61.8344 28.2786 23.3294 3 0.0799124 -4.03666
14319 1 48.3881 26.3015 47.7904 3 9.91672e-05 -4.11967
14320 1 50.8609 26.3015 47.7904 3 9.91672e-05 -4.11967
14321 1 49.9618 26.3021 45.4538 3 0.000109496 -4.11957
14322 1 52.4346 26.3021 45.4538 3 0.000109496 -4.11957
14323 1 51.5346 26.3032 43.117 3 0.000133537 -4.11936
14324 1 54.0074 26.3032 43.117 3 0.000133537 -4.11936
14325 1 53.1059 26.3049 40.7797 3 0.000180367 -4.11901
14326 1 55.5787 26.3049 40.7797 3 0.000180367 -4.11901
14327 1 54.6744 26.307 38.4419 3 0.000271562 -4.11847
14328 1 57.1472 26.307 38.4419 3 0.000271562 -4.11847
14329 1 56.2384 26.3093 36.1037 3 0.000464591 -4.11763
14330 1 58.7112 26.3093 36.1037 3 0.000464591 -4.11763
14331 1 57.7946 26.3112 33.7656 3 0.000951108 -4.11627
14332 1 60.2674 26.3112 33.7656 3 0.000951108 -4.11627
14333 1 59.3356 26.3104 31.4299 3 0.00245828 -4.11406
14334 1 61.8084 26.3104 31.4299 3 0.00245828 -4.11406
14335 1 60.8445 26.3002 29.1027 3 0.00637848 -4.10946
14336 1 63.3173 26.3002 29.1027 3 0.00637848 -4.10946
14337 1 62.2892 26.2669 26.7934 3 0.00997197 -4.09174
14338 1 51.6413 24.2818 46.6212 3 7.83887e-05 -4.11909
14339 1 54.1141 24.2818 46.6212 3 7.83887e-05 -4.11909
14340 1 53.2081 24.2827 44.2836 3 9.09683e-05 -4.11894
14341 1 55.6809 24.2827 44.2836 3 9.09683e-05 -4.11894
14342 1 54.7733 24.2841 41.9459 3 0.000116215 -4.11866
14343 1 57.2461 24.2841 41.9459 3 0.000116215 -4.11866
14344 1 56.336 24.2858 39.6081 3 0.000164011 -4.11823
14345 1 58.8087 24.2858 39.6081 3 0.000164011 -4.11823
14346 1 57.8943 24.2874 37.2705 3 0.000260539 -4.11759
14347 1 60.3671 24.2874 37.2705 3 0.000260539 -4.11759
14348 1 59.4455 24.2879 34.9338 3 0.000482604 -4.11663
14349 1 61.9183 24.2879 34.9338 3 0.000482604 -4.11663
14350 1 60.9842 24.2854 32.6002 3 0.00101185 -4.11517
14351 1 63.457 24.2854 32.6002 3 0.00101185 -4.11517
14352 1 62.5008 24.275 30.2733 3 0.00186199 -4.11259
14353 1 53.3276 22.261 47.7898 3 5.81635e-05 -4.11867
14354 1 55.8004 22.261 47.7898 3 5.81635e-05 -4.11867
14355 1 54.8891 22.2615 45.4521 3 6.41046e-05 -4.11857
14356 1 57.3619 22.2615 45.4521 3 6.41046e-05 -4.11857
14357 1 56.4494 22.2625 43.1146 3 7.79181e-05 -4.11836
14358 1 58.9222 22.2625 43.1146 3 7.79181e-05 -4.11836
14359 1 58.0074 22.2637 40.7772 3 0.000104555 -4.11804
14360 1 60.4802 22.2637 40.7772 3 0.000104555 -4.11804
14361 1 59.5617 22.2646 38.4403 3 0.000157093 -4.11755
14362 1 62.0345 22.2646 38.4403 3 0.000157093 -4.11755
14363 1 61.1099 22.2642 36.1048 3 0.000266142 -4.11685
14364 1 63.5827 22.2642 36.1048 3 0.000266142 -4.11685
14365 1 62.6482 22.2608 33.7722 3 0.000471623 -4.11582
14366 1 56.5763 20.2396 46.6214 3 4.80558e-05 -4.11824
14367 1 59.0491 20.2396 46.6214 3 4.80558e-05 -4.11824
14368 1 58.1324 20.2402 44.2843 3 5.54392e-05 -4.1181
14369 1 60.6051 20.2402 44.2843 3 5.54392e-05 -4.1181
14370 1 59.6865 20.2409 41.9475 3 7.05626e-05 -4.11786
14371 1 62.1593 20.2409 41.9475 3 7.05626e-05 -4.11786
14372 1 61.2376 20.2412 39.6115 3 9.97795e-05 -4.11749
14373 1 63.7103 20.2412 39.6115 3 9.97795e-05 -4.11749
14374 1 62.7836 20.2403 37.2769 3 0.000154051 -4.11696
14375 1 58.2686 18.2167 47.7904 3 3.80993e-05 -4.11796
14376 1 60.7413 18.2167 47.7904 3 3.80993e-05 -4.11796
14377 1 59.8208 18.2169 45.454 3 4.16723e-05 -4.11787
14378 1 62.2936 18.2169 45.454 3 4.16723e-05 -4.11787
14379 1 61.3716 18.2172 43.1181 3 4.99255e-05 -4.1177
14380 1 63.8444 18.2172 43.1181 3 4.99255e-05 -4.1177
14381 1 62.9199 18.2172 40.7829 3 6.57171e-05 -4.11742
14382 1 61.5137 16.1927 46.6232 3 3.25865e-05 -4.11766
14383 1 63.9865 16.1927 46.6232 3 3.25865e-05 -4.11766
14384 1 63.0616 16.1928 44.2882 3 3.6577e-05 -4.11754
14385 1 63.2105 14.1675 47.7915 3 2.60015e-05 -4.11745
14386 1 8.85973 62.5896 47.7929 5 6.11303 -3.54477
14387 1 11.3325 62.5896 47.7929 5 6.11303 -3.54477
14388 1 10.5062 62.5896 45.4616 5 6.11233 -3.54476
14389 1 12.979 62.5896 45.4616 5 6.11233 -3.54476
14390 1 12.1529 62.5896 43.1302 5 6.11184 -3.54474
14391 1 14.6257 62.5896 43.1302 5 6.11184 -3.54474
14392 1 13.8 62.5896 40.7989 5 12.2235 -3.54471
14393 1 16.2728 62.5896 40.7989 5 12.2235 -3.54471
14394 1 15.4477 62.5896 38.4675 5 12.2231 -3.54468
14395 1 17.9205 62.5896 38.4675 5 12.2231 -3.54468
14396 1 17.096 62.5896 36.1361 5 12.2233 -3.54464
14397 1 19.5688 62.5896 36.1361 5 12.2233 -3.54464
14398 1 18.745 62.5896 33.8048 5 12.2239 -3.54461
14399 1 21.2178 62.5896 33.8048 5 12.2239 -3.54461
14400 1 20.3946 62.5896 31.4734 5 12.2265 -3.54458
14401 1 22.8674 62.5896 31.4734 5 12.2265 -3.54458
14402 1 22.0448 62.5896 29.142 5 12.2286 -3.54455
14403 1 24.5175 62.5896 29.142 5 12.2286 -3.54455
14404 1 23.6953 62.5896 26.8107 5 12.2309 -3.54454
14405 1 26.1681 62.5896 26.8107 5 12.2309 -3.54454
14406 1 25.346 62.5896 24.4793 5 12.2318 -3.54453
14407 1 27.8188 62.5896 24.4793 5 12.2318 -3.54453
14408 1 26.9968 62.5896 22.1479 5 12.2309 -3.54454
14409 1 29.4696 62.5896 22.1479 5 12.2309 -3.54454
14410 1 28.6473 62.5896 19.8166 5 12.2286 -3.54455
14411 1 31.1201 62.5896 19.8166 5 12.2286 -3.54455
14412 1 30.2975 62.5896 17.4852 5 12.2265 -3.54458
14413 1 32.7702 62.5896 17.4852 5 12.2265 -3.54458
14414 1 31.9471 62.5896 15.1539 5 12.2239 -3.54461
14415 1 34.4199 62.5896 15.1539 5 12.2239 -3.54461
14416 1 33.596 62.5896 12.8225 5 12.2233 -3.54464
14417 1 36.0688 62.5896 12.8225 5 12.2233 -3.54464
14418 1 35.2444 62.5896 10.4911 5 12.2231 -3.54468
14419 1 37.7171 62.5896 10.4911 5 12.2231 -3.54468
14420 1 36.892 62.5896 8.15977 5 12.2235 -3.54471
14421 1 39.3648 62.5896 8.15977 5 12.2235 -3.54471
14422 1 38.5392 62.5896 5.82841 5 6.11184 -3.54474
14423 1 41.012 62.5896 5.82841 5 6.11184 -3.54474
14424 1 40.1859 62.5896 3.49704 5 6.11233 -3.54476
14425 1 42.6587 62.5896 3.49704 5 6.11233 -3.54476
14426 1 41.8323 62.5896 1.16568 5 6.11303 -3.54477
14427 1 44.3051 62.5896 1.16568 5 6.11303 -3.54477
14428 1 12.1551 60.5706 46.6273 3 1.02056e-06 -4.10666
14429 1 14.6279 60.5706 46.6273 3 1.02055e-06 -4.10666
14430 1 13.8011 60.5706 44.2959 3 1.02815e-06 -4.10664
14431 1 16.2739 60.5706 44.2959 3 1.02816e-06 -4.10664
14432 1 15.4475 60.5706 41.9645 3 1.04077e-06 -4.10661
14433 1 17.9203 60.5706 41.9645 3 1.04075e-06 -4.10661
14434 1 17.0946 60.5706 39.6332 3 1.05865e-06 -4.10657
14435 1 19.5674 60.5706 39.6332 3 1.05862e-06 -4.10657
14436 1 18.7424 60.5706 37.3018 3 1.08243e-06 -4.10651
14437 1 21.2152 60.5706 37.3018 3 1.08242e-06 -4.10651
14438 1 20.3911 60.5706 34.9704 3 1.11276e-06 -4.10645
14439 1 22.8638 60.5706 34.9704 3 1.11277e-06 -4.10645
14440 1 22.0406 60.5706 32.6391 3 1.14887e-06 -4.10639
14441 1 24.5134 60.5706 32.6391 3 1.14887e-06 -4.10639
14442 1 23.6909 60.5706 30.3077 3 1.18714e-06 -4.10633
14443 1 26.1637 60.5706 30.3077 3 1.18713e-06 -4.10633
14444 1 25.3418 60.5706 27.9764 3 1.22039e-06 -4.1063
14445 1 27.8146 60.5706 27.9764 3 1.2204e-06 -4.1063
14446 1 26.9931 60.5706 25.645 3 1.24004e-06 -4.10627
14447 1 29.4659 60.5706 25.645 3 1.24004e-06 -4.10627
14448 1 28.6445 60.5706 23.3136 3 1.24004e-06 -4.10627
14449 1 31.1173 60.5706 23.3136 3 1.24005e-06 -4.10627
14450 1 30.2959 60.5706 20.9823 3 1.2204e-06 -4.1063
14451 1 32.7686 60.5706 20.9823 3 1.22039e-06 -4.1063
14452 1 31.9468 60.5706 18.6509 3 1.18715e-06 -4.10633
14453 1 34.4196 60.5706 18.6509 3 1.18714e-06 -4.10633
14454 1 33.5971 60.5706 16.3195 3 1.14889e-06 -4.10639
14455 1 36.0698 60.5706 16.3195 3 1.14887e-06 -4.10639
14456 1 35.2466 60.5706 13.9882 3 1.11276e-06 -4.10645
14457 1 37.7194 60.5706 13.9882 3 1.11274e-06 -4.10645
14458 1 36.8952 60.5706 11.6568 3 1.08242e-06 -4.10651
14459 1 39.368 60.5706 11.6568 3 1.08243e-06 -4.10651
14460 1 38.5431 60.5706 9.32545 3 1.05862e-06 -4.10657
14461 1 41.0159 60.5706 9.32545 3 1.05864e-06 -4.10657
14462 1 40.1901 60.5706 6.99409 3 1.04077e-06 -4.10661
14463 1 42.6629 60.5706 6.99409 3 1.04076e-06 -4.10661
14464 1 41.8366 60.5706 4.66273 3 1.02817e-06 -4.10664
14465 1 44.3093 60.5706 4.66273 3 1.02813e-06 -4.10664
14466 1 43.4825 60.5706 2.33136 3 1.02056e-06 -4.10666
14467 1 45.9553 60.5706 2.33136 3 1.02056e-06 -4.10666
14468 1 45.1283 60.5706 0 3 1.01798e-06 -4.10667
14469 1 47.6011 60.5706 0 3 1.01799e-06 -4.10667
14470 1 13.8046 58.5516 47.7929 3 0.000133584 -4.1223
14471 1 16.2774 58.5516 47.7929 3 0.000133584 -4.1223
14472 1 15.4497 58.5516 45.4616 3 0.000125533 -4.12231
14473 1 17.9224 58.5516 45.4616 3 0.000125533 -4.12231
14474 1 17.0952 58.5516 43.1302 3 0.000110457 -4.12234
14475 1 19.5679 58.5516 43.1302 3 0.000110457 -4.12234
14476 1 18.7413 58.5516 40.7989 3 9.07158e-05 -4.12237
14477 1 21.2141 58.5516 40.7989 3 9.07159e-05 -4.12237
14478 1 20.3884 58.5516 38.4675 3 6.97658e-05 -4.1224
14479 1 22.8612 58.5516 38.4675 3 6.9766e-05 -4.1224
14480 1 22.0366 58.5516 36.1361 3 5.08316e-05 -4.12243
14481 1 24.5094 58.5516 36.1361 3 5.08316e-05 -4.12243
14482 1 23.6858 58.5516 33.8048 3 3.52551e-05 -4.12244
14483 1 26.1586 58.5516 33.8048 3 3.52552e-05 -4.12244
14484 1 25.3361 58.5516 31.4734 3 2.24526e-05 -4.12244
14485 1 27.8089 58.5516 31.4734 3 2.24525e-05 -4.12244
14486 1 26.9874 58.5516 29.142 3 1.17353e-05 -4.12244
14487 1 29.4602 58.5516 29.142 3 1.17353e-05 -4.12244
14488 1 28.6393 58.5516 26.8107 3 3.91931e-06 -4.12243
14489 1 31.1121 58.5516 26.8107 3 3.91935e-06 -4.12243
14490 1 30.2916 58.5516 24.4793 3 9.47301e-07 -4.12242
14491 1 32.7644 58.5516 24.4793 3 9.47309e-07 -4.12242
14492 1 31.9439 58.5516 22.1479 3 3.91911e-06 -4.12243
14493 1 34.4167 58.5516 22.1479 3 3.91913e-06 -4.12243
14494 1 33.5958 58.5516 19.8166 3 1.17349e-05 -4.12244
14495 1 36.0686 58.5516 19.8166 3 1.17349e-05 -4.12244
14496 1 35.2471 58.5516 17.4852 3 2.24521e-05 -4.12244
14497 1 37.7199 58.5516 17.4852 3 2.24522e-05 -4.12244
14498 1 36.8974 58.5516 15.1539 3 3.52548e-05 -4.12244
14499 1 39.3702 58.5516 15.1539 3 3.52547e-05 -4.12244
14500 1 38.5466 58.5516 12.8225 3 5.08314e-05 -4.12243
14501 1 41.0194 58.5516 12.8225 3 5.08313e-05 -4.12243
14502 1 40.1948 58.5516 10.4911 3 6.97657e-05 -4.1224
14503 1 42.6676 58.5516 10.4911 3 6.97657e-05 -4.1224
14504 1 41.8419 58.5516 8.15977 3 9.07157e-05 -4.12237
14505 1 44.3146 58.5516 8.15977 3 9.07158e-05 -4.12237
14506 1 43.488 58.5516 5.82841 3 0.000110457 -4.12234
14507 1 45.9608 58.5516 5.82841 3 0.000110457 -4.12234
14508 1 45.1336 58.5516 3.49704 3 0.000125533 -4.12231
14509 1 47.6063 58.5516 3.49704 3 0.000125533 -4.12231
14510 1 46.7786 58.5516 1.16568 3 0.000133584 -4.1223
14511 1 49.2514 58.5516 1.16568 3 0.000133584 -4.1223
14512 1 17.0991 56.5406 46.627 3 2.19144e-06 -4.12177
14513 1 19.5719 56.5406 46.627 3 2.19143e-06 -4.12177
14514 1 18.7438 56.5402 44.2953 3 3.49758e-06 -4.12182
14515 1 21.2166 56.5402 44.2953 3 3.49758e-06 -4.12182
14516 1 20.3893 56.5395 41.9635 3 5.88395e-06 -4.1219
14517 1 22.862 56.5395 41.9635 3 5.88394e-06 -4.1219
14518 1 22.0358 56.5386 39.6317 3 9.06614e-06 -4.122
14519 1 24.5086 56.5386 39.6317 3 9.06614e-06 -4.122
14520 1 23.6836 56.5374 37.3 3 1.18619e-05 -4.12212
14521 1 26.1564 56.5374 37.3 3 1.18619e-05 -4.12212
14522 1 25.3327 56.5361 34.9684 3 1.27621e-05 -4.12223
14523 1 27.8055 56.5361 34.9684 3 1.2762e-05 -4.12223
14524 1 26.9829 56.5348 32.637 3 1.11233e-05 -4.12233
14525 1 29.4557 56.5348 32.637 3 1.11233e-05 -4.12233
14526 1 28.6341 56.5336 30.3059 3 7.59862e-06 -4.1224
14527 1 31.1069 56.5336 30.3059 3 7.59862e-06 -4.1224
14528 1 30.2859 56.5327 27.9752 3 3.91338e-06 -4.12244
14529 1 32.7587 56.5327 27.9752 3 3.91338e-06 -4.12244
14530 1 31.9382 56.5323 25.6446 3 1.63777e-06 -4.12246
14531 1 34.411 56.5323 25.6446 3 1.63777e-06 -4.12246
14532 1 33.5906 56.5323 23.3141 3 1.63777e-06 -4.12246
14533 1 36.0634 56.5323 23.3141 3 1.63777e-06 -4.12246
14534 1 35.2428 56.5327 20.9835 3 3.91338e-06 -4.12244
14535 1 37.7156 56.5327 20.9835 3 3.91337e-06 -4.12244
14536 1 36.8947 56.5336 18.6527 3 7.59861e-06 -4.1224
14537 1 39.3675 56.5336 18.6527 3 7.59862e-06 -4.1224
14538 1 38.5459 56.5348 16.3216 3 1.11233e-05 -4.12233
14539 1 41.0186 56.5348 16.3216 3 1.11233e-05 -4.12233
14540 1 40.1961 56.5361 13.9902 3 1.27621e-05 -4.12223
14541 1 42.6689 56.5361 13.9902 3 1.27621e-05 -4.12223
14542 1 41.8452 56.5374 11.6586 3 1.18619e-05 -4.12212
14543 1 44.3179 56.5374 11.6586 3 1.18619e-05 -4.12212
14544 1 43.493 56.5386 9.32688 3 9.06615e-06 -4.122
14545 1 45.9657 56.5386 9.32688 3 9.06614e-06 -4.122
14546 1 45.1395 56.5395 6.99509 3 5.88395e-06 -4.1219
14547 1 47.6123 56.5395 6.99509 3 5.88396e-06 -4.1219
14548 1 46.785 56.5402 4.66334 3 3.49757e-06 -4.12182
14549 1 49.2578 56.5402 4.66334 3 3.49758e-06 -4.12182
14550 1 48.4296 56.5406 2.33165 3 2.19145e-06 -4.12177
14551 1 50.9024 56.5406 2.33165 3 2.19143e-06 -4.12177
14552 1 50.0739 56.5407 48.9586 3 1.81015e-06 -4.12175
14553 1 52.5467 56.5407 48.9586 3 1.81015e-06 -4.12175
14554 1 18.7492 54.5298 47.7928 3 3.89996e-06 -4.12217
14555 1 21.222 54.5298 47.7928 3 3.89996e-06 -4.12217
14556 1 20.3926 54.5293 45.4612 3 4.47753e-06 -4.12218
14557 1 22.8654 54.5293 45.4612 3 4.47753e-06 -4.12218
14558 1 22.0368 54.5283 43.1295 3 5.81593e-06 -4.12221
14559 1 24.5096 54.5283 43.1295 3 5.81593e-06 -4.12221
14560 1 23.6823 54.5268 40.7976 3 8.05886e-06 -4.12226
14561 1 26.1551 54.5268 40.7976 3 8.05885e-06 -4.12226
14562 1 25.3294 54.5247 38.4656 3 1.0958e-05 -4.12232
14563 1 27.8021 54.5247 38.4656 3 1.0958e-05 -4.12232
14564 1 26.978 54.5221 36.1337 3 1.34554e-05 -4.12238
14565 1 29.4508 54.5221 36.1337 3 1.34554e-05 -4.12238
14566 1 28.6282 54.5193 33.802 3 1.40704e-05 -4.12243
14567 1 31.101 54.5193 33.802 3 1.40704e-05 -4.12243
14568 1 30.2795 54.5166 31.4707 3 1.19593e-05 -4.12246
14569 1 32.7523 54.5166 31.4707 3 1.19593e-05 -4.12246
14570 1 31.9317 54.5144 29.1399 3 7.87667e-06 -4.12248
14571 1 34.4044 54.5144 29.1399 3 7.87667e-06 -4.12248
14572 1 33.5843 54.5129 26.8095 3 3.97123e-06 -4.12249
14573 1 36.0571 54.5129 26.8095 3 3.97123e-06 -4.12249
14574 1 35.2372 54.5124 24.4793 3 2.41598e-06 -4.12249
14575 1 37.71 54.5124 24.4793 3 2.41598e-06 -4.12249
14576 1 36.89 54.5129 22.1492 3 3.97122e-06 -4.12249
14577 1 39.3628 54.5129 22.1492 3 3.97123e-06 -4.12249
14578 1 38.5427 54.5144 19.8188 3 7.87667e-06 -4.12248
14579 1 41.0155 54.5144 19.8188 3 7.87666e-06 -4.12248
14580 1 40.1948 54.5166 17.4879 3 1.19593e-05 -4.12246
14581 1 42.6676 54.5166 17.4879 3 1.19593e-05 -4.12246
14582 1 41.8462 54.5193 15.1566 3 1.40704e-05 -4.12243
14583 1 44.319 54.5193 15.1566 3 1.40704e-05 -4.12243
14584 1 43.4963 54.5221 12.8249 3 1.34554e-05 -4.12238
14585 1 45.9691 54.5221 12.8249 3 1.34554e-05 -4.12238
14586 1 45.145 54.5247 10.493 3 1.0958e-05 -4.12232
14587 1 47.6178 54.5247 10.493 3 1.09581e-05 -4.12232
14588 1 46.792 54.5268 8.16101 3 8.05886e-06 -4.12226
14589 1 49.2648 54.5268 8.16101 3 8.05887e-06 -4.12226
14590 1 48.4375 54.5283 5.82911 3 5.81594e-06 -4.12221
14591 1 50.9103 54.5283 5.82911 3 5.81593e-06 -4.12221
14592 1 50.0817 54.5293 3.49738 3 4.47753e-06 -4.12218
14593 1 52.5545 54.5293 3.49738 3 4.47753e-06 -4.12218
14594 1 51.7251 54.5298 1.16578 3 3.89996e-06 -4.12217
14595 1 54.1979 54.5298 1.16578 3 3.89996e-06 -4.12217
14596 1 22.0422 52.5183 46.6275 3 7.52735e-06 -4.12216
14597 1 24.515 52.5183 46.6275 3 7.52735e-06 -4.12216
14598 1 23.6846 52.5174 44.2961 3 8.29609e-06 -4.12218
14599 1 26.1574 52.5174 44.2961 3 8.29609e-06 -4.12218
14600 1 25.3284 52.5157 41.9645 3 9.67675e-06 -4.12221
14601 1 27.8012 52.5157 41.9645 3 9.67675e-06 -4.12221
14602 1 26.974 52.5132 39.6326 3 1.15574e-05 -4.12226
14603 1 29.4468 52.5132 39.6326 3 1.15574e-05 -4.12226
14604 1 28.6217 52.5098 37.3005 3 1.40121e-05 -4.12233
14605 1 31.0945 52.5098 37.3005 3 1.40121e-05 -4.12233
14606 1 30.2714 52.5057 34.9684 3 1.63502e-05 -4.12239
14607 1 32.7442 52.5057 34.9684 3 1.63502e-05 -4.12239
14608 1 31.9229 52.5014 32.6366 3 1.70391e-05 -4.12245
14609 1 34.3957 52.5014 32.6366 3 1.70391e-05 -4.12245
14610 1 33.5756 52.4973 30.3053 3 1.49964e-05 -4.12248
14611 1 36.0484 52.4973 30.3053 3 1.49964e-05 -4.12248
14612 1 35.2291 52.4943 27.9746 3 1.09793e-05 -4.12249
14613 1 37.7019 52.4943 27.9746 3 1.09793e-05 -4.12249
14614 1 36.883 52.4926 25.6444 3 7.73925e-06 -4.12249
14615 1 39.3558 52.4926 25.6444 3 7.73925e-06 -4.12249
14616 1 38.5369 52.4926 23.3143 3 7.73924e-06 -4.12249
14617 1 41.0097 52.4926 23.3143 3 7.73924e-06 -4.12249
14618 1 40.1908 52.4943 20.984 3 1.09792e-05 -4.12249
14619 1 42.6636 52.4943 20.984 3 1.09792e-05 -4.12249
14620 1 41.8443 52.4973 18.6533 3 1.49964e-05 -4.12248
14621 1 44.3171 52.4973 18.6533 3 1.49964e-05 -4.12248
14622 1 43.497 52.5014 16.322 3 1.70391e-05 -4.12245
14623 1 45.9698 52.5014 16.322 3 1.70391e-05 -4.12245
14624 1 45.1485 52.5057 13.9902 3 1.63502e-05 -4.12239
14625 1 47.6213 52.5057 13.9902 3 1.63502e-05 -4.12239
14626 1 46.7982 52.5098 11.6581 3 1.40121e-05 -4.12233
14627 1 49.271 52.5098 11.6581 3 1.40121e-05 -4.12233
14628 1 48.4459 52.5132 9.32602 3 1.15574e-05 -4.12226
14629 1 50.9187 52.5132 9.32602 3 1.15574e-05 -4.12226
14630 1 50.0915 52.5157 6.99411 3 9.67676e-06 -4.12221
14631 1 52.5643 52.5157 6.99411 3 9.67676e-06 -4.12221
14632 1 51.7353 52.5174 4.66251 3 8.29609e-06 -4.12218
14633 1 54.2081 52.5174 4.66251 3 8.29609e-06 -4.12218
14634 1 53.3777 52.5183 2.33117 3 7.52735e-06 -4.12216
14635 1 55.8505 52.5183 2.33117 3 7.52735e-06 -4.12216
14636 1 55.0194 52.5186 48.9586 3 7.22159e-06 -4.12216
14637 1 57.4922 52.5186 48.9586 3 7.22158e-06 -4.12216
14638 1 23.6931 50.5068 47.7934 3 1.18952e-05 -4.12215
14639 1 26.1659 50.5068 47.7934 3 1.18952e-05 -4.12215
14640 1 25.3333 50.5062 45.4628 3 1.26248e-05 -4.12216
14641 1 27.8061 50.5062 45.4628 3 1.26248e-05 -4.12216
14642 1 26.9747 50.5048 43.1318 3 1.38767e-05 -4.12217
14643 1 29.4475 50.5048 43.1318 3 1.38767e-05 -4.12217
14644 1 28.618 50.5023 40.8005 3 1.53589e-05 -4.1222
14645 1 31.0908 50.5023 40.8005 3 1.53589e-05 -4.1222
14646 1 30.2639 50.4987 38.4686 3 1.67305e-05 -4.12225
14647 1 32.7367 50.4987 38.4686 3 1.67305e-05 -4.12225
14648 1 31.9125 50.4938 36.1363 3 1.86664e-05 -4.12233
14649 1 34.3853 50.4938 36.1363 3 1.86664e-05 -4.12233
14650 1 33.5637 50.488 33.804 3 2.12611e-05 -4.12241
14651 1 36.0365 50.488 33.804 3 2.12611e-05 -4.12241
14652 1 35.217 50.4822 31.472 3 2.30165e-05 -4.12246
14653 1 37.6898 50.4822 31.472 3 2.30165e-05 -4.12246
14654 1 36.8716 50.477 29.1406 3 2.21126e-05 -4.12249
14655 1 39.3444 50.477 29.1406 3 2.21126e-05 -4.12249
14656 1 38.527 50.4735 26.8098 3 1.91502e-05 -4.1225
14657 1 40.9998 50.4735 26.8098 3 1.91502e-05 -4.1225
14658 1 40.1827 50.4723 24.4793 3 1.74186e-05 -4.1225
14659 1 42.6555 50.4723 24.4793 3 1.74186e-05 -4.1225
14660 1 41.8384 50.4735 22.1489 3 1.91502e-05 -4.1225
14661 1 44.3112 50.4735 22.1489 3 1.91502e-05 -4.1225
14662 1 43.4938 50.477 19.818 3 2.21126e-05 -4.12249
14663 1 45.9666 50.477 19.818 3 2.21126e-05 -4.12249
14664 1 45.1485 50.4822 17.4866 3 2.30165e-05 -4.12246
14665 1 47.6213 50.4822 17.4866 3 2.30165e-05 -4.12246
14666 1 46.8018 50.488 15.1546 3 2.12611e-05 -4.12241
14667 1 49.2746 50.488 15.1546 3 2.12611e-05 -4.12241
14668 1 48.453 50.4938 12.8223 3 1.86664e-05 -4.12233
14669 1 50.9258 50.4938 12.8223 3 1.86664e-05 -4.12233
14670 1 50.1016 50.4987 10.4901 3 1.67305e-05 -4.12225
14671 1 52.5744 50.4987 10.4901 3 1.67305e-05 -4.12225
14672 1 51.7475 50.5023 8.15817 3 1.53589e-05 -4.1222
14673 1 54.2202 50.5023 8.15817 3 1.53589e-05 -4.1222
14674 1 53.3908 50.5048 5.82678 3 1.38767e-05 -4.12217
14675 1 55.8636 50.5048 5.82678 3 1.38767e-05 -4.12217
14676 1 55.0322 50.5062 3.49585 3 1.26248e-05 -4.12216
14677 1 57.505 50.5062 3.49585 3 1.26248e-05 -4.12216
14678 1 56.6723 50.5068 1.16525 3 1.18952e-05 -4.12215
14679 1 59.1451 50.5068 1.16525 3 1.18952e-05 -4.12215
14680 1 26.9836 48.4942 46.629 3 1.78386e-05 -4.12214
14681 1 29.4564 48.4942 46.629 3 1.78386e-05 -4.12214
14682 1 28.6221 48.4932 44.299 3 1.96273e-05 -4.12214
14683 1 31.0949 48.4932 44.299 3 1.96273e-05 -4.12214
14684 1 30.2624 48.4913 41.9686 3 2.20453e-05 -4.12215
14685 1 32.7351 48.4913 41.9686 3 2.20453e-05 -4.12215
14686 1 31.9053 48.4881 39.6374 3 2.41335e-05 -4.12217
14687 1 34.3781 48.4881 39.6374 3 2.41335e-05 -4.12217
14688 1 33.5517 48.4832 37.3054 3 2.49439e-05 -4.12223
14689 1 36.0245 48.4832 37.3054 3 2.49439e-05 -4.12223
14690 1 35.2017 48.4767 34.9729 3 2.64238e-05 -4.12233
14691 1 37.6745 48.4767 34.9729 3 2.64238e-05 -4.12233
14692 1 36.855 48.4693 32.6402 3 3.04308e-05 -4.12241
14693 1 39.3278 48.4693 32.6402 3 3.04308e-05 -4.12241
14694 1 38.5108 48.4619 30.3078 3 3.52972e-05 -4.12247
14695 1 40.9836 48.4619 30.3078 3 3.52972e-05 -4.12247
14696 1 40.1682 48.456 27.976 3 3.74501e-05 -4.1225
14697 1 42.6409 48.456 27.976 3 3.74501e-05 -4.1225
14698 1 41.8263 48.4526 25.6448 3 3.66337e-05 -4.12251
14699 1 44.2991 48.4526 25.6448 3 3.66337e-05 -4.12251
14700 1 43.4847 48.4526 23.3138 3 3.66337e-05 -4.12251
14701 1 45.9575 48.4526 23.3138 3 3.66337e-05 -4.12251
14702 1 45.1429 48.456 20.9826 3 3.745e-05 -4.1225
14703 1 47.6157 48.456 20.9826 3 3.74501e-05 -4.1225
14704 1 46.8003 48.4619 18.6508 3 3.52972e-05 -4.12247
14705 1 49.2731 48.4619 18.6508 3 3.52972e-05 -4.12247
14706 1 48.4561 48.4693 16.3184 3 3.04307e-05 -4.12241
14707 1 50.9288 48.4693 16.3184 3 3.04307e-05 -4.12241
14708 1 50.1093 48.4767 13.9857 3 2.64237e-05 -4.12233
14709 1 52.5821 48.4767 13.9857 3 2.64237e-05 -4.12233
14710 1 51.7593 48.4832 11.6532 3 2.49439e-05 -4.12223
14711 1 54.2321 48.4832 11.6532 3 2.49439e-05 -4.12223
14712 1 53.4057 48.4881 9.32123 3 2.41335e-05 -4.12217
14713 1 55.8785 48.4881 9.32123 3 2.41335e-05 -4.12217
14714 1 55.0487 48.4913 6.99006 3 2.20453e-05 -4.12215
14715 1 57.5215 48.4913 6.99006 3 2.20453e-05 -4.12215
14716 1 56.689 48.4932 4.6596 3 1.96273e-05 -4.12214
14717 1 59.1618 48.4932 4.6596 3 1.96273e-05 -4.12214
14718 1 58.3275 48.4942 2.32967 3 1.78386e-05 -4.12214
14719 1 60.8002 48.4942 2.32967 3 1.78386e-05 -4.12214
14720 1 59.965 48.4945 48.9586 3 1.72512e-05 -4.12214
14721 1 62.4378 48.4945 48.9586 3 1.72512e-05 -4.12214
14722 1 28.6362 46.4812 47.7943 3 2.36101e-05 -4.12212
14723 1 31.1089 46.4812 47.7943 3 2.36101e-05 -4.12212
14724 1 30.2713 46.4807 45.4655 3 2.56145e-05 -4.12212
14725 1 32.7441 46.4807 45.4655 3 2.56145e-05 -4.12212
14726 1 31.9079 46.4794 43.1363 3 2.95039e-05 -4.12211
14727 1 34.3807 46.4794 43.1363 3 2.95039e-05 -4.12211
14728 1 33.5471 46.4771 40.8063 3 3.46056e-05 -4.1221
14729 1 36.0199 46.4771 40.8063 3 3.46056e-05 -4.1221
14730 1 35.1899 46.4731 38.4753 3 3.8725e-05 -4.12212
14731 1 37.6627 46.4731 38.4753 3 3.8725e-05 -4.12212
14732 1 36.8372 46.467 36.1432 3 3.9276e-05 -4.12218
14733 1 39.31 46.467 36.1432 3 3.9276e-05 -4.12218
14734 1 38.4893 46.4588 33.8101 3 4.07035e-05 -4.12231
14735 1 40.962 46.4588 33.8101 3 4.07035e-05 -4.12231
14736 1 40.1455 46.4495 31.4768 3 4.82067e-05 -4.1224
14737 1 42.6183 46.4495 31.4768 3 4.82067e-05 -4.1224
14738 1 41.8049 46.4409 29.1438 3 6.04472e-05 -4.12248
14739 1 44.2777 46.4409 29.1438 3 6.04472e-05 -4.12248
14740 1 43.4662 46.4347 26.8113 3 6.90738e-05 -4.12252
14741 1 45.939 46.4347 26.8113 3 6.90738e-05 -4.12252
14742 1 45.1283 46.4324 24.4793 3 7.12415e-05 -4.12253
14743 1 47.6011 46.4324 24.4793 3 7.12415e-05 -4.12253
14744 1 46.7904 46.4347 22.1473 3 6.90738e-05 -4.12252
14745 1 49.2632 46.4347 22.1473 3 6.90738e-05 -4.12252
14746 1 48.4517 46.4409 19.8148 3 6.04472e-05 -4.12248
14747 1 50.9245 46.4409 19.8148 3 6.04472e-05 -4.12248
14748 1 50.1111 46.4495 17.4818 3 4.82066e-05 -4.1224
14749 1 52.5839 46.4495 17.4818 3 4.82066e-05 -4.1224
14750 1 51.7674 46.4588 15.1485 3 4.07035e-05 -4.12231
14751 1 54.2401 46.4588 15.1485 3 4.07035e-05 -4.12231
14752 1 53.4194 46.467 12.8155 3 3.92759e-05 -4.12218
14753 1 55.8922 46.467 12.8155 3 3.92759e-05 -4.12218
14754 1 55.0667 46.4731 10.4833 3 3.8725e-05 -4.12212
14755 1 57.5395 46.4731 10.4833 3 3.8725e-05 -4.12212
14756 1 56.7095 46.4771 8.15231 3 3.46057e-05 -4.1221
14757 1 59.1823 46.4771 8.15231 3 3.46057e-05 -4.1221
14758 1 58.3487 46.4794 5.82233 3 2.95039e-05 -4.12211
14759 1 60.8215 46.4794 5.82233 3 2.95039e-05 -4.12211
14760 1 59.9853 46.4807 3.4931 3 2.56145e-05 -4.12212
14761 1 62.4581 46.4807 3.4931 3 2.56145e-05 -4.12212
14762 1 61.6205 46.4812 1.16432 3 2.36101e-05 -4.12212
14763 1 64.0932 46.4812 1.16432 3 2.36101e-05 -4.12212
14764 1 31.9231 44.4667 46.631 3 3.16705e-05 -4.12209
14765 1 34.3959 44.4667 46.631 3 3.16705e-05 -4.12209
14766 1 33.5556 44.4662 44.3031 3 3.62616e-05 -4.12207
14767 1 36.0284 44.4662 44.3031 3 3.62616e-05 -4.12207
14768 1 35.1903 44.4648 41.9745 3 4.42897e-05 -4.12205
14769 1 37.6631 44.4648 41.9745 3 4.42897e-05 -4.12205
14770 1 36.8283 44.4622 39.645 3 5.52161e-05 -4.12202
14771 1 39.3011 44.4622 39.645 3 5.52161e-05 -4.12202
14772 1 38.4711 44.4575 37.3141 3 6.50011e-05 -4.12201
14773 1 40.9439 44.4575 37.3141 3 6.50011e-05 -4.12201
14774 1 40.1199 44.4501 34.9816 3 6.6379e-05 -4.12208
14775 1 42.5927 44.4501 34.9816 3 6.6379e-05 -4.12208
14776 1 41.7752 44.44 32.6477 3 6.90114e-05 -4.12229
14777 1 44.248 44.44 32.6477 3 6.90114e-05 -4.12229
14778 1 43.4358 44.429 30.3136 3 8.3298e-05 -4.12236
14779 1 45.9086 44.429 30.3136 3 8.3298e-05 -4.12236
14780 1 45.1004 44.4195 27.9795 3 0.000113302 -4.12248
14781 1 47.5732 44.4195 27.9795 3 0.000113302 -4.12248
14782 1 46.7673 44.4138 25.646 3 0.000134837 -4.12254
14783 1 49.2401 44.4138 25.646 3 0.000134837 -4.12254
14784 1 48.4349 44.4138 23.3127 3 0.000134837 -4.12254
14785 1 50.9077 44.4138 23.3127 3 0.000134837 -4.12254
14786 1 50.1018 44.4195 20.9791 3 0.000113302 -4.12248
14787 1 52.5746 44.4195 20.9791 3 0.000113302 -4.12248
14788 1 51.7664 44.429 18.6451 3 8.3298e-05 -4.12236
14789 1 54.2392 44.429 18.6451 3 8.3298e-05 -4.12236
14790 1 53.427 44.44 16.3109 3 6.90114e-05 -4.12229
14791 1 55.8998 44.44 16.3109 3 6.90114e-05 -4.12229
14792 1 55.0823 44.4501 13.9771 3 6.6379e-05 -4.12208
14793 1 57.555 44.4501 13.9771 3 6.6379e-05 -4.12208
14794 1 56.7311 44.4575 11.6445 3 6.50011e-05 -4.12201
14795 1 59.2038 44.4575 11.6445 3 6.50011e-05 -4.12201
14796 1 58.3738 44.4622 9.31364 3 5.52162e-05 -4.12202
14797 1 60.8466 44.4622 9.31364 3 5.52162e-05 -4.12202
14798 1 60.0119 44.4648 6.9841 3 4.42897e-05 -4.12205
14799 1 62.4847 44.4648 6.9841 3 4.42897e-05 -4.12205
14800 1 61.6465 44.4662 4.65555 3 3.62616e-05 -4.12207
14801 1 64.1193 44.4662 4.65555 3 3.62616e-05 -4.12207
14802 1 63.2791 44.4667 2.32763 3 3.16705e-05 -4.12209
14803 1 33.5782 42.4514 47.7953 3 3.88216e-05 -4.12204
14804 1 36.051 42.4514 47.7953 3 3.88216e-05 -4.12204
14805 1 35.2062 42.4513 45.4685 3 4.29685e-05 -4.12203
14806 1 37.679 42.4513 45.4685 3 4.29685e-05 -4.12203
14807 1 36.8359 42.4508 43.1414 3 5.21401e-05 -4.122
14808 1 39.3087 42.4508 43.1414 3 5.21401e-05 -4.122
14809 1 38.4684 42.4495 40.8135 3 6.79327e-05 -4.12195
14810 1 40.9412 42.4495 40.8135 3 6.79327e-05 -4.12195
14811 1 40.1052 42.4468 38.4844 3 9.11994e-05 -4.12188
14812 1 42.578 42.4468 38.4844 3 9.11994e-05 -4.12188
14813 1 41.7483 42.4416 36.1535 3 0.000115746 -4.12183
14814 1 44.2211 42.4416 36.1535 3 0.000115746 -4.12183
14815 1 43.3996 42.4328 33.8204 3 0.000121899 -4.12189
14816 1 45.8723 42.4328 33.8204 3 0.000121899 -4.12189
14817 1 45.0597 42.4205 31.4854 3 0.000131069 -4.12226
14818 1 47.5325 42.4205 31.4854 3 0.000131069 -4.12226
14819 1 46.7266 42.408 29.1501 3 0.000154237 -4.12225
14820 1 49.1994 42.408 29.1501 3 0.000154237 -4.12225
14821 1 48.3989 42.3982 26.8146 3 0.000231706 -4.12249
14822 1 50.8717 42.3982 26.8146 3 0.000231706 -4.12249
14823 1 50.0739 42.3944 24.4793 3 0.00027212 -4.12258
14824 1 52.5467 42.3944 24.4793 3 0.00027212 -4.12258
14825 1 51.7489 42.3982 22.144 3 0.000231706 -4.12249
14826 1 54.2217 42.3982 22.144 3 0.000231706 -4.12249
14827 1 53.4211 42.408 19.8085 3 0.000154237 -4.12225
14828 1 55.8939 42.408 19.8085 3 0.000154237 -4.12225
14829 1 55.0881 42.4205 17.4732 3 0.000131069 -4.12226
14830 1 57.5609 42.4205 17.4732 3 0.000131069 -4.12226
14831 1 56.7482 42.4328 15.1382 3 0.000121899 -4.12189
14832 1 59.221 42.4328 15.1382 3 0.000121899 -4.12189
14833 1 58.3994 42.4416 12.8051 3 0.000115746 -4.12183
14834 1 60.8722 42.4416 12.8051 3 0.000115746 -4.12183
14835 1 60.0425 42.4468 10.4743 3 9.11994e-05 -4.12188
14836 1 62.5153 42.4468 10.4743 3 9.11994e-05 -4.12188
14837 1 61.6794 42.4495 8.14516 3 6.79327e-05 -4.12195
14838 1 64.1521 42.4495 8.14516 3 6.79327e-05 -4.12195
14839 1 63.3118 42.4508 5.81726 3 5.21401e-05 -4.122
14840 1 36.8604 40.4348 46.6326 3 5.18024e-05 -4.12196
14841 1 39.3332 40.4348 46.6326 3 5.18024e-05 -4.12196
14842 1 38.4847 40.4348 44.3065 3 6.06629e-05 -4.12193
14843 1 40.9575 40.4348 44.3065 3 6.06629e-05 -4.12193
14844 1 40.1111 40.4346 41.9799 3 7.80201e-05 -4.12187
14845 1 42.5839 40.4346 41.9799 3 7.80201e-05 -4.12187
14846 1 41.7411 40.4336 39.6526 3 0.000108536 -4.12178
14847 1 44.2139 40.4336 39.6526 3 0.000108536 -4.12178
14848 1 43.3767 40.431 37.324 3 0.000158298 -4.12165
14849 1 45.8495 40.431 37.324 3 0.000158298 -4.12165
14850 1 45.0204 40.4256 34.9932 3 0.000221815 -4.1215
14851 1 47.4932 40.4256 34.9932 3 0.000221815 -4.1215
14852 1 46.6754 40.4155 32.6594 3 0.000248953 -4.12152
14853 1 49.1482 40.4155 32.6594 3 0.000248953 -4.12152
14854 1 48.3431 40.4005 30.3228 3 0.000290858 -4.12227
14855 1 50.8159 40.4005 30.3228 3 0.000290857 -4.12227
14856 1 50.0195 40.3872 27.9861 3 0.000307363 -4.122
14857 1 52.4923 40.3872 27.9861 3 0.000307363 -4.122
14858 1 51.7033 40.3784 25.6483 3 0.000523821 -4.12257
14859 1 54.1761 40.3784 25.6483 3 0.000523821 -4.12257
14860 1 53.39 40.3784 23.3103 3 0.000523821 -4.12257
14861 1 55.8628 40.3784 23.3103 3 0.000523821 -4.12257
14862 1 55.0738 40.3872 20.9725 3 0.000307363 -4.122
14863 1 57.5466 40.3872 20.9725 3 0.000307363 -4.122
14864 1 56.7502 40.4005 18.6358 3 0.000290858 -4.12227
14865 1 59.223 40.4005 18.6358 3 0.000290858 -4.12227
14866 1 58.4179 40.4155 16.2992 3 0.000248953 -4.12152
14867 1 60.8907 40.4155 16.2992 3 0.000248953 -4.12152
14868 1 60.0729 40.4256 13.9654 3 0.000221816 -4.1215
14869 1 62.5457 40.4256 13.9654 3 0.000221816 -4.1215
14870 1 61.7166 40.431 11.6346 3 0.000158298 -4.12165
14871 1 64.1894 40.431 11.6346 3 0.000158298 -4.12165
14872 1 63.3522 40.4336 9.306 3 0.000108536 -4.12178
14873 1 38.5189 38.4171 47.7957 3 6.55492e-05 -4.12185
14874 1 40.9917 38.4171 47.7957 3 6.55492e-05 -4.12185
14875 1 40.1373 38.4173 45.4699 3 7.3238e-05 -4.12182
14876 1 42.6101 38.4173 45.4699 3 7.3238e-05 -4.12182
14877 1 41.7572 38.4176 43.144 3 9.07642e-05 -4.12177
14878 1 44.23 38.4176 43.144 3 9.07642e-05 -4.12177
14879 1 43.3799 38.4177 40.8179 3 0.00012367 -4.12167
14880 1 45.8526 38.4177 40.8179 3 0.00012367 -4.12167
14881 1 45.0069 38.4172 38.4912 3 0.000183731 -4.12151
14882 1 47.4797 38.4172 38.4912 3 0.000183731 -4.12151
14883 1 46.6409 38.4151 36.1632 3 0.000293667 -4.12125
14884 1 49.1137 38.4151 36.1632 3 0.000293667 -4.12125
14885 1 48.2857 38.4098 33.8328 3 0.000468568 -4.12089
14886 1 50.7585 38.4098 33.8328 3 0.000468568 -4.12089
14887 1 49.9464 38.3984 31.4983 3 0.00059098 -4.12071
14888 1 52.4192 38.3984 31.4983 3 0.00059098 -4.12071
14889 1 51.6266 38.3799 29.1594 3 0.000820378 -4.12241
14890 1 54.0994 38.3799 29.1594 3 0.000820378 -4.12241
14891 1 53.3174 38.3679 26.8212 3 0.000708783 -4.12138
14892 1 55.7902 38.3679 26.8212 3 0.000708783 -4.12138
14893 1 55.0194 38.3626 24.4793 3 0.00124499 -4.12296
14894 1 57.4922 38.3626 24.4793 3 0.00124499 -4.12296
14895 1 56.7214 38.3679 22.1374 3 0.000708783 -4.12138
14896 1 59.1942 38.3679 22.1374 3 0.000708783 -4.12138
14897 1 58.4123 38.3799 19.7992 3 0.000820378 -4.12241
14898 1 60.8851 38.3799 19.7992 3 0.000820378 -4.12241
14899 1 60.0925 38.3984 17.4603 3 0.00059098 -4.12071
14900 1 62.5653 38.3984 17.4603 3 0.00059098 -4.12071
14901 1 61.7532 38.4098 15.1259 3 0.000468568 -4.12089
14902 1 64.226 38.4098 15.1259 3 0.000468568 -4.12089
14903 1 63.398 38.4151 12.7954 3 0.000293667 -4.12125
14904 1 41.7947 36.3986 46.6323 3 9.18568e-05 -4.12168
14905 1 44.2675 36.3986 46.6323 3 9.18568e-05 -4.12168
14906 1 43.4076 36.399 44.306 3 0.000108355 -4.12161
14907 1 45.8804 36.399 44.306 3 0.000108355 -4.12161
14908 1 45.0223 36.3997 41.9799 3 0.000142159 -4.1215
14909 1 47.4951 36.3997 41.9799 3 0.000142159 -4.1215
14910 1 46.6402 36.4003 39.6538 3 0.000206701 -4.12131
14911 1 49.113 36.4003 39.6538 3 0.000206701 -4.12131
14912 1 48.2634 36.4004 37.3276 3 0.000333509 -4.12101
14913 1 50.7361 36.4004 37.3276 3 0.000333509 -4.12101
14914 1 49.8949 36.3992 35.0006 3 0.000598223 -4.12049
14915 1 52.3677 36.3992 35.0006 3 0.000598223 -4.12049
14916 1 51.5407 36.3945 32.6711 3 0.00114061 -4.1196
14917 1 54.0135 36.3945 32.6711 3 0.00114061 -4.1196
14918 1 53.2103 36.3823 30.3364 3 0.00177736 -4.11866
14919 1 55.6831 36.3823 30.3364 3 0.00177736 -4.11866
14920 1 54.913 36.3588 27.9942 3 0.00336124 -4.12315
14921 1 57.3858 36.3588 27.9942 3 0.00336124 -4.12315
14922 1 56.6273 36.3546 25.6544 3 0.00208926 -4.12065
14923 1 59.1001 36.3546 25.6544 3 0.00208926 -4.12065
14924 1 58.3571 36.3546 23.3043 3 0.00208926 -4.12065
14925 1 60.8299 36.3546 23.3043 3 0.00208926 -4.12065
14926 1 60.0714 36.3588 20.9644 3 0.00336124 -4.12315
14927 1 62.5442 36.3588 20.9644 3 0.00336124 -4.12315
14928 1 61.7741 36.3823 18.6222 3 0.00177737 -4.11866
14929 1 64.2469 36.3823 18.6222 3 0.00177737 -4.11866
14930 1 63.4437 36.3945 16.2875 3 0.00114061 -4.1196
14931 1 43.458 34.3792 47.7948 3 0.000115414 -4.12147
14932 1 45.9308 34.3792 47.7948 3 0.000115414 -4.12147
14933 1 45.0633 34.3796 45.4671 3 0.000127924 -4.12141
14934 1 47.536 34.3796 45.4671 3 0.000127924 -4.12141
14935 1 46.6696 34.3803 43.1397 3 0.000158073 -4.12129
14936 1 49.1424 34.3803 43.1397 3 0.000158073 -4.12129
14937 1 48.2779 34.3813 40.8125 3 0.000219406 -4.12107
14938 1 50.7506 34.3813 40.8125 3 0.000219406 -4.12107
14939 1 49.8894 34.3823 38.4858 3 0.00034635 -4.12071
14940 1 52.3622 34.3823 38.4858 3 0.00034635 -4.12071
14941 1 51.5066 34.3831 36.1595 3 0.000630913 -4.12007
14942 1 53.9793 34.3831 36.1595 3 0.000630913 -4.12007
14943 1 53.1333 34.383 33.8334 3 0.00135468 -4.11886
14944 1 55.6061 34.383 33.8334 3 0.00135468 -4.11886
14945 1 54.7784 34.3799 31.5058 3 0.00346241 -4.11633
14946 1 57.2512 34.3799 31.5058 3 0.00346241 -4.11633
14947 1 56.4615 34.3684 29.1724 3 0.00841238 -4.11182
14948 1 58.9342 34.3684 29.1724 3 0.00841238 -4.11182
14949 1 58.2148 34.339 26.8251 3 0.0361452 -4.12628
14950 1 60.6875 34.339 26.8251 3 0.0361452 -4.12628
14951 1 59.965 34.3611 24.4793 3 0.0111429 -4.10153
14952 1 62.4378 34.3611 24.4793 3 0.0111429 -4.10153
14953 1 61.7153 34.339 22.1335 3 0.0361452 -4.12628
14954 1 64.1881 34.339 22.1335 3 0.0361452 -4.12628
14955 1 63.4686 34.3684 19.7862 3 0.00841238 -4.11182
14956 1 46.7256 32.3599 46.6288 3 0.000142377 -4.12113
14957 1 49.1984 32.3599 46.6288 3 0.000142377 -4.12113
14958 1 48.3232 32.3605 44.299 3 0.000163748 -4.12102
14959 1 50.796 32.3605 44.299 3 0.000163748 -4.12102
14960 1 49.9217 32.3615 41.9694 3 0.000209208 -4.12082
14961 1 52.3945 32.3615 41.9694 3 0.000209208 -4.12082
14962 1 51.5216 32.3628 39.64 3 0.00030275 -4.12045
14963 1 53.9944 32.3628 39.64 3 0.00030275 -4.12045
14964 1 53.1239 32.3642 37.3111 3 0.00051239 -4.11977
14965 1 55.5967 32.3642 37.3111 3 0.00051239 -4.11977
14966 1 54.7306 32.3657 34.9828 3 0.00106837 -4.11841
14967 1 57.2034 32.3657 34.9828 3 0.00106837 -4.11841
14968 1 56.3457 32.3668 32.6555 3 0.00296101 -4.11528
14969 1 58.8185 32.3668 32.6555 3 0.00296101 -4.11528
14970 1 57.9802 32.3659 30.3292 3 0.0128667 -4.10575
14971 1 60.453 32.3659 30.3292 3 0.0128667 -4.10575
14972 1 59.675 32.3588 28.0005 3 0.140712 -4.0469
14973 1 62.1478 32.3588 28.0005 3 0.140712 -4.0469
14974 1 61.6385 32.3521 25.6463 5 5.31346 -4.04848
14975 1 64.1113 32.3521 25.6463 5 5.31346 -4.04848
14976 1 63.2371 32.3521 23.3123 5 5.31346 -4.04848
14977 1 48.3957 30.3403 47.7924 3 0.000141586 -4.12074
14978 1 50.8684 30.3403 47.7924 3 0.000141586 -4.12074
14979 1 49.9848 30.3408 45.46 3 0.000154623 -4.12067
14980 1 52.4576 30.3408 45.46 3 0.000154623 -4.12067
14981 1 51.5739 30.3417 43.1275 3 0.00018524 -4.12051
14982 1 54.0467 30.3417 43.1275 3 0.00018524 -4.12051
14983 1 53.1631 30.343 40.7947 3 0.000246691 -4.12024
14984 1 55.6358 30.343 40.7947 3 0.000246691 -4.12024
14985 1 54.7521 30.3448 38.4616 3 0.000372786 -4.11979
14986 1 57.2249 30.3448 38.4616 3 0.000372786 -4.11979
14987 1 56.341 30.3469 36.1279 3 0.000661326 -4.11905
14988 1 58.8138 30.3469 36.1279 3 0.000661326 -4.11905
14989 1 57.9295 30.3494 33.7931 3 0.00146478 -4.1177
14990 1 60.4023 30.3494 33.7931 3 0.00146478 -4.1177
14991 1 59.517 30.3523 31.4565 3 0.00450872 -4.11471
14992 1 61.9898 30.3523 31.4565 3 0.00450872 -4.11471
14993 1 61.1007 30.3548 29.1174 3 0.0254563 -4.10472
14994 1 63.5735 30.3548 29.1174 3 0.0254563 -4.10472
14995 1 62.6417 30.3458 26.7868 5 7.69492 -4.05571
14996 1 51.6551 28.3211 46.6239 3 0.000129519 -4.1202
14997 1 54.1279 28.3211 46.6239 3 0.000129519 -4.1202
14998 1 53.2359 28.3219 44.2889 3 0.000149472 -4.12007
14999 1 55.7087 28.3219 44.2889 3 0.000149472 -4.12007
15000 1 54.8161 28.3233 41.9536 3 0.000191447 -4.11982
15001 1 57.2889 28.3233 41.9536 3 0.000191447 -4.11982
15002 1 56.395 28.3251 39.6177 3 0.000275951 -4.11942
15003 1 58.8678 28.3251 39.6177 3 0.000275951 -4.11942
15004 1 57.9717 28.3274 37.2809 3 0.000456136 -4.11879
15005 1 60.4445 28.3274 37.2809 3 0.000456136 -4.11879
15006 1 59.5446 28.3302 34.943 3 0.000890241 -4.11774
15007 1 62.0174 28.3302 34.943 3 0.000890241 -4.11774
15008 1 61.1103 28.3332 32.6038 3 0.00219321 -4.11591
15009 1 63.5831 28.3332 32.6038 3 0.00219321 -4.11591
15010 1 62.6599 28.3349 30.2646 3 0.00787771 -4.1127
15011 1 53.3337 26.3015 47.7904 3 9.91672e-05 -4.11967
15012 1 55.8064 26.3015 47.7904 3 9.91672e-05 -4.11967
15013 1 54.9074 26.3021 45.4538 3 0.000109496 -4.11957
15014 1 57.3801 26.3021 45.4538 3 0.000109496 -4.11957
15015 1 56.4802 26.3032 43.117 3 0.000133537 -4.11936
15016 1 58.953 26.3032 43.117 3 0.000133537 -4.11936
15017 1 58.0515 26.3049 40.7797 3 0.000180367 -4.11901
15018 1 60.5242 26.3049 40.7797 3 0.000180367 -4.11901
15019 1 59.62 26.307 38.4419 3 0.000271562 -4.11847
15020 1 62.0928 26.307 38.4419 3 0.000271562 -4.11847
15021 1 61.184 26.3093 36.1037 3 0.000464591 -4.11763
15022 1 63.6568 26.3093 36.1037 3 0.000464591 -4.11763
15023 1 62.7401 26.3112 33.7656 3 0.000951108 -4.11627
15024 1 56.5869 24.2818 46.6212 3 7.83887e-05 -4.11909
15025 1 59.0597 24.2818 46.6212 3 7.83887e-05 -4.11909
15026 1 58.1537 24.2827 44.2836 3 9.09683e-05 -4.11894
15027 1 60.6264 24.2827 44.2836 3 9.09683e-05 -4.11894
15028 1 59.7189 24.2841 41.9459 3 0.000116215 -4.11866
15029 1 62.1917 24.2841 41.9459 3 0.000116215 -4.11866
15030 1 61.2815 24.2858 39.6081 3 0.000164011 -4.11823
15031 1 63.7543 24.2858 39.6081 3 0.000164011 -4.11823
15032 1 62.8399 24.2874 37.2705 3 0.000260539 -4.11759
15033 1 58.2732 22.261 47.7898 3 5.81635e-05 -4.11867
15034 1 60.746 22.261 47.7898 3 5.81635e-05 -4.11867
15035 1 59.8347 22.2615 45.4521 3 6.41046e-05 -4.11857
15036 1 62.3075 22.2615 45.4521 3 6.41046e-05 -4.11857
15037 1 61.395 22.2625 43.1146 3 7.79181e-05 -4.11836
15038 1 63.8678 22.2625 43.1146 3 7.79181e-05 -4.11836
15039 1 62.953 22.2637 40.7772 3 0.000104555 -4.11804
15040 1 61.5219 20.2396 46.6214 3 4.80558e-05 -4.11824
15041 1 63.9947 20.2396 46.6214 3 4.80558e-05 -4.11824
15042 1 63.0779 20.2402 44.2843 3 5.54392e-05 -4.1181
15043 1 63.2141 18.2167 47.7904 3 3.80993e-05 -4.11796
15044 1 13.8053 62.5896 47.7929 5 6.11303 -3.54477
15045 1 16.2781 62.5896 47.7929 5 6.11303 -3.54477
15046 1 15.4517 62.5896 45.4616 5 6.11233 -3.54476
15047 1 17.9245 62.5896 45.4616 5 6.11233 -3.54476
15048 1 17.0985 62.5896 43.1302 5 6.11184 -3.54474
15049 1 19.5712 62.5896 43.1302 5 6.11184 -3.54474
15050 1 18.7456 62.5896 40.7989 5 12.2235 -3.54471
15051 1 21.2184 62.5896 40.7989 5 12.2235 -3.54471
15052 1 20.3933 62.5896 38.4675 5 12.2231 -3.54468
15053 1 22.8661 62.5896 38.4675 5 12.2231 -3.54468
15054 1 22.0416 62.5896 36.1361 5 12.2233 -3.54464
15055 1 24.5144 62.5896 36.1361 5 12.2233 -3.54464
15056 1 23.6906 62.5896 33.8048 5 12.2239 -3.54461
15057 1 26.1634 62.5896 33.8048 5 12.2239 -3.54461
15058 1 25.3402 62.5896 31.4734 5 12.2265 -3.54458
15059 1 27.813 62.5896 31.4734 5 12.2265 -3.54458
15060 1 26.9903 62.5896 29.142 5 12.2286 -3.54455
15061 1 29.4631 62.5896 29.142 5 12.2286 -3.54455
15062 1 28.6409 62.5896 26.8107 5 12.2309 -3.54454
15063 1 31.1136 62.5896 26.8107 5 12.2309 -3.54454
15064 1 30.2916 62.5896 24.4793 5 12.2318 -3.54453
15065 1 32.7644 62.5896 24.4793 5 12.2318 -3.54453
15066 1 31.9423 62.5896 22.1479 5 12.2309 -3.54454
15067 1 34.4151 62.5896 22.1479 5 12.2309 -3.54454
15068 1 33.5929 62.5896 19.8166 5 12.2286 -3.54455
15069 1 36.0657 62.5896 19.8166 5 12.2286 -3.54455
15070 1 35.243 62.5896 17.4852 5 12.2265 -3.54458
15071 1 37.7158 62.5896 17.4852 5 12.2265 -3.54458
15072 1 36.8926 62.5896 15.1539 5 12.2239 -3.54461
15073 1 39.3654 62.5896 15.1539 5 12.2239 -3.54461
15074 1 38.5416 62.5896 12.8225 5 12.2233 -3.54464
15075 1 41.0144 62.5896 12.8225 5 12.2233 -3.54464
15076 1 40.1899 62.5896 10.4911 5 12.2231 -3.54468
15077 1 42.6627 62.5896 10.4911 5 12.2231 -3.54468
15078 1 41.8376 62.5896 8.15977 5 12.2235 -3.54471
15079 1 44.3104 62.5896 8.15977 5 12.2235 -3.54471
15080 1 43.4848 62.5896 5.82841 5 6.11184 -3.54474
15081 1 45.9575 62.5896 5.82841 5 6.11184 -3.54474
15082 1 45.1315 62.5896 3.49704 5 6.11233 -3.54476
15083 1 47.6043 62.5896 3.49704 5 6.11233 -3.54476
15084 1 46.7779 62.5896 1.16568 5 6.11303 -3.54477
15085 1 49.2507 62.5896 1.16568 5 6.11303 -3.54477
15086 1 17.1007 60.5706 46.6273 3 1.02054e-06 -4.10666
15087 1 19.5734 60.5706 46.6273 3 1.02055e-06 -4.10666
15088 1 18.7466 60.5706 44.2959 3 1.02815e-06 -4.10664
15089 1 21.2194 60.5706 44.2959 3 1.02814e-06 -4.10664
15090 1 20.3931 60.5706 41.9645 3 1.04077e-06 -4.10661
15091 1 22.8659 60.5706 41.9645 3 1.04077e-06 -4.10661
15092 1 22.0401 60.5706 39.6332 3 1.05864e-06 -4.10657
15093 1 24.5129 60.5706 39.6332 3 1.05865e-06 -4.10657
15094 1 23.688 60.5706 37.3018 3 1.08242e-06 -4.10651
15095 1 26.1607 60.5706 37.3018 3 1.08242e-06 -4.10651
15096 1 25.3366 60.5706 34.9704 3 1.11275e-06 -4.10645
15097 1 27.8094 60.5706 34.9704 3 1.11276e-06 -4.10645
15098 1 26.9861 60.5706 32.6391 3 1.14887e-06 -4.10639
15099 1 29.4589 60.5706 32.6391 3 1.14889e-06 -4.10639
15100 1 28.6364 60.5706 30.3077 3 1.18714e-06 -4.10633
15101 1 31.1092 60.5706 30.3077 3 1.18713e-06 -4.10633
15102 1 30.2873 60.5706 27.9764 3 1.22038e-06 -4.1063
15103 1 32.7601 60.5706 27.9764 3 1.22041e-06 -4.1063
15104 1 31.9387 60.5706 25.645 3 1.24006e-06 -4.10627
15105 1 34.4114 60.5706 25.645 3 1.24004e-06 -4.10627
15106 1 33.5901 60.5706 23.3136 3 1.24005e-06 -4.10627
15107 1 36.0629 60.5706 23.3136 3 1.24004e-06 -4.10627
15108 1 35.2414 60.5706 20.9823 3 1.22039e-06 -4.1063
15109 1 37.7142 60.5706 20.9823 3 1.22041e-06 -4.1063
15110 1 36.8923 60.5706 18.6509 3 1.18715e-06 -4.10633
15111 1 39.3651 60.5706 18.6509 3 1.18712e-06 -4.10633
15112 1 38.5426 60.5706 16.3195 3 1.14889e-06 -4.10639
15113 1 41.0154 60.5706 16.3195 3 1.14887e-06 -4.10639
15114 1 40.1921 60.5706 13.9882 3 1.11276e-06 -4.10645
15115 1 42.6649 60.5706 13.9882 3 1.11275e-06 -4.10645
15116 1 41.8408 60.5706 11.6568 3 1.08242e-06 -4.10651
15117 1 44.3136 60.5706 11.6568 3 1.08242e-06 -4.10651
15118 1 43.4886 60.5706 9.32545 3 1.05865e-06 -4.10657
15119 1 45.9614 60.5706 9.32545 3 1.05862e-06 -4.10657
15120 1 45.1357 60.5706 6.99409 3 1.04077e-06 -4.10661
15121 1 47.6085 60.5706 6.99409 3 1.04075e-06 -4.10661
15122 1 46.7821 60.5706 4.66273 3 1.02815e-06 -4.10664
15123 1 49.2549 60.5706 4.66273 3 1.02817e-06 -4.10664
15124 1 48.4281 60.5706 2.33136 3 1.02054e-06 -4.10666
15125 1 50.9009 60.5706 2.33136 3 1.02054e-06 -4.10666
15126 1 50.0739 60.5706 0 3 1.01799e-06 -4.10667
15127 1 52.5467 60.5706 0 3 1.01801e-06 -4.10667
15128 1 18.7501 58.5516 47.7929 3 0.000133584 -4.1223
15129 1 21.2229 58.5516 47.7929 3 0.000133584 -4.1223
15130 1 20.3952 58.5516 45.4616 3 0.000125533 -4.12231
15131 1 22.868 58.5516 45.4616 3 0.000125533 -4.12231
15132 1 22.0407 58.5516 43.1302 3 0.000110457 -4.12234
15133 1 24.5135 58.5516 43.1302 3 0.000110457 -4.12234
15134 1 23.6869 58.5516 40.7989 3 9.07158e-05 -4.12237
15135 1 26.1597 58.5516 40.7989 3 9.07158e-05 -4.12237
15136 1 25.334 58.5516 38.4675 3 6.97659e-05 -4.1224
15137 1 27.8068 58.5516 38.4675 3 6.97658e-05 -4.1224
15138 1 26.9821 58.5516 36.1361 3 5.08317e-05 -4.12243
15139 1 29.4549 58.5516 36.1361 3 5.08316e-05 -4.12243
15140 1 28.6314 58.5516 33.8048 3 3.52551e-05 -4.12244
15141 1 31.1042 58.5516 33.8048 3 3.52551e-05 -4.12244
15142 1 30.2817 58.5516 31.4734 3 2.24526e-05 -4.12244
15143 1 32.7545 58.5516 31.4734 3 2.24526e-05 -4.12244
15144 1 31.9329 58.5516 29.142 3 1.17354e-05 -4.12244
15145 1 34.4057 58.5516 29.142 3 1.17353e-05 -4.12244
15146 1 33.5849 58.5516 26.8107 3 3.91932e-06 -4.12243
15147 1 36.0577 58.5516 26.8107 3 3.91931e-06 -4.12243
15148 1 35.2372 58.5516 24.4793 3 9.47301e-07 -4.12242
15149 1 37.71 58.5516 24.4793 3 9.47301e-07 -4.12242
15150 1 36.8895 58.5516 22.1479 3 3.91909e-06 -4.12243
15151 1 39.3623 58.5516 22.1479 3 3.91911e-06 -4.12243
15152 1 38.5414 58.5516 19.8166 3 1.1735e-05 -4.12244
15153 1 41.0142 58.5516 19.8166 3 1.17349e-05 -4.12244
15154 1 40.1927 58.5516 17.4852 3 2.24521e-05 -4.12244
15155 1 42.6654 58.5516 17.4852 3 2.24521e-05 -4.12244
15156 1 41.843 58.5516 15.1539 3 3.52548e-05 -4.12244
15157 1 44.3158 58.5516 15.1539 3 3.52549e-05 -4.12244
15158 1 43.4922 58.5516 12.8225 3 5.08313e-05 -4.12243
15159 1 45.965 58.5516 12.8225 3 5.08313e-05 -4.12243
15160 1 45.1403 58.5516 10.4911 3 6.97657e-05 -4.1224
15161 1 47.6131 58.5516 10.4911 3 6.97657e-05 -4.1224
15162 1 46.7874 58.5516 8.15977 3 9.07157e-05 -4.12237
15163 1 49.2602 58.5516 8.15977 3 9.07158e-05 -4.12237
15164 1 48.4336 58.5516 5.82841 3 0.000110457 -4.12234
15165 1 50.9064 58.5516 5.82841 3 0.000110457 -4.12234
15166 1 50.0791 58.5516 3.49704 3 0.000125533 -4.12231
15167 1 52.5519 58.5516 3.49704 3 0.000125533 -4.12231
15168 1 51.7242 58.5516 1.16568 3 0.000133584 -4.1223
15169 1 54.197 58.5516 1.16568 3 0.000133584 -4.1223
15170 1 22.0447 56.5406 46.627 3 2.19143e-06 -4.12177
15171 1 24.5175 56.5406 46.627 3 2.19144e-06 -4.12177
15172 1 23.6894 56.5402 44.2953 3 3.49757e-06 -4.12182
15173 1 26.1621 56.5402 44.2953 3 3.49758e-06 -4.12182
15174 1 25.3348 56.5395 41.9635 3 5.88395e-06 -4.1219
15175 1 27.8076 56.5395 41.9635 3 5.88395e-06 -4.1219
15176 1 26.9814 56.5386 39.6317 3 9.06613e-06 -4.122
15177 1 29.4542 56.5386 39.6317 3 9.06614e-06 -4.122
15178 1 28.6292 56.5374 37.3 3 1.18619e-05 -4.12212
15179 1 31.102 56.5374 37.3 3 1.18619e-05 -4.12212
15180 1 30.2783 56.5361 34.9684 3 1.2762e-05 -4.12223
15181 1 32.7511 56.5361 34.9684 3 1.27621e-05 -4.12223
15182 1 31.9285 56.5348 32.637 3 1.11233e-05 -4.12233
15183 1 34.4013 56.5348 32.637 3 1.11233e-05 -4.12233
15184 1 33.5797 56.5336 30.3059 3 7.59862e-06 -4.1224
15185 1 36.0524 56.5336 30.3059 3 7.59861e-06 -4.1224
15186 1 35.2315 56.5327 27.9752 3 3.91337e-06 -4.12244
15187 1 37.7043 56.5327 27.9752 3 3.91338e-06 -4.12244
15188 1 36.8838 56.5323 25.6446 3 1.63777e-06 -4.12246
15189 1 39.3565 56.5323 25.6446 3 1.63777e-06 -4.12246
15190 1 38.5361 56.5323 23.3141 3 1.63778e-06 -4.12246
15191 1 41.0089 56.5323 23.3141 3 1.63777e-06 -4.12246
15192 1 40.1884 56.5327 20.9835 3 3.91338e-06 -4.12244
15193 1 42.6612 56.5327 20.9835 3 3.91337e-06 -4.12244
15194 1 41.8403 56.5336 18.6527 3 7.59861e-06 -4.1224
15195 1 44.313 56.5336 18.6527 3 7.59861e-06 -4.1224
15196 1 43.4914 56.5348 16.3216 3 1.11233e-05 -4.12233
15197 1 45.9642 56.5348 16.3216 3 1.11233e-05 -4.12233
15198 1 45.1416 56.5361 13.9902 3 1.27621e-05 -4.12223
15199 1 47.6144 56.5361 13.9902 3 1.27621e-05 -4.12223
15200 1 46.7907 56.5374 11.6586 3 1.18619e-05 -4.12212
15201 1 49.2635 56.5374 11.6586 3 1.18619e-05 -4.12212
15202 1 48.4385 56.5386 9.32688 3 9.06615e-06 -4.122
15203 1 50.9113 56.5386 9.32688 3 9.06615e-06 -4.122
15204 1 50.0851 56.5395 6.99509 3 5.88395e-06 -4.1219
15205 1 52.5579 56.5395 6.99509 3 5.88395e-06 -4.1219
15206 1 51.7306 56.5402 4.66334 3 3.49757e-06 -4.12182
15207 1 54.2033 56.5402 4.66334 3 3.49758e-06 -4.12182
15208 1 53.3752 56.5406 2.33165 3 2.19145e-06 -4.12177
15209 1 55.848 56.5406 2.33165 3 2.19143e-06 -4.12177
15210 1 55.0194 56.5407 48.9586 3 1.81015e-06 -4.12175
15211 1 57.4922 56.5407 48.9586 3 1.81017e-06 -4.12175
15212 1 23.6948 54.5298 47.7928 3 3.89996e-06 -4.12217
15213 1 26.1676 54.5298 47.7928 3 3.89996e-06 -4.12217
15214 1 25.3382 54.5293 45.4612 3 4.47753e-06 -4.12218
15215 1 27.811 54.5293 45.4612 3 4.47753e-06 -4.12218
15216 1 26.9824 54.5283 43.1295 3 5.81593e-06 -4.12221
15217 1 29.4552 54.5283 43.1295 3 5.81593e-06 -4.12221
15218 1 28.6279 54.5268 40.7976 3 8.05886e-06 -4.12226
15219 1 31.1007 54.5268 40.7976 3 8.05885e-06 -4.12226
15220 1 30.2749 54.5247 38.4656 3 1.0958e-05 -4.12232
15221 1 32.7477 54.5247 38.4656 3 1.0958e-05 -4.12232
15222 1 31.9236 54.5221 36.1337 3 1.34554e-05 -4.12238
15223 1 34.3964 54.5221 36.1337 3 1.34554e-05 -4.12238
15224 1 33.5737 54.5193 33.802 3 1.40704e-05 -4.12243
15225 1 36.0465 54.5193 33.802 3 1.40704e-05 -4.12243
15226 1 35.2251 54.5166 31.4707 3 1.19593e-05 -4.12246
15227 1 37.6979 54.5166 31.4707 3 1.19593e-05 -4.12246
15228 1 36.8772 54.5144 29.1399 3 7.87667e-06 -4.12248
15229 1 39.35 54.5144 29.1399 3 7.87667e-06 -4.12248
15230 1 38.5299 54.5129 26.8095 3 3.97123e-06 -4.12249
15231 1 41.0027 54.5129 26.8095 3 3.97123e-06 -4.12249
15232 1 40.1827 54.5124 24.4793 3 2.41598e-06 -4.12249
15233 1 42.6555 54.5124 24.4793 3 2.41598e-06 -4.12249
15234 1 41.8356 54.5129 22.1492 3 3.97122e-06 -4.12249
15235 1 44.3084 54.5129 22.1492 3 3.97123e-06 -4.12249
15236 1 43.4883 54.5144 19.8188 3 7.87667e-06 -4.12248
15237 1 45.961 54.5144 19.8188 3 7.87666e-06 -4.12248
15238 1 45.1404 54.5166 17.4879 3 1.19593e-05 -4.12246
15239 1 47.6132 54.5166 17.4879 3 1.19593e-05 -4.12246
15240 1 46.7917 54.5193 15.1566 3 1.40704e-05 -4.12243
15241 1 49.2645 54.5193 15.1566 3 1.40704e-05 -4.12243
15242 1 48.4419 54.5221 12.8249 3 1.34554e-05 -4.12238
15243 1 50.9147 54.5221 12.8249 3 1.34554e-05 -4.12238
15244 1 50.0906 54.5247 10.493 3 1.0958e-05 -4.12232
15245 1 52.5633 54.5247 10.493 3 1.0958e-05 -4.12232
15246 1 51.7376 54.5268 8.16101 3 8.05887e-06 -4.12226
15247 1 54.2104 54.5268 8.16101 3 8.05887e-06 -4.12226
15248 1 53.3831 54.5283 5.82911 3 5.81593e-06 -4.12221
15249 1 55.8559 54.5283 5.82911 3 5.81593e-06 -4.12221
15250 1 55.0273 54.5293 3.49738 3 4.47753e-06 -4.12218
15251 1 57.5001 54.5293 3.49738 3 4.47753e-06 -4.12218
15252 1 56.6707 54.5298 1.16578 3 3.89996e-06 -4.12217
15253 1 59.1435 54.5298 1.16578 3 3.89996e-06 -4.12217
15254 1 26.9878 52.5183 46.6275 3 7.52735e-06 -4.12216
15255 1 29.4606 52.5183 46.6275 3 7.52735e-06 -4.12216
15256 1 28.6302 52.5174 44.2961 3 8.29609e-06 -4.12218
15257 1 31.103 52.5174 44.2961 3 8.29609e-06 -4.12218
15258 1 30.274 52.5157 41.9645 3 9.67675e-06 -4.12221
15259 1 32.7467 52.5157 41.9645 3 9.67675e-06 -4.12221
15260 1 31.9195 52.5132 39.6326 3 1.15574e-05 -4.12226
15261 1 34.3923 52.5132 39.6326 3 1.15574e-05 -4.12226
15262 1 33.5672 52.5098 37.3005 3 1.40121e-05 -4.12233
15263 1 36.04 52.5098 37.3005 3 1.40121e-05 -4.12233
15264 1 35.217 52.5057 34.9684 3 1.63502e-05 -4.12239
15265 1 37.6898 52.5057 34.9684 3 1.63502e-05 -4.12239
15266 1 36.8685 52.5014 32.6366 3 1.70391e-05 -4.12245
15267 1 39.3412 52.5014 32.6366 3 1.70391e-05 -4.12245
15268 1 38.5212 52.4973 30.3053 3 1.49964e-05 -4.12248
15269 1 40.994 52.4973 30.3053 3 1.49964e-05 -4.12248
15270 1 40.1747 52.4943 27.9746 3 1.09793e-05 -4.12249
15271 1 42.6475 52.4943 27.9746 3 1.09793e-05 -4.12249
15272 1 41.8285 52.4926 25.6444 3 7.73925e-06 -4.12249
15273 1 44.3013 52.4926 25.6444 3 7.73925e-06 -4.12249
15274 1 43.4825 52.4926 23.3143 3 7.73924e-06 -4.12249
15275 1 45.9553 52.4926 23.3143 3 7.73925e-06 -4.12249
15276 1 45.1364 52.4943 20.984 3 1.09792e-05 -4.12249
15277 1 47.6092 52.4943 20.984 3 1.09792e-05 -4.12249
15278 1 46.7899 52.4973 18.6533 3 1.49964e-05 -4.12248
15279 1 49.2626 52.4973 18.6533 3 1.49964e-05 -4.12248
15280 1 48.4426 52.5014 16.322 3 1.70391e-05 -4.12245
15281 1 50.9154 52.5014 16.322 3 1.70391e-05 -4.12245
15282 1 50.0941 52.5057 13.9902 3 1.63502e-05 -4.12239
15283 1 52.5668 52.5057 13.9902 3 1.63502e-05 -4.12239
15284 1 51.7438 52.5098 11.6581 3 1.40121e-05 -4.12233
15285 1 54.2166 52.5098 11.6581 3 1.40121e-05 -4.12233
15286 1 53.3915 52.5132 9.32602 3 1.15574e-05 -4.12226
15287 1 55.8643 52.5132 9.32602 3 1.15574e-05 -4.12226
15288 1 55.0371 52.5157 6.99411 3 9.67676e-06 -4.12221
15289 1 57.5099 52.5157 6.99411 3 9.67676e-06 -4.12221
15290 1 56.6809 52.5174 4.66251 3 8.29609e-06 -4.12218
15291 1 59.1536 52.5174 4.66251 3 8.29609e-06 -4.12218
15292 1 58.3233 52.5183 2.33117 3 7.52735e-06 -4.12216
15293 1 60.7961 52.5183 2.33117 3 7.52735e-06 -4.12216
15294 1 59.965 52.5186 48.9586 3 7.22158e-06 -4.12216
15295 1 62.4378 52.5186 48.9586 3 7.22159e-06 -4.12216
15296 1 28.6387 50.5068 47.7934 3 1.18952e-05 -4.12215
15297 1 31.1115 50.5068 47.7934 3 1.18952e-05 -4.12215
15298 1 30.2789 50.5062 45.4628 3 1.26248e-05 -4.12216
15299 1 32.7517 50.5062 45.4628 3 1.26248e-05 -4.12216
15300 1 31.9203 50.5048 43.1318 3 1.38767e-05 -4.12217
15301 1 34.3931 50.5048 43.1318 3 1.38767e-05 -4.12217
15302 1 33.5636 50.5023 40.8005 3 1.53589e-05 -4.1222
15303 1 36.0364 50.5023 40.8005 3 1.53589e-05 -4.1222
15304 1 35.2095 50.4987 38.4686 3 1.67305e-05 -4.12225
15305 1 37.6822 50.4987 38.4686 3 1.67305e-05 -4.12225
15306 1 36.8581 50.4938 36.1363 3 1.86664e-05 -4.12233
15307 1 39.3309 50.4938 36.1363 3 1.86664e-05 -4.12233
15308 1 38.5093 50.488 33.804 3 2.12611e-05 -4.12241
15309 1 40.9821 50.488 33.804 3 2.12611e-05 -4.12241
15310 1 40.1625 50.4822 31.472 3 2.30165e-05 -4.12246
15311 1 42.6353 50.4822 31.472 3 2.30165e-05 -4.12246
15312 1 41.8172 50.477 29.1406 3 2.21126e-05 -4.12249
15313 1 44.29 50.477 29.1406 3 2.21126e-05 -4.12249
15314 1 43.4726 50.4735 26.8098 3 1.91502e-05 -4.1225
15315 1 45.9454 50.4735 26.8098 3 1.91502e-05 -4.1225
15316 1 45.1283 50.4723 24.4793 3 1.74186e-05 -4.1225
15317 1 47.6011 50.4723 24.4793 3 1.74186e-05 -4.1225
15318 1 46.784 50.4735 22.1489 3 1.91502e-05 -4.1225
15319 1 49.2568 50.4735 22.1489 3 1.91502e-05 -4.1225
15320 1 48.4394 50.477 19.818 3 2.21126e-05 -4.12249
15321 1 50.9122 50.477 19.818 3 2.21126e-05 -4.12249
15322 1 50.0941 50.4822 17.4866 3 2.30165e-05 -4.12246
15323 1 52.5669 50.4822 17.4866 3 2.30165e-05 -4.12246
15324 1 51.7473 50.488 15.1546 3 2.12611e-05 -4.12241
15325 1 54.2201 50.488 15.1546 3 2.12611e-05 -4.12241
15326 1 53.3985 50.4938 12.8223 3 1.86664e-05 -4.12233
15327 1 55.8713 50.4938 12.8223 3 1.86664e-05 -4.12233
15328 1 55.0472 50.4987 10.4901 3 1.67305e-05 -4.12225
15329 1 57.5199 50.4987 10.4901 3 1.67305e-05 -4.12225
15330 1 56.693 50.5023 8.15817 3 1.53589e-05 -4.1222
15331 1 59.1658 50.5023 8.15817 3 1.53589e-05 -4.1222
15332 1 58.3363 50.5048 5.82678 3 1.38767e-05 -4.12217
15333 1 60.8091 50.5048 5.82678 3 1.38767e-05 -4.12217
15334 1 59.9777 50.5062 3.49585 3 1.26248e-05 -4.12216
15335 1 62.4505 50.5062 3.49585 3 1.26248e-05 -4.12216
15336 1 61.6179 50.5068 1.16525 3 1.18952e-05 -4.12215
15337 1 64.0907 50.5068 1.16525 3 1.18952e-05 -4.12215
15338 1 31.9292 48.4942 46.629 3 1.78386e-05 -4.12214
15339 1 34.4019 48.4942 46.629 3 1.78386e-05 -4.12214
15340 1 33.5676 48.4932 44.299 3 1.96273e-05 -4.12214
15341 1 36.0404 48.4932 44.299 3 1.96273e-05 -4.12214
15342 1 35.2079 48.4913 41.9686 3 2.20453e-05 -4.12215
15343 1 37.6807 48.4913 41.9686 3 2.20453e-05 -4.12215
15344 1 36.8509 48.4881 39.6374 3 2.41335e-05 -4.12217
15345 1 39.3237 48.4881 39.6374 3 2.41335e-05 -4.12217
15346 1 38.4973 48.4832 37.3054 3 2.49439e-05 -4.12223
15347 1 40.9701 48.4832 37.3054 3 2.49439e-05 -4.12223
15348 1 40.1473 48.4767 34.9729 3 2.64238e-05 -4.12233
15349 1 42.6201 48.4767 34.9729 3 2.64238e-05 -4.12233
15350 1 41.8006 48.4693 32.6402 3 3.04308e-05 -4.12241
15351 1 44.2733 48.4693 32.6402 3 3.04308e-05 -4.12241
15352 1 43.4563 48.4619 30.3078 3 3.52972e-05 -4.12247
15353 1 45.9291 48.4619 30.3078 3 3.52972e-05 -4.12247
15354 1 45.1137 48.456 27.976 3 3.74501e-05 -4.1225
15355 1 47.5865 48.456 27.976 3 3.74501e-05 -4.1225
15356 1 46.7719 48.4526 25.6448 3 3.66337e-05 -4.12251
15357 1 49.2447 48.4526 25.6448 3 3.66337e-05 -4.12251
15358 1 48.4303 48.4526 23.3138 3 3.66337e-05 -4.12251
15359 1 50.9031 48.4526 23.3138 3 3.66337e-05 -4.12251
15360 1 50.0885 48.456 20.9826 3 3.745e-05 -4.1225
15361 1 52.5612 48.456 20.9826 3 3.745e-05 -4.1225
15362 1 51.7458 48.4619 18.6508 3 3.52972e-05 -4.12247
15363 1 54.2186 48.4619 18.6508 3 3.52972e-05 -4.12247
15364 1 53.4016 48.4693 16.3184 3 3.04307e-05 -4.12241
15365 1 55.8744 48.4693 16.3184 3 3.04307e-05 -4.12241
15366 1 55.0549 48.4767 13.9857 3 2.64237e-05 -4.12233
15367 1 57.5277 48.4767 13.9857 3 2.64237e-05 -4.12233
15368 1 56.7049 48.4832 11.6532 3 2.49439e-05 -4.12223
15369 1 59.1777 48.4832 11.6532 3 2.49439e-05 -4.12223
15370 1 58.3513 48.4881 9.32123 3 2.41335e-05 -4.12217
15371 1 60.8241 48.4881 9.32123 3 2.41335e-05 -4.12217
15372 1 59.9943 48.4913 6.99006 3 2.20453e-05 -4.12215
15373 1 62.467 48.4913 6.99006 3 2.20453e-05 -4.12215
15374 1 61.6345 48.4932 4.6596 3 1.96273e-05 -4.12214
15375 1 64.1073 48.4932 4.6596 3 1.96273e-05 -4.12214
15376 1 63.273 48.4942 2.32967 3 1.78386e-05 -4.12214
15377 1 33.5817 46.4812 47.7943 3 2.36101e-05 -4.12212
15378 1 36.0545 46.4812 47.7943 3 2.36101e-05 -4.12212
15379 1 35.2169 46.4807 45.4655 3 2.56145e-05 -4.12212
15380 1 37.6897 46.4807 45.4655 3 2.56145e-05 -4.12212
15381 1 36.8535 46.4794 43.1363 3 2.95039e-05 -4.12211
15382 1 39.3263 46.4794 43.1363 3 2.95039e-05 -4.12211
15383 1 38.4927 46.4771 40.8063 3 3.46056e-05 -4.1221
15384 1 40.9655 46.4771 40.8063 3 3.46056e-05 -4.1221
15385 1 40.1355 46.4731 38.4753 3 3.8725e-05 -4.12212
15386 1 42.6082 46.4731 38.4753 3 3.8725e-05 -4.12212
15387 1 41.7827 46.467 36.1432 3 3.9276e-05 -4.12218
15388 1 44.2555 46.467 36.1432 3 3.9276e-05 -4.12218
15389 1 43.4348 46.4588 33.8101 3 4.07035e-05 -4.12231
15390 1 45.9076 46.4588 33.8101 3 4.07035e-05 -4.12231
15391 1 45.0911 46.4495 31.4768 3 4.82067e-05 -4.1224
15392 1 47.5639 46.4495 31.4768 3 4.82067e-05 -4.1224
15393 1 46.7505 46.4409 29.1438 3 6.04472e-05 -4.12248
15394 1 49.2233 46.4409 29.1438 3 6.04472e-05 -4.12248
15395 1 48.4118 46.4347 26.8113 3 6.90738e-05 -4.12252
15396 1 50.8845 46.4347 26.8113 3 6.90738e-05 -4.12252
15397 1 50.0739 46.4324 24.4793 3 7.12415e-05 -4.12253
15398 1 52.5467 46.4324 24.4793 3 7.12415e-05 -4.12253
15399 1 51.736 46.4347 22.1473 3 6.90738e-05 -4.12252
15400 1 54.2088 46.4347 22.1473 3 6.90738e-05 -4.12252
15401 1 53.3973 46.4409 19.8148 3 6.04472e-05 -4.12248
15402 1 55.8701 46.4409 19.8148 3 6.04472e-05 -4.12248
15403 1 55.0567 46.4495 17.4818 3 4.82066e-05 -4.1224
15404 1 57.5294 46.4495 17.4818 3 4.82066e-05 -4.1224
15405 1 56.7129 46.4588 15.1485 3 4.07035e-05 -4.12231
15406 1 59.1857 46.4588 15.1485 3 4.07035e-05 -4.12231
15407 1 58.365 46.467 12.8155 3 3.92759e-05 -4.12218
15408 1 60.8378 46.467 12.8155 3 3.92759e-05 -4.12218
15409 1 60.0123 46.4731 10.4833 3 3.8725e-05 -4.12212
15410 1 62.4851 46.4731 10.4833 3 3.8725e-05 -4.12212
15411 1 61.6551 46.4771 8.15231 3 3.46057e-05 -4.1221
15412 1 64.1279 46.4771 8.15231 3 3.46057e-05 -4.1221
15413 1 63.2942 46.4794 5.82233 3 2.95039e-05 -4.12211
15414 1 36.8687 44.4667 46.631 3 3.16705e-05 -4.12209
15415 1 39.3415 44.4667 46.631 3 3.16705e-05 -4.12209
15416 1 38.5012 44.4662 44.3031 3 3.62616e-05 -4.12207
15417 1 40.974 44.4662 44.3031 3 3.62616e-05 -4.12207
15418 1 40.1359 44.4648 41.9745 3 4.42897e-05 -4.12205
15419 1 42.6087 44.4648 41.9745 3 4.42897e-05 -4.12205
15420 1 41.7739 44.4622 39.645 3 5.52161e-05 -4.12202
15421 1 44.2467 44.4622 39.645 3 5.52161e-05 -4.12202
15422 1 43.4167 44.4575 37.3141 3 6.50011e-05 -4.12201
15423 1 45.8895 44.4575 37.3141 3 6.50011e-05 -4.12201
15424 1 45.0655 44.4501 34.9816 3 6.6379e-05 -4.12208
15425 1 47.5383 44.4501 34.9816 3 6.6379e-05 -4.12208
15426 1 46.7208 44.44 32.6477 3 6.90114e-05 -4.12229
15427 1 49.1935 44.44 32.6477 3 6.90114e-05 -4.12229
15428 1 48.3814 44.429 30.3136 3 8.3298e-05 -4.12236
15429 1 50.8542 44.429 30.3136 3 8.3298e-05 -4.12236
15430 1 50.046 44.4195 27.9795 3 0.000113302 -4.12248
15431 1 52.5187 44.4195 27.9795 3 0.000113302 -4.12248
15432 1 51.7129 44.4138 25.646 3 0.000134837 -4.12254
15433 1 54.1856 44.4138 25.646 3 0.000134837 -4.12254
15434 1 53.3805 44.4138 23.3127 3 0.000134837 -4.12254
15435 1 55.8533 44.4138 23.3127 3 0.000134837 -4.12254
15436 1 55.0474 44.4195 20.9791 3 0.000113302 -4.12248
15437 1 57.5201 44.4195 20.9791 3 0.000113302 -4.12248
15438 1 56.7119 44.429 18.6451 3 8.3298e-05 -4.12236
15439 1 59.1847 44.429 18.6451 3 8.3298e-05 -4.12236
15440 1 58.3726 44.44 16.3109 3 6.90114e-05 -4.12229
15441 1 60.8453 44.44 16.3109 3 6.90114e-05 -4.12229
15442 1 60.0278 44.4501 13.9771 3 6.6379e-05 -4.12208
15443 1 62.5006 44.4501 13.9771 3 6.6379e-05 -4.12208
15444 1 61.6766 44.4575 11.6445 3 6.50011e-05 -4.12201
15445 1 64.1494 44.4575 11.6445 3 6.50011e-05 -4.12201
15446 1 63.3194 44.4622 9.31364 3 5.52162e-05 -4.12202
15447 1 38.5237 42.4514 47.7953 3 3.88216e-05 -4.12204
15448 1 40.9965 42.4514 47.7953 3 3.88216e-05 -4.12204
15449 1 40.1518 42.4513 45.4685 3 4.29685e-05 -4.12203
15450 1 42.6246 42.4513 45.4685 3 4.29685e-05 -4.12203
15451 1 41.7815 42.4508 43.1414 3 5.21401e-05 -4.122
15452 1 44.2543 42.4508 43.1414 3 5.21401e-05 -4.122
15453 1 43.414 42.4495 40.8135 3 6.79327e-05 -4.12195
15454 1 45.8867 42.4495 40.8135 3 6.79327e-05 -4.12195
15455 1 45.0508 42.4468 38.4844 3 9.11994e-05 -4.12188
15456 1 47.5236 42.4468 38.4844 3 9.11994e-05 -4.12188
15457 1 46.6939 42.4416 36.1535 3 0.000115746 -4.12183
15458 1 49.1667 42.4416 36.1535 3 0.000115746 -4.12183
15459 1 48.3451 42.4328 33.8204 3 0.000121899 -4.12189
15460 1 50.8179 42.4328 33.8204 3 0.000121899 -4.12189
15461 1 50.0052 42.4205 31.4854 3 0.000131069 -4.12226
15462 1 52.478 42.4205 31.4854 3 0.000131069 -4.12226
15463 1 51.6722 42.408 29.1501 3 0.000154237 -4.12225
15464 1 54.145 42.408 29.1501 3 0.000154237 -4.12225
15465 1 53.3444 42.3982 26.8146 3 0.000231706 -4.12249
15466 1 55.8172 42.3982 26.8146 3 0.000231706 -4.12249
15467 1 55.0194 42.3944 24.4793 3 0.00027212 -4.12258
15468 1 57.4922 42.3944 24.4793 3 0.00027212 -4.12258
15469 1 56.6944 42.3982 22.144 3 0.000231706 -4.12249
15470 1 59.1672 42.3982 22.144 3 0.000231706 -4.12249
15471 1 58.3667 42.408 19.8085 3 0.000154237 -4.12225
15472 1 60.8395 42.408 19.8085 3 0.000154237 -4.12225
15473 1 60.0336 42.4205 17.4732 3 0.000131069 -4.12226
15474 1 62.5064 42.4205 17.4732 3 0.000131069 -4.12226
15475 1 61.6938 42.4328 15.1382 3 0.000121899 -4.12189
15476 1 64.1666 42.4328 15.1382 3 0.000121899 -4.12189
15477 1 63.345 42.4416 12.8051 3 0.000115746 -4.12183
15478 1 41.806 40.4348 46.6326 3 5.18024e-05 -4.12196
15479 1 44.2788 40.4348 46.6326 3 5.18024e-05 -4.12196
15480 1 43.4302 40.4348 44.3065 3 6.06629e-05 -4.12193
15481 1 45.903 40.4348 44.3065 3 6.06629e-05 -4.12193
15482 1 45.0567 40.4346 41.9799 3 7.80201e-05 -4.12187
15483 1 47.5294 40.4346 41.9799 3 7.80201e-05 -4.12187
15484 1 46.6867 40.4336 39.6526 3 0.000108536 -4.12178
15485 1 49.1595 40.4336 39.6526 3 0.000108536 -4.12178
15486 1 48.3223 40.431 37.324 3 0.000158298 -4.12165
15487 1 50.795 40.431 37.324 3 0.000158298 -4.12165
15488 1 49.966 40.4256 34.9932 3 0.000221815 -4.1215
15489 1 52.4388 40.4256 34.9932 3 0.000221815 -4.1215
15490 1 51.621 40.4155 32.6594 3 0.000248953 -4.12152
15491 1 54.0938 40.4155 32.6594 3 0.000248953 -4.12152
15492 1 53.2887 40.4005 30.3228 3 0.000290858 -4.12227
15493 1 55.7615 40.4005 30.3228 3 0.000290857 -4.12227
15494 1 54.9651 40.3872 27.9861 3 0.000307363 -4.122
15495 1 57.4379 40.3872 27.9861 3 0.000307363 -4.122
15496 1 56.6489 40.3784 25.6483 3 0.000523821 -4.12257
15497 1 59.1217 40.3784 25.6483 3 0.000523821 -4.12257
15498 1 58.3356 40.3784 23.3103 3 0.000523821 -4.12257
15499 1 60.8083 40.3784 23.3103 3 0.000523821 -4.12257
15500 1 60.0194 40.3872 20.9725 3 0.000307363 -4.122
15501 1 62.4921 40.3872 20.9725 3 0.000307363 -4.122
15502 1 61.6957 40.4005 18.6358 3 0.000290858 -4.12227
15503 1 64.1685 40.4005 18.6358 3 0.000290858 -4.12227
15504 1 63.3635 40.4155 16.2992 3 0.000248953 -4.12152
15505 1 43.4645 38.4171 47.7957 3 6.55492e-05 -4.12185
15506 1 45.9373 38.4171 47.7957 3 6.55492e-05 -4.12185
15507 1 45.0829 38.4173 45.4699 3 7.3238e-05 -4.12182
15508 1 47.5557 38.4173 45.4699 3 7.3238e-05 -4.12182
15509 1 46.7028 38.4176 43.144 3 9.07642e-05 -4.12177
15510 1 49.1756 38.4176 43.144 3 9.07642e-05 -4.12177
15511 1 48.3254 38.4177 40.8179 3 0.00012367 -4.12167
15512 1 50.7982 38.4177 40.8179 3 0.00012367 -4.12167
15513 1 49.9525 38.4172 38.4912 3 0.000183731 -4.12151
15514 1 52.4253 38.4172 38.4912 3 0.000183731 -4.12151
15515 1 51.5865 38.4151 36.1632 3 0.000293667 -4.12125
15516 1 54.0593 38.4151 36.1632 3 0.000293667 -4.12125
15517 1 53.2312 38.4098 33.8328 3 0.000468568 -4.12089
15518 1 55.704 38.4098 33.8328 3 0.000468568 -4.12089
15519 1 54.892 38.3984 31.4983 3 0.00059098 -4.12071
15520 1 57.3648 38.3984 31.4983 3 0.00059098 -4.12071
15521 1 56.5722 38.3799 29.1594 3 0.000820378 -4.12241
15522 1 59.045 38.3799 29.1594 3 0.000820378 -4.12241
15523 1 58.263 38.3679 26.8212 3 0.000708783 -4.12138
15524 1 60.7358 38.3679 26.8212 3 0.000708783 -4.12138
15525 1 59.965 38.3626 24.4793 3 0.00124499 -4.12296
15526 1 62.4378 38.3626 24.4793 3 0.00124499 -4.12296
15527 1 61.667 38.3679 22.1374 3 0.000708783 -4.12138
15528 1 64.1398 38.3679 22.1374 3 0.000708783 -4.12138
15529 1 63.3578 38.3799 19.7992 3 0.000820378 -4.12241
15530 1 46.7403 36.3986 46.6323 3 9.18568e-05 -4.12168
15531 1 49.2131 36.3986 46.6323 3 9.18568e-05 -4.12168
15532 1 48.3532 36.399 44.306 3 0.000108355 -4.12161
15533 1 50.8259 36.399 44.306 3 0.000108355 -4.12161
15534 1 49.9679 36.3997 41.9799 3 0.000142159 -4.1215
15535 1 52.4407 36.3997 41.9799 3 0.000142159 -4.1215
15536 1 51.5858 36.4003 39.6538 3 0.000206701 -4.12131
15537 1 54.0586 36.4003 39.6538 3 0.000206701 -4.12131
15538 1 53.2089 36.4004 37.3276 3 0.000333509 -4.12101
15539 1 55.6817 36.4004 37.3276 3 0.000333509 -4.12101
15540 1 54.8405 36.3992 35.0006 3 0.000598223 -4.12049
15541 1 57.3133 36.3992 35.0006 3 0.000598223 -4.12049
15542 1 56.4863 36.3945 32.6711 3 0.00114061 -4.1196
15543 1 58.9591 36.3945 32.6711 3 0.00114061 -4.1196
15544 1 58.1559 36.3823 30.3364 3 0.00177736 -4.11866
15545 1 60.6287 36.3823 30.3364 3 0.00177736 -4.11866
15546 1 59.8586 36.3588 27.9942 3 0.00336124 -4.12315
15547 1 62.3314 36.3588 27.9942 3 0.00336124 -4.12315
15548 1 61.5729 36.3546 25.6544 3 0.00208926 -4.12065
15549 1 64.0457 36.3546 25.6544 3 0.00208926 -4.12065
15550 1 63.3027 36.3546 23.3043 3 0.00208926 -4.12065
15551 1 48.4036 34.3792 47.7948 3 0.000115414 -4.12147
15552 1 50.8763 34.3792 47.7948 3 0.000115414 -4.12147
15553 1 50.0088 34.3796 45.4671 3 0.000127924 -4.12141
15554 1 52.4816 34.3796 45.4671 3 0.000127924 -4.12141
15555 1 51.6151 34.3803 43.1397 3 0.000158073 -4.12129
15556 1 54.0879 34.3803 43.1397 3 0.000158073 -4.12129
15557 1 53.2234 34.3813 40.8125 3 0.000219406 -4.12107
15558 1 55.6962 34.3813 40.8125 3 0.000219406 -4.12107
15559 1 54.835 34.3823 38.4858 3 0.00034635 -4.12071
15560 1 57.3078 34.3823 38.4858 3 0.00034635 -4.12071
15561 1 56.4521 34.3831 36.1595 3 0.000630913 -4.12007
15562 1 58.9249 34.3831 36.1595 3 0.000630913 -4.12007
15563 1 58.0789 34.383 33.8334 3 0.00135468 -4.11886
15564 1 60.5517 34.383 33.8334 3 0.00135468 -4.11886
15565 1 59.724 34.3799 31.5058 3 0.00346241 -4.11633
15566 1 62.1967 34.3799 31.5058 3 0.00346241 -4.11633
15567 1 61.407 34.3684 29.1724 3 0.00841238 -4.11182
15568 1 63.8798 34.3684 29.1724 3 0.00841238 -4.11182
15569 1 63.1603 34.339 26.8251 3 0.0361452 -4.12628
15570 1 51.6711 32.3599 46.6288 3 0.000142377 -4.12113
15571 1 54.1439 32.3599 46.6288 3 0.000142377 -4.12113
15572 1 53.2688 32.3605 44.299 3 0.000163748 -4.12102
15573 1 55.7416 32.3605 44.299 3 0.000163748 -4.12102
15574 1 54.8672 32.3615 41.9694 3 0.000209208 -4.12082
15575 1 57.34 32.3615 41.9694 3 0.000209208 -4.12082
15576 1 56.4671 32.3628 39.64 3 0.00030275 -4.12045
15577 1 58.9399 32.3628 39.64 3 0.00030275 -4.12045
15578 1 58.0695 32.3642 37.3111 3 0.00051239 -4.11977
15579 1 60.5423 32.3642 37.3111 3 0.00051239 -4.11977
15580 1 59.6762 32.3657 34.9828 3 0.00106837 -4.11841
15581 1 62.149 32.3657 34.9828 3 0.00106837 -4.11841
15582 1 61.2913 32.3668 32.6555 3 0.00296101 -4.11528
15583 1 63.764 32.3668 32.6555 3 0.00296101 -4.11528
15584 1 62.9258 32.3659 30.3292 3 0.0128667 -4.10575
15585 1 53.3412 30.3403 47.7924 3 0.000141586 -4.12074
15586 1 55.814 30.3403 47.7924 3 0.000141586 -4.12074
15587 1 54.9304 30.3408 45.46 3 0.000154623 -4.12067
15588 1 57.4031 30.3408 45.46 3 0.000154623 -4.12067
15589 1 56.5195 30.3417 43.1275 3 0.00018524 -4.12051
15590 1 58.9923 30.3417 43.1275 3 0.00018524 -4.12051
15591 1 58.1086 30.343 40.7947 3 0.000246691 -4.12024
15592 1 60.5814 30.343 40.7947 3 0.000246691 -4.12024
15593 1 59.6977 30.3448 38.4616 3 0.000372786 -4.11979
15594 1 62.1705 30.3448 38.4616 3 0.000372786 -4.11979
15595 1 61.2866 30.3469 36.1279 3 0.000661326 -4.11905
15596 1 63.7594 30.3469 36.1279 3 0.000661326 -4.11905
15597 1 62.8751 30.3494 33.7931 3 0.00146478 -4.1177
15598 1 56.6006 28.3211 46.6239 3 0.000129519 -4.1202
15599 1 59.0734 28.3211 46.6239 3 0.000129519 -4.1202
15600 1 58.1815 28.3219 44.2889 3 0.000149472 -4.12007
15601 1 60.6543 28.3219 44.2889 3 0.000149472 -4.12007
15602 1 59.7617 28.3233 41.9536 3 0.000191447 -4.11982
15603 1 62.2345 28.3233 41.9536 3 0.000191447 -4.11982
15604 1 61.3406 28.3251 39.6177 3 0.000275951 -4.11942
15605 1 63.8134 28.3251 39.6177 3 0.000275951 -4.11942
15606 1 62.9173 28.3274 37.2809 3 0.000456136 -4.11879
15607 1 58.2792 26.3015 47.7904 3 9.91672e-05 -4.11967
15608 1 60.752 26.3015 47.7904 3 9.91672e-05 -4.11967
15609 1 59.8529 26.3021 45.4538 3 0.000109496 -4.11957
15610 1 62.3257 26.3021 45.4538 3 0.000109496 -4.11957
15611 1 61.4258 26.3032 43.117 3 0.000133537 -4.11936
15612 1 63.8986 26.3032 43.117 3 0.000133537 -4.11936
15613 1 62.997 26.3049 40.7797 3 0.000180367 -4.11901
15614 1 61.5325 24.2818 46.6212 3 7.83887e-05 -4.11909
15615 1 64.0053 24.2818 46.6212 3 7.83887e-05 -4.11909
15616 1 63.0992 24.2827 44.2836 3 9.09683e-05 -4.11894
15617 1 63.2188 22.261 47.7898 3 5.81635e-05 -4.11867
15618 1 18.7509 62.5896 47.7929 5 6.11303 -3.54477
15619 1 21.2236 62.5896 47.7929 5 6.11303 -3.54477
15620 1 20.3973 62.5896 45.4616 5 6.11233 -3.54476
15621 1 22.8701 62.5896 45.4616 5 6.11233 -3.54476
15622 1 22.044 62.5896 43.1302 5 6.11184 -3.54474
15623 1 24.5168 62.5896 43.1302 5 6.11184 -3.54474
15624 1 23.6912 62.5896 40.7989 5 12.2235 -3.54471
15625 1 26.1639 62.5896 40.7989 5 12.2235 -3.54471
15626 1 25.3388 62.5896 38.4675 5 12.2231 -3.54468
15627 1 27.8116 62.5896 38.4675 5 12.2231 -3.54468
15628 1 26.9872 62.5896 36.1361 5 12.2233 -3.54464
15629 1 29.4599 62.5896 36.1361 5 12.2233 -3.54464
15630 1 28.6361 62.5896 33.8048 5 12.2239 -3.54461
15631 1 31.1089 62.5896 33.8048 5 12.2239 -3.54461
15632 1 30.2857 62.5896 31.4734 5 12.2265 -3.54458
15633 1 32.7585 62.5896 31.4734 5 12.2265 -3.54458
15634 1 31.9359 62.5896 29.142 5 12.2286 -3.54455
15635 1 34.4087 62.5896 29.142 5 12.2286 -3.54455
15636 1 33.5864 62.5896 26.8107 5 12.2309 -3.54454
15637 1 36.0592 62.5896 26.8107 5 12.2309 -3.54454
15638 1 35.2372 62.5896 24.4793 5 12.2318 -3.54453
15639 1 37.71 62.5896 24.4793 5 12.2318 -3.54453
15640 1 36.8879 62.5896 22.1479 5 12.2309 -3.54454
15641 1 39.3607 62.5896 22.1479 5 12.2309 -3.54454
15642 1 38.5385 62.5896 19.8166 5 12.2286 -3.54455
15643 1 41.0112 62.5896 19.8166 5 12.2286 -3.54455
15644 1 40.1886 62.5896 17.4852 5 12.2265 -3.54458
15645 1 42.6614 62.5896 17.4852 5 12.2265 -3.54458
15646 1 41.8382 62.5896 15.1539 5 12.2239 -3.54461
15647 1 44.311 62.5896 15.1539 5 12.2239 -3.54461
15648 1 43.4872 62.5896 12.8225 5 12.2233 -3.54464
15649 1 45.96 62.5896 12.8225 5 12.2233 -3.54464
15650 1 45.1355 62.5896 10.4911 5 12.2231 -3.54468
15651 1 47.6083 62.5896 10.4911 5 12.2231 -3.54468
15652 1 46.7832 62.5896 8.15977 5 12.2235 -3.54471
15653 1 49.256 62.5896 8.15977 5 12.2235 -3.54471
15654 1 48.4303 62.5896 5.82841 5 6.11184 -3.54474
15655 1 50.9031 62.5896 5.82841 5 6.11184 -3.54474
15656 1 50.077 62.5896 3.49704 5 6.11233 -3.54476
15657 1 52.5498 62.5896 3.49704 5 6.11233 -3.54476
15658 1 51.7235 62.5896 1.16568 5 6.11303 -3.54477
15659 1 54.1963 62.5896 1.16568 5 6.11303 -3.54477
15660 1 22.0462 60.5706 46.6273 3 1.02054e-06 -4.10666
15661 1 24.519 60.5706 46.6273 3 1.02056e-06 -4.10666
15662 1 23.6922 60.5706 44.2959 3 1.02816e-06 -4.10664
15663 1 26.165 60.5706 44.2959 3 1.02815e-06 -4.10664
15664 1 25.3386 60.5706 41.9645 3 1.04076e-06 -4.10661
15665 1 27.8114 60.5706 41.9645 3 1.04077e-06 -4.10661
15666 1 26.9857 60.5706 39.6332 3 1.05862e-06 -4.10657
15667 1 29.4585 60.5706 39.6332 3 1.05865e-06 -4.10657
15668 1 28.6335 60.5706 37.3018 3 1.08243e-06 -4.10651
15669 1 31.1063 60.5706 37.3018 3 1.08243e-06 -4.10651
15670 1 30.2822 60.5706 34.9704 3 1.11273e-06 -4.10645
15671 1 32.755 60.5706 34.9704 3 1.11276e-06 -4.10645
15672 1 31.9317 60.5706 32.6391 3 1.14887e-06 -4.10639
15673 1 34.4045 60.5706 32.6391 3 1.14887e-06 -4.10639
15674 1 33.582 60.5706 30.3077 3 1.18713e-06 -4.10633
15675 1 36.0548 60.5706 30.3077 3 1.18714e-06 -4.10633
15676 1 35.2329 60.5706 27.9764 3 1.2204e-06 -4.1063
15677 1 37.7057 60.5706 27.9764 3 1.22039e-06 -4.1063
15678 1 36.8842 60.5706 25.645 3 1.24004e-06 -4.10627
15679 1 39.357 60.5706 25.645 3 1.24004e-06 -4.10627
15680 1 38.5357 60.5706 23.3136 3 1.24006e-06 -4.10627
15681 1 41.0085 60.5706 23.3136 3 1.24004e-06 -4.10627
15682 1 40.187 60.5706 20.9823 3 1.22039e-06 -4.1063
15683 1 42.6598 60.5706 20.9823 3 1.2204e-06 -4.1063
15684 1 41.8379 60.5706 18.6509 3 1.18714e-06 -4.10633
15685 1 44.3107 60.5706 18.6509 3 1.18715e-06 -4.10633
15686 1 43.4882 60.5706 16.3195 3 1.14887e-06 -4.10639
15687 1 45.961 60.5706 16.3195 3 1.14889e-06 -4.10639
15688 1 45.1377 60.5706 13.9882 3 1.11275e-06 -4.10645
15689 1 47.6105 60.5706 13.9882 3 1.11276e-06 -4.10645
15690 1 46.7864 60.5706 11.6568 3 1.08242e-06 -4.10651
15691 1 49.2592 60.5706 11.6568 3 1.08242e-06 -4.10651
15692 1 48.4342 60.5706 9.32545 3 1.05864e-06 -4.10657
15693 1 50.907 60.5706 9.32545 3 1.05864e-06 -4.10657
15694 1 50.0813 60.5706 6.99409 3 1.04077e-06 -4.10661
15695 1 52.554 60.5706 6.99409 3 1.04077e-06 -4.10661
15696 1 51.7277 60.5706 4.66273 3 1.02815e-06 -4.10664
15697 1 54.2005 60.5706 4.66273 3 1.02817e-06 -4.10664
15698 1 53.3737 60.5706 2.33136 3 1.02054e-06 -4.10666
15699 1 55.8465 60.5706 2.33136 3 1.02056e-06 -4.10666
15700 1 55.0194 60.5706 0 3 1.01799e-06 -4.10667
15701 1 57.4922 60.5706 0 3 1.01798e-06 -4.10667
15702 1 23.6957 58.5516 47.7929 3 0.000133584 -4.1223
15703 1 26.1685 58.5516 47.7929 3 0.000133584 -4.1223
15704 1 25.3408 58.5516 45.4616 3 0.000125533 -4.12231
15705 1 27.8136 58.5516 45.4616 3 0.000125533 -4.12231
15706 1 26.9863 58.5516 43.1302 3 0.000110457 -4.12234
15707 1 29.4591 58.5516 43.1302 3 0.000110457 -4.12234
15708 1 28.6325 58.5516 40.7989 3 9.07159e-05 -4.12237
15709 1 31.1053 58.5516 40.7989 3 9.07158e-05 -4.12237
15710 1 30.2796 58.5516 38.4675 3 6.97659e-05 -4.1224
15711 1 32.7524 58.5516 38.4675 3 6.97658e-05 -4.1224
15712 1 31.9277 58.5516 36.1361 3 5.08317e-05 -4.12243
15713 1 34.4005 58.5516 36.1361 3 5.08316e-05 -4.12243
15714 1 33.5769 58.5516 33.8048 3 3.52552e-05 -4.12244
15715 1 36.0497 58.5516 33.8048 3 3.52551e-05 -4.12244
15716 1 35.2273 58.5516 31.4734 3 2.24525e-05 -4.12244
15717 1 37.7 58.5516 31.4734 3 2.24526e-05 -4.12244
15718 1 36.8785 58.5516 29.142 3 1.17352e-05 -4.12244
15719 1 39.3513 58.5516 29.142 3 1.17353e-05 -4.12244
15720 1 38.5304 58.5516 26.8107 3 3.91934e-06 -4.12243
15721 1 41.0032 58.5516 26.8107 3 3.91932e-06 -4.12243
15722 1 40.1827 58.5516 24.4793 3 9.47301e-07 -4.12242
15723 1 42.6555 58.5516 24.4793 3 9.473e-07 -4.12242
15724 1 41.835 58.5516 22.1479 3 3.91906e-06 -4.12243
15725 1 44.3078 58.5516 22.1479 3 3.9191e-06 -4.12243
15726 1 43.487 58.5516 19.8166 3 1.1735e-05 -4.12244
15727 1 45.9598 58.5516 19.8166 3 1.17349e-05 -4.12244
15728 1 45.1382 58.5516 17.4852 3 2.24522e-05 -4.12244
15729 1 47.611 58.5516 17.4852 3 2.24521e-05 -4.12244
15730 1 46.7885 58.5516 15.1539 3 3.52547e-05 -4.12244
15731 1 49.2613 58.5516 15.1539 3 3.52548e-05 -4.12244
15732 1 48.4378 58.5516 12.8225 3 5.08313e-05 -4.12243
15733 1 50.9106 58.5516 12.8225 3 5.08314e-05 -4.12243
15734 1 50.0859 58.5516 10.4911 3 6.97656e-05 -4.1224
15735 1 52.5587 58.5516 10.4911 3 6.97657e-05 -4.1224
15736 1 51.733 58.5516 8.15977 3 9.07158e-05 -4.12237
15737 1 54.2058 58.5516 8.15977 3 9.07157e-05 -4.12237
15738 1 53.3792 58.5516 5.82841 3 0.000110457 -4.12234
15739 1 55.852 58.5516 5.82841 3 0.000110457 -4.12234
15740 1 55.0247 58.5516 3.49704 3 0.000125533 -4.12231
15741 1 57.4975 58.5516 3.49704 3 0.000125533 -4.12231
15742 1 56.6698 58.5516 1.16568 3 0.000133584 -4.1223
15743 1 59.1425 58.5516 1.16568 3 0.000133584 -4.1223
15744 1 26.9903 56.5406 46.627 3 2.19143e-06 -4.12177
15745 1 29.4631 56.5406 46.627 3 2.19144e-06 -4.12177
15746 1 28.6349 56.5402 44.2953 3 3.49757e-06 -4.12182
15747 1 31.1077 56.5402 44.2953 3 3.49758e-06 -4.12182
15748 1 30.2804 56.5395 41.9635 3 5.88395e-06 -4.1219
15749 1 32.7532 56.5395 41.9635 3 5.88395e-06 -4.1219
15750 1 31.9269 56.5386 39.6317 3 9.06613e-06 -4.122
15751 1 34.3997 56.5386 39.6317 3 9.06614e-06 -4.122
15752 1 33.5748 56.5374 37.3 3 1.18619e-05 -4.12212
15753 1 36.0475 56.5374 37.3 3 1.18619e-05 -4.12212
15754 1 35.2238 56.5361 34.9684 3 1.2762e-05 -4.12223
15755 1 37.6966 56.5361 34.9684 3 1.27621e-05 -4.12223
15756 1 36.8741 56.5348 32.637 3 1.11233e-05 -4.12233
15757 1 39.3468 56.5348 32.637 3 1.11233e-05 -4.12233
15758 1 38.5252 56.5336 30.3059 3 7.59862e-06 -4.1224
15759 1 40.998 56.5336 30.3059 3 7.59861e-06 -4.1224
15760 1 40.1771 56.5327 27.9752 3 3.91337e-06 -4.12244
15761 1 42.6499 56.5327 27.9752 3 3.91337e-06 -4.12244
15762 1 41.8293 56.5323 25.6446 3 1.63777e-06 -4.12246
15763 1 44.3021 56.5323 25.6446 3 1.63778e-06 -4.12246
15764 1 43.4817 56.5323 23.3141 3 1.63777e-06 -4.12246
15765 1 45.9545 56.5323 23.3141 3 1.63777e-06 -4.12246
15766 1 45.134 56.5327 20.9835 3 3.91338e-06 -4.12244
15767 1 47.6068 56.5327 20.9835 3 3.91338e-06 -4.12244
15768 1 46.7858 56.5336 18.6527 3 7.5986e-06 -4.1224
15769 1 49.2586 56.5336 18.6527 3 7.59861e-06 -4.1224
15770 1 48.437 56.5348 16.3216 3 1.11233e-05 -4.12233
15771 1 50.9098 56.5348 16.3216 3 1.11233e-05 -4.12233
15772 1 50.0872 56.5361 13.9902 3 1.27621e-05 -4.12223
15773 1 52.56 56.5361 13.9902 3 1.27621e-05 -4.12223
15774 1 51.7363 56.5374 11.6586 3 1.18619e-05 -4.12212
15775 1 54.2091 56.5374 11.6586 3 1.18619e-05 -4.12212
15776 1 53.3841 56.5386 9.32688 3 9.06614e-06 -4.122
15777 1 55.8569 56.5386 9.32688 3 9.06615e-06 -4.122
15778 1 55.0307 56.5395 6.99509 3 5.88395e-06 -4.1219
15779 1 57.5034 56.5395 6.99509 3 5.88395e-06 -4.1219
15780 1 56.6761 56.5402 4.66334 3 3.49759e-06 -4.12182
15781 1 59.1489 56.5402 4.66334 3 3.49757e-06 -4.12182
15782 1 58.3208 56.5406 2.33165 3 2.19143e-06 -4.12177
15783 1 60.7936 56.5406 2.33165 3 2.19145e-06 -4.12177
15784 1 59.965 56.5407 48.9586 3 1.81015e-06 -4.12175
15785 1 62.4378 56.5407 48.9586 3 1.81015e-06 -4.12175
15786 1 28.6404 54.5298 47.7928 3 3.89996e-06 -4.12217
15787 1 31.1132 54.5298 47.7928 3 3.89996e-06 -4.12217
15788 1 30.2838 54.5293 45.4612 3 4.47753e-06 -4.12218
15789 1 32.7565 54.5293 45.4612 3 4.47753e-06 -4.12218
15790 1 31.928 54.5283 43.1295 3 5.81593e-06 -4.12221
15791 1 34.4008 54.5283 43.1295 3 5.81593e-06 -4.12221
15792 1 33.5735 54.5268 40.7976 3 8.05886e-06 -4.12226
15793 1 36.0462 54.5268 40.7976 3 8.05886e-06 -4.12226
15794 1 35.2205 54.5247 38.4656 3 1.0958e-05 -4.12232
15795 1 37.6933 54.5247 38.4656 3 1.0958e-05 -4.12232
15796 1 36.8692 54.5221 36.1337 3 1.34554e-05 -4.12238
15797 1 39.342 54.5221 36.1337 3 1.34554e-05 -4.12238
15798 1 38.5193 54.5193 33.802 3 1.40704e-05 -4.12243
15799 1 40.9921 54.5193 33.802 3 1.40704e-05 -4.12243
15800 1 40.1706 54.5166 31.4707 3 1.19593e-05 -4.12246
15801 1 42.6434 54.5166 31.4707 3 1.19593e-05 -4.12246
15802 1 41.8228 54.5144 29.1399 3 7.87667e-06 -4.12248
15803 1 44.2956 54.5144 29.1399 3 7.87667e-06 -4.12248
15804 1 43.4754 54.5129 26.8095 3 3.97123e-06 -4.12249
15805 1 45.9482 54.5129 26.8095 3 3.97123e-06 -4.12249
15806 1 45.1283 54.5124 24.4793 3 2.41598e-06 -4.12249
15807 1 47.6011 54.5124 24.4793 3 2.41598e-06 -4.12249
15808 1 46.7812 54.5129 22.1492 3 3.97123e-06 -4.12249
15809 1 49.254 54.5129 22.1492 3 3.97122e-06 -4.12249
15810 1 48.4338 54.5144 19.8188 3 7.87666e-06 -4.12248
15811 1 50.9066 54.5144 19.8188 3 7.87667e-06 -4.12248
15812 1 50.086 54.5166 17.4879 3 1.19593e-05 -4.12246
15813 1 52.5588 54.5166 17.4879 3 1.19593e-05 -4.12246
15814 1 51.7373 54.5193 15.1566 3 1.40704e-05 -4.12243
15815 1 54.2101 54.5193 15.1566 3 1.40704e-05 -4.12243
15816 1 53.3874 54.5221 12.8249 3 1.34554e-05 -4.12238
15817 1 55.8602 54.5221 12.8249 3 1.34554e-05 -4.12238
15818 1 55.0361 54.5247 10.493 3 1.09581e-05 -4.12232
15819 1 57.5089 54.5247 10.493 3 1.0958e-05 -4.12232
15820 1 56.6832 54.5268 8.16101 3 8.05887e-06 -4.12226
15821 1 59.1559 54.5268 8.16101 3 8.05886e-06 -4.12226
15822 1 58.3286 54.5283 5.82911 3 5.81593e-06 -4.12221
15823 1 60.8014 54.5283 5.82911 3 5.81594e-06 -4.12221
15824 1 59.9729 54.5293 3.49738 3 4.47753e-06 -4.12218
15825 1 62.4456 54.5293 3.49738 3 4.47753e-06 -4.12218
15826 1 61.6162 54.5298 1.16578 3 3.89996e-06 -4.12217
15827 1 64.089 54.5298 1.16578 3 3.89996e-06 -4.12217
15828 1 31.9333 52.5183 46.6275 3 7.52735e-06 -4.12216
15829 1 34.4061 52.5183 46.6275 3 7.52735e-06 -4.12216
15830 1 33.5758 52.5174 44.2961 3 8.29609e-06 -4.12218
15831 1 36.0485 52.5174 44.2961 3 8.29609e-06 -4.12218
15832 1 35.2195 52.5157 41.9645 3 9.67675e-06 -4.12221
15833 1 37.6923 52.5157 41.9645 3 9.67675e-06 -4.12221
15834 1 36.8651 52.5132 39.6326 3 1.15574e-05 -4.12226
15835 1 39.3379 52.5132 39.6326 3 1.15574e-05 -4.12226
15836 1 38.5128 52.5098 37.3005 3 1.40121e-05 -4.12233
15837 1 40.9856 52.5098 37.3005 3 1.40121e-05 -4.12233
15838 1 40.1626 52.5057 34.9684 3 1.63502e-05 -4.12239
15839 1 42.6353 52.5057 34.9684 3 1.63502e-05 -4.12239
15840 1 41.814 52.5014 32.6366 3 1.70391e-05 -4.12245
15841 1 44.2868 52.5014 32.6366 3 1.70391e-05 -4.12245
15842 1 43.4668 52.4973 30.3053 3 1.49964e-05 -4.12248
15843 1 45.9395 52.4973 30.3053 3 1.49964e-05 -4.12248
15844 1 45.1202 52.4943 27.9746 3 1.09793e-05 -4.12249
15845 1 47.593 52.4943 27.9746 3 1.09793e-05 -4.12249
15846 1 46.7741 52.4926 25.6444 3 7.73925e-06 -4.12249
15847 1 49.2469 52.4926 25.6444 3 7.73925e-06 -4.12249
15848 1 48.4281 52.4926 23.3143 3 7.73924e-06 -4.12249
15849 1 50.9009 52.4926 23.3143 3 7.73924e-06 -4.12249
15850 1 50.0819 52.4943 20.984 3 1.09792e-05 -4.12249
15851 1 52.5547 52.4943 20.984 3 1.09792e-05 -4.12249
15852 1 51.7354 52.4973 18.6533 3 1.49964e-05 -4.12248
15853 1 54.2082 52.4973 18.6533 3 1.49964e-05 -4.12248
15854 1 53.3882 52.5014 16.322 3 1.70391e-05 -4.12245
15855 1 55.8609 52.5014 16.322 3 1.70391e-05 -4.12245
15856 1 55.0396 52.5057 13.9902 3 1.63502e-05 -4.12239
15857 1 57.5124 52.5057 13.9902 3 1.63502e-05 -4.12239
15858 1 56.6894 52.5098 11.6581 3 1.40121e-05 -4.12233
15859 1 59.1622 52.5098 11.6581 3 1.40121e-05 -4.12233
15860 1 58.3371 52.5132 9.32602 3 1.15574e-05 -4.12226
15861 1 60.8099 52.5132 9.32602 3 1.15574e-05 -4.12226
15862 1 59.9827 52.5157 6.99411 3 9.67676e-06 -4.12221
15863 1 62.4554 52.5157 6.99411 3 9.67676e-06 -4.12221
15864 1 61.6264 52.5174 4.66251 3 8.29609e-06 -4.12218
15865 1 64.0992 52.5174 4.66251 3 8.29609e-06 -4.12218
15866 1 63.2688 52.5183 2.33117 3 7.52735e-06 -4.12216
15867 1 33.5843 50.5068 47.7934 3 1.18952e-05 -4.12215
15868 1 36.0571 50.5068 47.7934 3 1.18952e-05 -4.12215
15869 1 35.2244 50.5062 45.4628 3 1.26248e-05 -4.12216
15870 1 37.6972 50.5062 45.4628 3 1.26248e-05 -4.12216
15871 1 36.8658 50.5048 43.1318 3 1.38767e-05 -4.12217
15872 1 39.3386 50.5048 43.1318 3 1.38767e-05 -4.12217
15873 1 38.5092 50.5023 40.8005 3 1.53589e-05 -4.1222
15874 1 40.9819 50.5023 40.8005 3 1.53589e-05 -4.1222
15875 1 40.155 50.4987 38.4686 3 1.67305e-05 -4.12225
15876 1 42.6278 50.4987 38.4686 3 1.67305e-05 -4.12225
15877 1 41.8036 50.4938 36.1363 3 1.86664e-05 -4.12233
15878 1 44.2764 50.4938 36.1363 3 1.86664e-05 -4.12233
15879 1 43.4548 50.488 33.804 3 2.12611e-05 -4.12241
15880 1 45.9276 50.488 33.804 3 2.12611e-05 -4.12241
15881 1 45.1081 50.4822 31.472 3 2.30165e-05 -4.12246
15882 1 47.5809 50.4822 31.472 3 2.30165e-05 -4.12246
15883 1 46.7628 50.477 29.1406 3 2.21126e-05 -4.12249
15884 1 49.2355 50.477 29.1406 3 2.21126e-05 -4.12249
15885 1 48.4182 50.4735 26.8098 3 1.91502e-05 -4.1225
15886 1 50.891 50.4735 26.8098 3 1.91502e-05 -4.1225
15887 1 50.0739 50.4723 24.4793 3 1.74186e-05 -4.1225
15888 1 52.5467 50.4723 24.4793 3 1.74186e-05 -4.1225
15889 1 51.7296 50.4735 22.1489 3 1.91502e-05 -4.1225
15890 1 54.2024 50.4735 22.1489 3 1.91502e-05 -4.1225
15891 1 53.385 50.477 19.818 3 2.21126e-05 -4.12249
15892 1 55.8578 50.477 19.818 3 2.21126e-05 -4.12249
15893 1 55.0396 50.4822 17.4866 3 2.30165e-05 -4.12246
15894 1 57.5124 50.4822 17.4866 3 2.30165e-05 -4.12246
15895 1 56.6929 50.488 15.1546 3 2.12611e-05 -4.12241
15896 1 59.1657 50.488 15.1546 3 2.12611e-05 -4.12241
15897 1 58.3441 50.4938 12.8223 3 1.86664e-05 -4.12233
15898 1 60.8169 50.4938 12.8223 3 1.86664e-05 -4.12233
15899 1 59.9927 50.4987 10.4901 3 1.67305e-05 -4.12225
15900 1 62.4655 50.4987 10.4901 3 1.67305e-05 -4.12225
15901 1 61.6386 50.5023 8.15817 3 1.53589e-05 -4.1222
15902 1 64.1114 50.5023 8.15817 3 1.53589e-05 -4.1222
15903 1 63.2819 50.5048 5.82678 3 1.38767e-05 -4.12217
15904 1 36.8747 48.4942 46.629 3 1.78386e-05 -4.12214
15905 1 39.3475 48.4942 46.629 3 1.78386e-05 -4.12214
15906 1 38.5132 48.4932 44.299 3 1.96273e-05 -4.12214
15907 1 40.986 48.4932 44.299 3 1.96273e-05 -4.12214
15908 1 40.1535 48.4913 41.9686 3 2.20453e-05 -4.12215
15909 1 42.6263 48.4913 41.9686 3 2.20453e-05 -4.12215
15910 1 41.7965 48.4881 39.6374 3 2.41335e-05 -4.12217
15911 1 44.2693 48.4881 39.6374 3 2.41335e-05 -4.12217
15912 1 43.4428 48.4832 37.3054 3 2.49439e-05 -4.12223
15913 1 45.9156 48.4832 37.3054 3 2.49439e-05 -4.12223
15914 1 45.0929 48.4767 34.9729 3 2.64238e-05 -4.12233
15915 1 47.5656 48.4767 34.9729 3 2.64238e-05 -4.12233
15916 1 46.7461 48.4693 32.6402 3 3.04308e-05 -4.12241
15917 1 49.2189 48.4693 32.6402 3 3.04308e-05 -4.12241
15918 1 48.4019 48.4619 30.3078 3 3.52972e-05 -4.12247
15919 1 50.8747 48.4619 30.3078 3 3.52972e-05 -4.12247
15920 1 50.0593 48.456 27.976 3 3.74501e-05 -4.1225
15921 1 52.5321 48.456 27.976 3 3.74501e-05 -4.1225
15922 1 51.7175 48.4526 25.6448 3 3.66337e-05 -4.12251
15923 1 54.1902 48.4526 25.6448 3 3.66337e-05 -4.12251
15924 1 53.3759 48.4526 23.3138 3 3.66337e-05 -4.12251
15925 1 55.8486 48.4526 23.3138 3 3.66337e-05 -4.12251
15926 1 55.034 48.456 20.9826 3 3.745e-05 -4.1225
15927 1 57.5068 48.456 20.9826 3 3.745e-05 -4.1225
15928 1 56.6914 48.4619 18.6508 3 3.52972e-05 -4.12247
15929 1 59.1642 48.4619 18.6508 3 3.52972e-05 -4.12247
15930 1 58.3472 48.4693 16.3184 3 3.04307e-05 -4.12241
15931 1 60.82 48.4693 16.3184 3 3.04307e-05 -4.12241
15932 1 60.0005 48.4767 13.9857 3 2.64237e-05 -4.12233
15933 1 62.4733 48.4767 13.9857 3 2.64237e-05 -4.12233
15934 1 61.6505 48.4832 11.6532 3 2.49439e-05 -4.12223
15935 1 64.1233 48.4832 11.6532 3 2.49439e-05 -4.12223
15936 1 63.2968 48.4881 9.32123 3 2.41335e-05 -4.12217
15937 1 38.5273 46.4812 47.7943 3 2.36101e-05 -4.12212
15938 1 41.0001 46.4812 47.7943 3 2.36101e-05 -4.12212
15939 1 40.1624 46.4807 45.4655 3 2.56145e-05 -4.12212
15940 1 42.6352 46.4807 45.4655 3 2.56145e-05 -4.12212
15941 1 41.7991 46.4794 43.1363 3 2.95039e-05 -4.12211
15942 1 44.2719 46.4794 43.1363 3 2.95039e-05 -4.12211
15943 1 43.4382 46.4771 40.8063 3 3.46056e-05 -4.1221
15944 1 45.911 46.4771 40.8063 3 3.46056e-05 -4.1221
15945 1 45.081 46.4731 38.4753 3 3.8725e-05 -4.12212
15946 1 47.5538 46.4731 38.4753 3 3.8725e-05 -4.12212
15947 1 46.7283 46.467 36.1432 3 3.9276e-05 -4.12218
15948 1 49.2011 46.467 36.1432 3 3.9276e-05 -4.12218
15949 1 48.3804 46.4588 33.8101 3 4.07035e-05 -4.12231
15950 1 50.8532 46.4588 33.8101 3 4.07035e-05 -4.12231
15951 1 50.0367 46.4495 31.4768 3 4.82067e-05 -4.1224
15952 1 52.5094 46.4495 31.4768 3 4.82067e-05 -4.1224
15953 1 51.696 46.4409 29.1438 3 6.04472e-05 -4.12248
15954 1 54.1688 46.4409 29.1438 3 6.04472e-05 -4.12248
15955 1 53.3573 46.4347 26.8113 3 6.90738e-05 -4.12252
15956 1 55.8301 46.4347 26.8113 3 6.90738e-05 -4.12252
15957 1 55.0194 46.4324 24.4793 3 7.12415e-05 -4.12253
15958 1 57.4922 46.4324 24.4793 3 7.12415e-05 -4.12253
15959 1 56.6816 46.4347 22.1473 3 6.90738e-05 -4.12252
15960 1 59.1543 46.4347 22.1473 3 6.90738e-05 -4.12252
15961 1 58.3428 46.4409 19.8148 3 6.04472e-05 -4.12248
15962 1 60.8156 46.4409 19.8148 3 6.04472e-05 -4.12248
15963 1 60.0022 46.4495 17.4818 3 4.82066e-05 -4.1224
15964 1 62.475 46.4495 17.4818 3 4.82066e-05 -4.1224
15965 1 61.6585 46.4588 15.1485 3 4.07035e-05 -4.12231
15966 1 64.1313 46.4588 15.1485 3 4.07035e-05 -4.12231
15967 1 63.3106 46.467 12.8155 3 3.92759e-05 -4.12218
15968 1 41.8143 44.4667 46.631 3 3.16705e-05 -4.12209
15969 1 44.287 44.4667 46.631 3 3.16705e-05 -4.12209
15970 1 43.4468 44.4662 44.3031 3 3.62616e-05 -4.12207
15971 1 45.9196 44.4662 44.3031 3 3.62616e-05 -4.12207
15972 1 45.0814 44.4648 41.9745 3 4.42897e-05 -4.12205
15973 1 47.5542 44.4648 41.9745 3 4.42897e-05 -4.12205
15974 1 46.7195 44.4622 39.645 3 5.52161e-05 -4.12202
15975 1 49.1923 44.4622 39.645 3 5.52161e-05 -4.12202
15976 1 48.3623 44.4575 37.3141 3 6.50011e-05 -4.12201
15977 1 50.835 44.4575 37.3141 3 6.50011e-05 -4.12201
15978 1 50.0111 44.4501 34.9816 3 6.6379e-05 -4.12208
15979 1 52.4838 44.4501 34.9816 3 6.6379e-05 -4.12208
15980 1 51.6663 44.44 32.6477 3 6.90114e-05 -4.12229
15981 1 54.1391 44.44 32.6477 3 6.90114e-05 -4.12229
15982 1 53.3269 44.429 30.3136 3 8.3298e-05 -4.12236
15983 1 55.7997 44.429 30.3136 3 8.3298e-05 -4.12236
15984 1 54.9915 44.4195 27.9795 3 0.000113302 -4.12248
15985 1 57.4643 44.4195 27.9795 3 0.000113302 -4.12248
15986 1 56.6584 44.4138 25.646 3 0.000134837 -4.12254
15987 1 59.1312 44.4138 25.646 3 0.000134837 -4.12254
15988 1 58.326 44.4138 23.3127 3 0.000134837 -4.12254
15989 1 60.7988 44.4138 23.3127 3 0.000134837 -4.12254
15990 1 59.9929 44.4195 20.9791 3 0.000113302 -4.12248
15991 1 62.4657 44.4195 20.9791 3 0.000113302 -4.12248
15992 1 61.6575 44.429 18.6451 3 8.3298e-05 -4.12236
15993 1 64.1303 44.429 18.6451 3 8.3298e-05 -4.12236
15994 1 63.3181 44.44 16.3109 3 6.90114e-05 -4.12229
15995 1 43.4693 42.4514 47.7953 3 3.88216e-05 -4.12204
15996 1 45.9421 42.4514 47.7953 3 3.88216e-05 -4.12204
15997 1 45.0974 42.4513 45.4685 3 4.29685e-05 -4.12203
15998 1 47.5702 42.4513 45.4685 3 4.29685e-05 -4.12203
15999 1 46.727 42.4508 43.1414 3 5.21401e-05 -4.122
16000 1 49.1998 42.4508 43.1414 3 5.21401e-05 -4.122
16001 1 48.3595 42.4495 40.8135 3 6.79327e-05 -4.12195
16002 1 50.8323 42.4495 40.8135 3 6.79327e-05 -4.12195
16003 1 49.9964 42.4468 38.4844 3 9.11994e-05 -4.12188
16004 1 52.4692 42.4468 38.4844 3 9.11994e-05 -4.12188
16005 1 51.6395 42.4416 36.1535 3 0.000115746 -4.12183
16006 1 54.1122 42.4416 36.1535 3 0.000115746 -4.12183
16007 1 53.2907 42.4328 33.8204 3 0.000121899 -4.12189
16008 1 55.7635 42.4328 33.8204 3 0.000121899 -4.12189
16009 1 54.9508 42.4205 31.4854 3 0.000131069 -4.12226
16010 1 57.4236 42.4205 31.4854 3 0.000131069 -4.12226
16011 1 56.6178 42.408 29.1501 3 0.000154237 -4.12225
16012 1 59.0906 42.408 29.1501 3 0.000154237 -4.12225
16013 1 58.29 42.3982 26.8146 3 0.000231706 -4.12249
16014 1 60.7628 42.3982 26.8146 3 0.000231706 -4.12249
16015 1 59.965 42.3944 24.4793 3 0.00027212 -4.12258
16016 1 62.4378 42.3944 24.4793 3 0.00027212 -4.12258
16017 1 61.64 42.3982 22.144 3 0.000231706 -4.12249
16018 1 64.1128 42.3982 22.144 3 0.000231706 -4.12249
16019 1 63.3122 42.408 19.8085 3 0.000154237 -4.12225
16020 1 46.7516 40.4348 46.6326 3 5.18024e-05 -4.12196
16021 1 49.2243 40.4348 46.6326 3 5.18024e-05 -4.12196
16022 1 48.3758 40.4348 44.3065 3 6.06629e-05 -4.12193
16023 1 50.8486 40.4348 44.3065 3 6.06629e-05 -4.12193
16024 1 50.0022 40.4346 41.9799 3 7.80201e-05 -4.12187
16025 1 52.475 40.4346 41.9799 3 7.80201e-05 -4.12187
16026 1 51.6323 40.4336 39.6526 3 0.000108536 -4.12178
16027 1 54.105 40.4336 39.6526 3 0.000108536 -4.12178
16028 1 53.2678 40.431 37.324 3 0.000158298 -4.12165
16029 1 55.7406 40.431 37.324 3 0.000158298 -4.12165
16030 1 54.9116 40.4256 34.9932 3 0.000221815 -4.1215
16031 1 57.3844 40.4256 34.9932 3 0.000221815 -4.1215
16032 1 56.5665 40.4155 32.6594 3 0.000248953 -4.12152
16033 1 59.0393 40.4155 32.6594 3 0.000248953 -4.12152
16034 1 58.2343 40.4005 30.3228 3 0.000290858 -4.12227
16035 1 60.7071 40.4005 30.3228 3 0.000290857 -4.12227
16036 1 59.9107 40.3872 27.9861 3 0.000307363 -4.122
16037 1 62.3834 40.3872 27.9861 3 0.000307363 -4.122
16038 1 61.5945 40.3784 25.6483 3 0.000523821 -4.12257
16039 1 64.0673 40.3784 25.6483 3 0.000523821 -4.12257
16040 1 63.2811 40.3784 23.3103 3 0.000523821 -4.12257
16041 1 48.4101 38.4171 47.7957 3 6.55492e-05 -4.12185
16042 1 50.8828 38.4171 47.7957 3 6.55492e-05 -4.12185
16043 1 50.0285 38.4173 45.4699 3 7.3238e-05 -4.12182
16044 1 52.5013 38.4173 45.4699 3 7.3238e-05 -4.12182
16045 1 51.6484 38.4176 43.144 3 9.07642e-05 -4.12177
16046 1 54.1212 38.4176 43.144 3 9.07642e-05 -4.12177
16047 1 53.271 38.4177 40.8179 3 0.00012367 -4.12167
16048 1 55.7438 38.4177 40.8179 3 0.00012367 -4.12167
16049 1 54.8981 38.4172 38.4912 3 0.000183731 -4.12151
16050 1 57.3708 38.4172 38.4912 3 0.000183731 -4.12151
16051 1 56.532 38.4151 36.1632 3 0.000293667 -4.12125
16052 1 59.0048 38.4151 36.1632 3 0.000293667 -4.12125
16053 1 58.1768 38.4098 33.8328 3 0.000468568 -4.12089
16054 1 60.6496 38.4098 33.8328 3 0.000468568 -4.12089
16055 1 59.8375 38.3984 31.4983 3 0.00059098 -4.12071
16056 1 62.3103 38.3984 31.4983 3 0.00059098 -4.12071
16057 1 61.5177 38.3799 29.1594 3 0.000820378 -4.12241
16058 1 63.9905 38.3799 29.1594 3 0.000820378 -4.12241
16059 1 63.2086 38.3679 26.8212 3 0.000708783 -4.12138
16060 1 51.6859 36.3986 46.6323 3 9.18568e-05 -4.12168
16061 1 54.1587 36.3986 46.6323 3 9.18568e-05 -4.12168
16062 1 53.2987 36.399 44.306 3 0.000108355 -4.12161
16063 1 55.7715 36.399 44.306 3 0.000108355 -4.12161
16064 1 54.9135 36.3997 41.9799 3 0.000142159 -4.1215
16065 1 57.3862 36.3997 41.9799 3 0.000142159 -4.1215
16066 1 56.5314 36.4003 39.6538 3 0.000206701 -4.12131
16067 1 59.0042 36.4003 39.6538 3 0.000206701 -4.12131
16068 1 58.1545 36.4004 37.3276 3 0.000333509 -4.12101
16069 1 60.6273 36.4004 37.3276 3 0.000333509 -4.12101
16070 1 59.7861 36.3992 35.0006 3 0.000598223 -4.12049
16071 1 62.2589 36.3992 35.0006 3 0.000598223 -4.12049
16072 1 61.4319 36.3945 32.6711 3 0.00114061 -4.1196
16073 1 63.9046 36.3945 32.6711 3 0.00114061 -4.1196
16074 1 63.1015 36.3823 30.3364 3 0.00177736 -4.11866
16075 1 53.3491 34.3792 47.7948 3 0.000115414 -4.12147
16076 1 55.8219 34.3792 47.7948 3 0.000115414 -4.12147
16077 1 54.9544 34.3796 45.4671 3 0.000127924 -4.12141
16078 1 57.4272 34.3796 45.4671 3 0.000127924 -4.12141
16079 1 56.5607 34.3803 43.1397 3 0.000158073 -4.12129
16080 1 59.0335 34.3803 43.1397 3 0.000158073 -4.12129
16081 1 58.169 34.3813 40.8125 3 0.000219406 -4.12107
16082 1 60.6418 34.3813 40.8125 3 0.000219406 -4.12107
16083 1 59.7806 34.3823 38.4858 3 0.00034635 -4.12071
16084 1 62.2534 34.3823 38.4858 3 0.00034635 -4.12071
16085 1 61.3977 34.3831 36.1595 3 0.000630913 -4.12007
16086 1 63.8705 34.3831 36.1595 3 0.000630913 -4.12007
16087 1 63.0244 34.383 33.8334 3 0.00135468 -4.11886
16088 1 56.6167 32.3599 46.6288 3 0.000142377 -4.12113
16089 1 59.0895 32.3599 46.6288 3 0.000142377 -4.12113
16090 1 58.2143 32.3605 44.299 3 0.000163748 -4.12102
16091 1 60.6871 32.3605 44.299 3 0.000163748 -4.12102
16092 1 59.8128 32.3615 41.9694 3 0.000209208 -4.12082
16093 1 62.2856 32.3615 41.9694 3 0.000209208 -4.12082
16094 1 61.4127 32.3628 39.64 3 0.00030275 -4.12045
16095 1 63.8855 32.3628 39.64 3 0.00030275 -4.12045
16096 1 63.0151 32.3642 37.3111 3 0.00051239 -4.11977
16097 1 58.2868 30.3403 47.7924 3 0.000141586 -4.12074
16098 1 60.7596 30.3403 47.7924 3 0.000141586 -4.12074
16099 1 59.8759 30.3408 45.46 3 0.000154623 -4.12067
16100 1 62.3487 30.3408 45.46 3 0.000154623 -4.12067
16101 1 61.4651 30.3417 43.1275 3 0.00018524 -4.12051
16102 1 63.9379 30.3417 43.1275 3 0.00018524 -4.12051
16103 1 63.0542 30.343 40.7947 3 0.000246691 -4.12024
16104 1 61.5462 28.3211 46.6239 3 0.000129519 -4.1202
16105 1 64.019 28.3211 46.6239 3 0.000129519 -4.1202
16106 1 63.1271 28.3219 44.2889 3 0.000149472 -4.12007
16107 1 63.2248 26.3015 47.7904 3 9.91672e-05 -4.11967
16108 1 23.6964 62.5896 47.7929 5 6.11303 -3.54477
16109 1 26.1692 62.5896 47.7929 5 6.11303 -3.54477
16110 1 25.3429 62.5896 45.4616 5 6.11233 -3.54476
16111 1 27.8157 62.5896 45.4616 5 6.11233 -3.54476
16112 1 26.9896 62.5896 43.1302 5 6.11184 -3.54474
16113 1 29.4624 62.5896 43.1302 5 6.11184 -3.54474
16114 1 28.6367 62.5896 40.7989 5 12.2235 -3.54471
16115 1 31.1095 62.5896 40.7989 5 12.2235 -3.54471
16116 1 30.2844 62.5896 38.4675 5 12.2231 -3.54468
16117 1 32.7572 62.5896 38.4675 5 12.2231 -3.54468
16118 1 31.9327 62.5896 36.1361 5 12.2233 -3.54464
16119 1 34.4055 62.5896 36.1361 5 12.2233 -3.54464
16120 1 33.5817 62.5896 33.8048 5 12.2239 -3.54461
16121 1 36.0545 62.5896 33.8048 5 12.2239 -3.54461
16122 1 35.2313 62.5896 31.4734 5 12.2265 -3.54458
16123 1 37.7041 62.5896 31.4734 5 12.2265 -3.54458
16124 1 36.8815 62.5896 29.142 5 12.2286 -3.54455
16125 1 39.3542 62.5896 29.142 5 12.2286 -3.54455
16126 1 38.532 62.5896 26.8107 5 12.2309 -3.54454
16127 1 41.0048 62.5896 26.8107 5 12.2309 -3.54454
16128 1 40.1827 62.5896 24.4793 5 12.2318 -3.54453
16129 1 42.6555 62.5896 24.4793 5 12.2318 -3.54453
16130 1 41.8335 62.5896 22.1479 5 12.2309 -3.54454
16131 1 44.3063 62.5896 22.1479 5 12.2309 -3.54454
16132 1 43.484 62.5896 19.8166 5 12.2286 -3.54455
16133 1 45.9568 62.5896 19.8166 5 12.2286 -3.54455
16134 1 45.1342 62.5896 17.4852 5 12.2265 -3.54458
16135 1 47.6069 62.5896 17.4852 5 12.2265 -3.54458
16136 1 46.7838 62.5896 15.1539 5 12.2239 -3.54461
16137 1 49.2566 62.5896 15.1539 5 12.2239 -3.54461
16138 1 48.4327 62.5896 12.8225 5 12.2233 -3.54464
16139 1 50.9055 62.5896 12.8225 5 12.2233 -3.54464
16140 1 50.0811 62.5896 10.4911 5 12.2231 -3.54468
16141 1 52.5538 62.5896 10.4911 5 12.2231 -3.54468
16142 1 51.7288 62.5896 8.15977 5 12.2235 -3.54471
16143 1 54.2015 62.5896 8.15977 5 12.2235 -3.54471
16144 1 53.3759 62.5896 5.82841 5 6.11184 -3.54474
16145 1 55.8487 62.5896 5.82841 5 6.11184 -3.54474
16146 1 55.0226 62.5896 3.49704 5 6.11233 -3.54476
16147 1 57.4954 62.5896 3.49704 5 6.11233 -3.54476
16148 1 56.669 62.5896 1.16568 5 6.11303 -3.54477
16149 1 59.1418 62.5896 1.16568 5 6.11303 -3.54477
16150 1 26.9918 60.5706 46.6273 3 1.02055e-06 -4.10666
16151 1 29.4646 60.5706 46.6273 3 1.02054e-06 -4.10666
16152 1 28.6378 60.5706 44.2959 3 1.02816e-06 -4.10664
16153 1 31.1106 60.5706 44.2959 3 1.02815e-06 -4.10664
16154 1 30.2842 60.5706 41.9645 3 1.04075e-06 -4.10661
16155 1 32.757 60.5706 41.9645 3 1.04077e-06 -4.10661
16156 1 31.9313 60.5706 39.6332 3 1.05863e-06 -4.10657
16157 1 34.4041 60.5706 39.6332 3 1.05864e-06 -4.10657
16158 1 33.5791 60.5706 37.3018 3 1.08242e-06 -4.10651
16159 1 36.0519 60.5706 37.3018 3 1.08242e-06 -4.10651
16160 1 35.2278 60.5706 34.9704 3 1.11277e-06 -4.10645
16161 1 37.7006 60.5706 34.9704 3 1.11275e-06 -4.10645
16162 1 36.8773 60.5706 32.6391 3 1.14889e-06 -4.10639
16163 1 39.3501 60.5706 32.6391 3 1.14887e-06 -4.10639
16164 1 38.5276 60.5706 30.3077 3 1.18713e-06 -4.10633
16165 1 41.0004 60.5706 30.3077 3 1.18714e-06 -4.10633
16166 1 40.1785 60.5706 27.9764 3 1.2204e-06 -4.1063
16167 1 42.6513 60.5706 27.9764 3 1.22039e-06 -4.1063
16168 1 41.8298 60.5706 25.645 3 1.24004e-06 -4.10627
16169 1 44.3026 60.5706 25.645 3 1.24004e-06 -4.10627
16170 1 43.4813 60.5706 23.3136 3 1.24004e-06 -4.10627
16171 1 45.954 60.5706 23.3136 3 1.24005e-06 -4.10627
16172 1 45.1326 60.5706 20.9823 3 1.2204e-06 -4.1063
16173 1 47.6053 60.5706 20.9823 3 1.22039e-06 -4.1063
16174 1 46.7835 60.5706 18.6509 3 1.18713e-06 -4.10633
16175 1 49.2563 60.5706 18.6509 3 1.18715e-06 -4.10633
16176 1 48.4338 60.5706 16.3195 3 1.14887e-06 -4.10639
16177 1 50.9065 60.5706 16.3195 3 1.14889e-06 -4.10639
16178 1 50.0833 60.5706 13.9882 3 1.11274e-06 -4.10645
16179 1 52.5561 60.5706 13.9882 3 1.11276e-06 -4.10645
16180 1 51.7319 60.5706 11.6568 3 1.08243e-06 -4.10651
16181 1 54.2047 60.5706 11.6568 3 1.08242e-06 -4.10651
16182 1 53.3798 60.5706 9.32545 3 1.05864e-06 -4.10657
16183 1 55.8526 60.5706 9.32545 3 1.05865e-06 -4.10657
16184 1 55.0268 60.5706 6.99409 3 1.04076e-06 -4.10661
16185 1 57.4996 60.5706 6.99409 3 1.04077e-06 -4.10661
16186 1 56.6733 60.5706 4.66273 3 1.02813e-06 -4.10664
16187 1 59.146 60.5706 4.66273 3 1.02815e-06 -4.10664
16188 1 58.3193 60.5706 2.33136 3 1.02056e-06 -4.10666
16189 1 60.792 60.5706 2.33136 3 1.02054e-06 -4.10666
16190 1 59.965 60.5706 0 3 1.01801e-06 -4.10667
16191 1 62.4378 60.5706 0 3 1.01799e-06 -4.10667
16192 1 28.6413 58.5516 47.7929 3 0.000133584 -4.1223
16193 1 31.1141 58.5516 47.7929 3 0.000133584 -4.1223
16194 1 30.2864 58.5516 45.4616 3 0.000125533 -4.12231
16195 1 32.7591 58.5516 45.4616 3 0.000125533 -4.12231
16196 1 31.9319 58.5516 43.1302 3 0.000110457 -4.12234
16197 1 34.4046 58.5516 43.1302 3 0.000110457 -4.12234
16198 1 33.5781 58.5516 40.7989 3 9.07159e-05 -4.12237
16199 1 36.0508 58.5516 40.7989 3 9.07158e-05 -4.12237
16200 1 35.2251 58.5516 38.4675 3 6.9766e-05 -4.1224
16201 1 37.6979 58.5516 38.4675 3 6.97659e-05 -4.1224
16202 1 36.8733 58.5516 36.1361 3 5.08316e-05 -4.12243
16203 1 39.3461 58.5516 36.1361 3 5.08317e-05 -4.12243
16204 1 38.5225 58.5516 33.8048 3 3.52552e-05 -4.12244
16205 1 40.9953 58.5516 33.8048 3 3.52551e-05 -4.12244
16206 1 40.1728 58.5516 31.4734 3 2.24525e-05 -4.12244
16207 1 42.6456 58.5516 31.4734 3 2.24527e-05 -4.12244
16208 1 41.8241 58.5516 29.142 3 1.17353e-05 -4.12244
16209 1 44.2969 58.5516 29.142 3 1.17354e-05 -4.12244
16210 1 43.476 58.5516 26.8107 3 3.9193e-06 -4.12243
16211 1 45.9488 58.5516 26.8107 3 3.91932e-06 -4.12243
16212 1 45.1283 58.5516 24.4793 3 9.4731e-07 -4.12242
16213 1 47.6011 58.5516 24.4793 3 9.47301e-07 -4.12242
16214 1 46.7806 58.5516 22.1479 3 3.91913e-06 -4.12243
16215 1 49.2534 58.5516 22.1479 3 3.91909e-06 -4.12243
16216 1 48.4325 58.5516 19.8166 3 1.17349e-05 -4.12244
16217 1 50.9053 58.5516 19.8166 3 1.1735e-05 -4.12244
16218 1 50.0838 58.5516 17.4852 3 2.24522e-05 -4.12244
16219 1 52.5566 58.5516 17.4852 3 2.24521e-05 -4.12244
16220 1 51.7341 58.5516 15.1539 3 3.52547e-05 -4.12244
16221 1 54.2069 58.5516 15.1539 3 3.52548e-05 -4.12244
16222 1 53.3833 58.5516 12.8225 3 5.08313e-05 -4.12243
16223 1 55.8561 58.5516 12.8225 3 5.08313e-05 -4.12243
16224 1 55.0315 58.5516 10.4911 3 6.97657e-05 -4.1224
16225 1 57.5043 58.5516 10.4911 3 6.97657e-05 -4.1224
16226 1 56.6786 58.5516 8.15977 3 9.07158e-05 -4.12237
16227 1 59.1513 58.5516 8.15977 3 9.07157e-05 -4.12237
16228 1 58.3248 58.5516 5.82841 3 0.000110457 -4.12234
16229 1 60.7975 58.5516 5.82841 3 0.000110457 -4.12234
16230 1 59.9703 58.5516 3.49704 3 0.000125533 -4.12231
16231 1 62.443 58.5516 3.49704 3 0.000125533 -4.12231
16232 1 61.6153 58.5516 1.16568 3 0.000133584 -4.1223
16233 1 64.0881 58.5516 1.16568 3 0.000133584 -4.1223
16234 1 31.9358 56.5406 46.627 3 2.19144e-06 -4.12177
16235 1 34.4086 56.5406 46.627 3 2.19143e-06 -4.12177
16236 1 33.5805 56.5402 44.2953 3 3.49758e-06 -4.12182
16237 1 36.0533 56.5402 44.2953 3 3.49757e-06 -4.12182
16238 1 35.226 56.5395 41.9635 3 5.88394e-06 -4.1219
16239 1 37.6987 56.5395 41.9635 3 5.88395e-06 -4.1219
16240 1 36.8725 56.5386 39.6317 3 9.06614e-06 -4.122
16241 1 39.3453 56.5386 39.6317 3 9.06613e-06 -4.122
16242 1 38.5203 56.5374 37.3 3 1.18619e-05 -4.12212
16243 1 40.9931 56.5374 37.3 3 1.18619e-05 -4.12212
16244 1 40.1694 56.5361 34.9684 3 1.2762e-05 -4.12223
16245 1 42.6422 56.5361 34.9684 3 1.2762e-05 -4.12223
16246 1 41.8196 56.5348 32.637 3 1.11233e-05 -4.12233
16247 1 44.2924 56.5348 32.637 3 1.11233e-05 -4.12233
16248 1 43.4708 56.5336 30.3059 3 7.59863e-06 -4.1224
16249 1 45.9436 56.5336 30.3059 3 7.59862e-06 -4.1224
16250 1 45.1226 56.5327 27.9752 3 3.91338e-06 -4.12244
16251 1 47.5954 56.5327 27.9752 3 3.91337e-06 -4.12244
16252 1 46.7749 56.5323 25.6446 3 1.63777e-06 -4.12246
16253 1 49.2477 56.5323 25.6446 3 1.63777e-06 -4.12246
16254 1 48.4273 56.5323 23.3141 3 1.63777e-06 -4.12246
16255 1 50.9001 56.5323 23.3141 3 1.63778e-06 -4.12246
16256 1 50.0795 56.5327 20.9835 3 3.91337e-06 -4.12244
16257 1 52.5523 56.5327 20.9835 3 3.91338e-06 -4.12244
16258 1 51.7314 56.5336 18.6527 3 7.59862e-06 -4.1224
16259 1 54.2042 56.5336 18.6527 3 7.59861e-06 -4.1224
16260 1 53.3826 56.5348 16.3216 3 1.11233e-05 -4.12233
16261 1 55.8553 56.5348 16.3216 3 1.11233e-05 -4.12233
16262 1 55.0328 56.5361 13.9902 3 1.27621e-05 -4.12223
16263 1 57.5056 56.5361 13.9902 3 1.27621e-05 -4.12223
16264 1 56.6819 56.5374 11.6586 3 1.18619e-05 -4.12212
16265 1 59.1546 56.5374 11.6586 3 1.18619e-05 -4.12212
16266 1 58.3297 56.5386 9.32688 3 9.06614e-06 -4.122
16267 1 60.8025 56.5386 9.32688 3 9.06615e-06 -4.122
16268 1 59.9762 56.5395 6.99509 3 5.88396e-06 -4.1219
16269 1 62.449 56.5395 6.99509 3 5.88395e-06 -4.1219
16270 1 61.6217 56.5402 4.66334 3 3.49758e-06 -4.12182
16271 1 64.0945 56.5402 4.66334 3 3.49759e-06 -4.12182
16272 1 63.2663 56.5406 2.33165 3 2.19143e-06 -4.12177
16273 1 33.5859 54.5298 47.7928 3 3.89996e-06 -4.12217
16274 1 36.0587 54.5298 47.7928 3 3.89996e-06 -4.12217
16275 1 35.2293 54.5293 45.4612 3 4.47753e-06 -4.12218
16276 1 37.7021 54.5293 45.4612 3 4.47753e-06 -4.12218
16277 1 36.8735 54.5283 43.1295 3 5.81593e-06 -4.12221
16278 1 39.3463 54.5283 43.1295 3 5.81593e-06 -4.12221
16279 1 38.519 54.5268 40.7976 3 8.05885e-06 -4.12226
16280 1 40.9918 54.5268 40.7976 3 8.05886e-06 -4.12226
16281 1 40.1661 54.5247 38.4656 3 1.0958e-05 -4.12232
16282 1 42.6388 54.5247 38.4656 3 1.0958e-05 -4.12232
16283 1 41.8147 54.5221 36.1337 3 1.34554e-05 -4.12238
16284 1 44.2875 54.5221 36.1337 3 1.34554e-05 -4.12238
16285 1 43.4649 54.5193 33.802 3 1.40704e-05 -4.12243
16286 1 45.9377 54.5193 33.802 3 1.40704e-05 -4.12243
16287 1 45.1162 54.5166 31.4707 3 1.19593e-05 -4.12246
16288 1 47.589 54.5166 31.4707 3 1.19593e-05 -4.12246
16289 1 46.7684 54.5144 29.1399 3 7.87667e-06 -4.12248
16290 1 49.2411 54.5144 29.1399 3 7.87667e-06 -4.12248
16291 1 48.421 54.5129 26.8095 3 3.97123e-06 -4.12249
16292 1 50.8938 54.5129 26.8095 3 3.97123e-06 -4.12249
16293 1 50.0739 54.5124 24.4793 3 2.41598e-06 -4.12249
16294 1 52.5467 54.5124 24.4793 3 2.41598e-06 -4.12249
16295 1 51.7267 54.5129 22.1492 3 3.97123e-06 -4.12249
16296 1 54.1995 54.5129 22.1492 3 3.97122e-06 -4.12249
16297 1 53.3794 54.5144 19.8188 3 7.87666e-06 -4.12248
16298 1 55.8522 54.5144 19.8188 3 7.87667e-06 -4.12248
16299 1 55.0315 54.5166 17.4879 3 1.19593e-05 -4.12246
16300 1 57.5043 54.5166 17.4879 3 1.19593e-05 -4.12246
16301 1 56.6829 54.5193 15.1566 3 1.40704e-05 -4.12243
16302 1 59.1557 54.5193 15.1566 3 1.40704e-05 -4.12243
16303 1 58.333 54.5221 12.8249 3 1.34554e-05 -4.12238
16304 1 60.8058 54.5221 12.8249 3 1.34554e-05 -4.12238
16305 1 59.9817 54.5247 10.493 3 1.09581e-05 -4.12232
16306 1 62.4545 54.5247 10.493 3 1.0958e-05 -4.12232
16307 1 61.6287 54.5268 8.16101 3 8.05887e-06 -4.12226
16308 1 64.1015 54.5268 8.16101 3 8.05887e-06 -4.12226
16309 1 63.2742 54.5283 5.82911 3 5.81593e-06 -4.12221
16310 1 36.8789 52.5183 46.6275 3 7.52735e-06 -4.12216
16311 1 39.3517 52.5183 46.6275 3 7.52735e-06 -4.12216
16312 1 38.5213 52.5174 44.2961 3 8.29609e-06 -4.12218
16313 1 40.9941 52.5174 44.2961 3 8.29609e-06 -4.12218
16314 1 40.1651 52.5157 41.9645 3 9.67675e-06 -4.12221
16315 1 42.6379 52.5157 41.9645 3 9.67675e-06 -4.12221
16316 1 41.8107 52.5132 39.6326 3 1.15574e-05 -4.12226
16317 1 44.2835 52.5132 39.6326 3 1.15574e-05 -4.12226
16318 1 43.4584 52.5098 37.3005 3 1.40121e-05 -4.12233
16319 1 45.9312 52.5098 37.3005 3 1.40121e-05 -4.12233
16320 1 45.1081 52.5057 34.9684 3 1.63502e-05 -4.12239
16321 1 47.5809 52.5057 34.9684 3 1.63502e-05 -4.12239
16322 1 46.7596 52.5014 32.6366 3 1.70391e-05 -4.12245
16323 1 49.2324 52.5014 32.6366 3 1.70391e-05 -4.12245
16324 1 48.4123 52.4973 30.3053 3 1.49964e-05 -4.12248
16325 1 50.8851 52.4973 30.3053 3 1.49964e-05 -4.12248
16326 1 50.0658 52.4943 27.9746 3 1.09793e-05 -4.12249
16327 1 52.5386 52.4943 27.9746 3 1.09793e-05 -4.12249
16328 1 51.7197 52.4926 25.6444 3 7.73925e-06 -4.12249
16329 1 54.1925 52.4926 25.6444 3 7.73925e-06 -4.12249
16330 1 53.3736 52.4926 23.3143 3 7.73924e-06 -4.12249
16331 1 55.8464 52.4926 23.3143 3 7.73924e-06 -4.12249
16332 1 55.0275 52.4943 20.984 3 1.09792e-05 -4.12249
16333 1 57.5003 52.4943 20.984 3 1.09792e-05 -4.12249
16334 1 56.681 52.4973 18.6533 3 1.49964e-05 -4.12248
16335 1 59.1538 52.4973 18.6533 3 1.49964e-05 -4.12248
16336 1 58.3337 52.5014 16.322 3 1.70391e-05 -4.12245
16337 1 60.8065 52.5014 16.322 3 1.70391e-05 -4.12245
16338 1 59.9852 52.5057 13.9902 3 1.63502e-05 -4.12239
16339 1 62.458 52.5057 13.9902 3 1.63502e-05 -4.12239
16340 1 61.6349 52.5098 11.6581 3 1.40121e-05 -4.12233
16341 1 64.1077 52.5098 11.6581 3 1.40121e-05 -4.12233
16342 1 63.2826 52.5132 9.32602 3 1.15574e-05 -4.12226
16343 1 38.5298 50.5068 47.7934 3 1.18952e-05 -4.12215
16344 1 41.0026 50.5068 47.7934 3 1.18952e-05 -4.12215
16345 1 40.17 50.5062 45.4628 3 1.26248e-05 -4.12216
16346 1 42.6428 50.5062 45.4628 3 1.26248e-05 -4.12216
16347 1 41.8114 50.5048 43.1318 3 1.38767e-05 -4.12217
16348 1 44.2842 50.5048 43.1318 3 1.38767e-05 -4.12217
16349 1 43.4547 50.5023 40.8005 3 1.53589e-05 -4.1222
16350 1 45.9275 50.5023 40.8005 3 1.53589e-05 -4.1222
16351 1 45.1006 50.4987 38.4686 3 1.67305e-05 -4.12225
16352 1 47.5734 50.4987 38.4686 3 1.67305e-05 -4.12225
16353 1 46.7492 50.4938 36.1363 3 1.86664e-05 -4.12233
16354 1 49.222 50.4938 36.1363 3 1.86664e-05 -4.12233
16355 1 48.4004 50.488 33.804 3 2.12611e-05 -4.12241
16356 1 50.8732 50.488 33.804 3 2.12611e-05 -4.12241
16357 1 50.0537 50.4822 31.472 3 2.30165e-05 -4.12246
16358 1 52.5265 50.4822 31.472 3 2.30165e-05 -4.12246
16359 1 51.7083 50.477 29.1406 3 2.21126e-05 -4.12249
16360 1 54.1811 50.477 29.1406 3 2.21126e-05 -4.12249
16361 1 53.3637 50.4735 26.8098 3 1.91502e-05 -4.1225
16362 1 55.8365 50.4735 26.8098 3 1.91502e-05 -4.1225
16363 1 55.0194 50.4723 24.4793 3 1.74186e-05 -4.1225
16364 1 57.4922 50.4723 24.4793 3 1.74186e-05 -4.1225
16365 1 56.6752 50.4735 22.1489 3 1.91502e-05 -4.1225
16366 1 59.1479 50.4735 22.1489 3 1.91502e-05 -4.1225
16367 1 58.3306 50.477 19.818 3 2.21126e-05 -4.12249
16368 1 60.8033 50.477 19.818 3 2.21126e-05 -4.12249
16369 1 59.9852 50.4822 17.4866 3 2.30165e-05 -4.12246
16370 1 62.458 50.4822 17.4866 3 2.30165e-05 -4.12246
16371 1 61.6385 50.488 15.1546 3 2.12611e-05 -4.12241
16372 1 64.1113 50.488 15.1546 3 2.12611e-05 -4.12241
16373 1 63.2897 50.4938 12.8223 3 1.86664e-05 -4.12233
16374 1 41.8203 48.4942 46.629 3 1.78386e-05 -4.12214
16375 1 44.2931 48.4942 46.629 3 1.78386e-05 -4.12214
16376 1 43.4588 48.4932 44.299 3 1.96273e-05 -4.12214
16377 1 45.9316 48.4932 44.299 3 1.96273e-05 -4.12214
16378 1 45.0991 48.4913 41.9686 3 2.20453e-05 -4.12215
16379 1 47.5719 48.4913 41.9686 3 2.20453e-05 -4.12215
16380 1 46.7421 48.4881 39.6374 3 2.41335e-05 -4.12217
16381 1 49.2148 48.4881 39.6374 3 2.41335e-05 -4.12217
16382 1 48.3884 48.4832 37.3054 3 2.49439e-05 -4.12223
16383 1 50.8612 48.4832 37.3054 3 2.49439e-05 -4.12223
16384 1 50.0384 48.4767 34.9729 3 2.64238e-05 -4.12233
16385 1 52.5112 48.4767 34.9729 3 2.64238e-05 -4.12233
16386 1 51.6917 48.4693 32.6402 3 3.04308e-05 -4.12241
16387 1 54.1645 48.4693 32.6402 3 3.04308e-05 -4.12241
16388 1 53.3475 48.4619 30.3078 3 3.52972e-05 -4.12247
16389 1 55.8203 48.4619 30.3078 3 3.52972e-05 -4.12247
16390 1 55.0049 48.456 27.976 3 3.74501e-05 -4.1225
16391 1 57.4776 48.456 27.976 3 3.74501e-05 -4.1225
16392 1 56.663 48.4526 25.6448 3 3.66337e-05 -4.12251
16393 1 59.1358 48.4526 25.6448 3 3.66337e-05 -4.12251
16394 1 58.3214 48.4526 23.3138 3 3.66337e-05 -4.12251
16395 1 60.7942 48.4526 23.3138 3 3.66337e-05 -4.12251
16396 1 59.9796 48.456 20.9826 3 3.745e-05 -4.1225
16397 1 62.4524 48.456 20.9826 3 3.745e-05 -4.1225
16398 1 61.637 48.4619 18.6508 3 3.52972e-05 -4.12247
16399 1 64.1098 48.4619 18.6508 3 3.52972e-05 -4.12247
16400 1 63.2928 48.4693 16.3184 3 3.04307e-05 -4.12241
16401 1 43.4729 46.4812 47.7943 3 2.36101e-05 -4.12212
16402 1 45.9456 46.4812 47.7943 3 2.36101e-05 -4.12212
16403 1 45.108 46.4807 45.4655 3 2.56145e-05 -4.12212
16404 1 47.5808 46.4807 45.4655 3 2.56145e-05 -4.12212
16405 1 46.7446 46.4794 43.1363 3 2.95039e-05 -4.12211
16406 1 49.2174 46.4794 43.1363 3 2.95039e-05 -4.12211
16407 1 48.3838 46.4771 40.8063 3 3.46056e-05 -4.1221
16408 1 50.8566 46.4771 40.8063 3 3.46056e-05 -4.1221
16409 1 50.0266 46.4731 38.4753 3 3.8725e-05 -4.12212
16410 1 52.4994 46.4731 38.4753 3 3.8725e-05 -4.12212
16411 1 51.6739 46.467 36.1432 3 3.9276e-05 -4.12218
16412 1 54.1467 46.467 36.1432 3 3.9276e-05 -4.12218
16413 1 53.326 46.4588 33.8101 3 4.07035e-05 -4.12231
16414 1 55.7988 46.4588 33.8101 3 4.07035e-05 -4.12231
16415 1 54.9822 46.4495 31.4768 3 4.82067e-05 -4.1224
16416 1 57.455 46.4495 31.4768 3 4.82067e-05 -4.1224
16417 1 56.6416 46.4409 29.1438 3 6.04472e-05 -4.12248
16418 1 59.1144 46.4409 29.1438 3 6.04472e-05 -4.12248
16419 1 58.3029 46.4347 26.8113 3 6.90738e-05 -4.12252
16420 1 60.7757 46.4347 26.8113 3 6.90738e-05 -4.12252
16421 1 59.965 46.4324 24.4793 3 7.12415e-05 -4.12253
16422 1 62.4378 46.4324 24.4793 3 7.12415e-05 -4.12253
16423 1 61.6271 46.4347 22.1473 3 6.90738e-05 -4.12252
16424 1 64.0999 46.4347 22.1473 3 6.90738e-05 -4.12252
16425 1 63.2884 46.4409 19.8148 3 6.04472e-05 -4.12248
16426 1 46.7598 44.4667 46.631 3 3.16705e-05 -4.12209
16427 1 49.2326 44.4667 46.631 3 3.16705e-05 -4.12209
16428 1 48.3924 44.4662 44.3031 3 3.62616e-05 -4.12207
16429 1 50.8651 44.4662 44.3031 3 3.62616e-05 -4.12207
16430 1 50.027 44.4648 41.9745 3 4.42897e-05 -4.12205
16431 1 52.4998 44.4648 41.9745 3 4.42897e-05 -4.12205
16432 1 51.665 44.4622 39.645 3 5.52161e-05 -4.12202
16433 1 54.1378 44.4622 39.645 3 5.52161e-05 -4.12202
16434 1 53.3078 44.4575 37.3141 3 6.50011e-05 -4.12201
16435 1 55.7806 44.4575 37.3141 3 6.50011e-05 -4.12201
16436 1 54.9566 44.4501 34.9816 3 6.6379e-05 -4.12208
16437 1 57.4294 44.4501 34.9816 3 6.6379e-05 -4.12208
16438 1 56.6119 44.44 32.6477 3 6.90114e-05 -4.12229
16439 1 59.0847 44.44 32.6477 3 6.90114e-05 -4.12229
16440 1 58.2725 44.429 30.3136 3 8.3298e-05 -4.12236
16441 1 60.7453 44.429 30.3136 3 8.3298e-05 -4.12236
16442 1 59.9371 44.4195 27.9795 3 0.000113302 -4.12248
16443 1 62.4099 44.4195 27.9795 3 0.000113302 -4.12248
16444 1 61.604 44.4138 25.646 3 0.000134837 -4.12254
16445 1 64.0768 44.4138 25.646 3 0.000134837 -4.12254
16446 1 63.2716 44.4138 23.3127 3 0.000134837 -4.12254
16447 1 48.4149 42.4514 47.7953 3 3.88216e-05 -4.12204
16448 1 50.8877 42.4514 47.7953 3 3.88216e-05 -4.12204
16449 1 50.043 42.4513 45.4685 3 4.29685e-05 -4.12203
16450 1 52.5157 42.4513 45.4685 3 4.29685e-05 -4.12203
16451 1 51.6726 42.4508 43.1414 3 5.21401e-05 -4.122
16452 1 54.1454 42.4508 43.1414 3 5.21401e-05 -4.122
16453 1 53.3051 42.4495 40.8135 3 6.79327e-05 -4.12195
16454 1 55.7779 42.4495 40.8135 3 6.79327e-05 -4.12195
16455 1 54.9419 42.4468 38.4844 3 9.11994e-05 -4.12188
16456 1 57.4147 42.4468 38.4844 3 9.11994e-05 -4.12188
16457 1 56.585 42.4416 36.1535 3 0.000115746 -4.12183
16458 1 59.0578 42.4416 36.1535 3 0.000115746 -4.12183
16459 1 58.2363 42.4328 33.8204 3 0.000121899 -4.12189
16460 1 60.709 42.4328 33.8204 3 0.000121899 -4.12189
16461 1 59.8964 42.4205 31.4854 3 0.000131069 -4.12226
16462 1 62.3692 42.4205 31.4854 3 0.000131069 -4.12226
16463 1 61.5633 42.408 29.1501 3 0.000154237 -4.12225
16464 1 64.0361 42.408 29.1501 3 0.000154237 -4.12225
16465 1 63.2356 42.3982 26.8146 3 0.000231706 -4.12249
16466 1 51.6971 40.4348 46.6326 3 5.18024e-05 -4.12196
16467 1 54.1699 40.4348 46.6326 3 5.18024e-05 -4.12196
16468 1 53.3214 40.4348 44.3065 3 6.06629e-05 -4.12193
16469 1 55.7942 40.4348 44.3065 3 6.06629e-05 -4.12193
16470 1 54.9478 40.4346 41.9799 3 7.80201e-05 -4.12187
16471 1 57.4206 40.4346 41.9799 3 7.80201e-05 -4.12187
16472 1 56.5778 40.4336 39.6526 3 0.000108536 -4.12178
16473 1 59.0506 40.4336 39.6526 3 0.000108536 -4.12178
16474 1 58.2134 40.431 37.324 3 0.000158298 -4.12165
16475 1 60.6862 40.431 37.324 3 0.000158298 -4.12165
16476 1 59.8571 40.4256 34.9932 3 0.000221815 -4.1215
16477 1 62.3299 40.4256 34.9932 3 0.000221815 -4.1215
16478 1 61.5121 40.4155 32.6594 3 0.000248953 -4.12152
16479 1 63.9849 40.4155 32.6594 3 0.000248953 -4.12152
16480 1 63.1798 40.4005 30.3228 3 0.000290858 -4.12227
16481 1 53.3556 38.4171 47.7957 3 6.55492e-05 -4.12185
16482 1 55.8284 38.4171 47.7957 3 6.55492e-05 -4.12185
16483 1 54.974 38.4173 45.4699 3 7.3238e-05 -4.12182
16484 1 57.4468 38.4173 45.4699 3 7.3238e-05 -4.12182
16485 1 56.5939 38.4176 43.144 3 9.07642e-05 -4.12177
16486 1 59.0667 38.4176 43.144 3 9.07642e-05 -4.12177
16487 1 58.2166 38.4177 40.8179 3 0.00012367 -4.12167
16488 1 60.6894 38.4177 40.8179 3 0.00012367 -4.12167
16489 1 59.8436 38.4172 38.4912 3 0.000183731 -4.12151
16490 1 62.3164 38.4172 38.4912 3 0.000183731 -4.12151
16491 1 61.4776 38.4151 36.1632 3 0.000293667 -4.12125
16492 1 63.9504 38.4151 36.1632 3 0.000293667 -4.12125
16493 1 63.1224 38.4098 33.8328 3 0.000468568 -4.12089
16494 1 56.6314 36.3986 46.6323 3 9.18568e-05 -4.12168
16495 1 59.1042 36.3986 46.6323 3 9.18568e-05 -4.12168
16496 1 58.2443 36.399 44.306 3 0.000108355 -4.12161
16497 1 60.7171 36.399 44.306 3 0.000108355 -4.12161
16498 1 59.859 36.3997 41.9799 3 0.000142159 -4.1215
16499 1 62.3318 36.3997 41.9799 3 0.000142159 -4.1215
16500 1 61.4769 36.4003 39.6538 3 0.000206701 -4.12131
16501 1 63.9497 36.4003 39.6538 3 0.000206701 -4.12131
16502 1 63.1001 36.4004 37.3276 3 0.000333509 -4.12101
16503 1 58.2947 34.3792 47.7948 3 0.000115414 -4.12147
16504 1 60.7675 34.3792 47.7948 3 0.000115414 -4.12147
16505 1 59.9 34.3796 45.4671 3 0.000127924 -4.12141
16506 1 62.3727 34.3796 45.4671 3 0.000127924 -4.12141
16507 1 61.5063 34.3803 43.1397 3 0.000158073 -4.12129
16508 1 63.9791 34.3803 43.1397 3 0.000158073 -4.12129
16509 1 63.1146 34.3813 40.8125 3 0.000219406 -4.12107
16510 1 61.5623 32.3599 46.6288 3 0.000142377 -4.12113
16511 1 64.0351 32.3599 46.6288 3 0.000142377 -4.12113
16512 1 63.1599 32.3605 44.299 3 0.000163748 -4.12102
16513 1 63.2324 30.3403 47.7924 3 0.000141586 -4.12074
16514 1 28.642 62.5896 47.7929 5 6.11303 -3.54477
16515 1 31.1148 62.5896 47.7929 5 6.11303 -3.54477
16516 1 30.2884 62.5896 45.4616 5 6.11233 -3.54476
16517 1 32.7612 62.5896 45.4616 5 6.11233 -3.54476
16518 1 31.9352 62.5896 43.1302 5 6.11184 -3.54474
16519 1 34.4079 62.5896 43.1302 5 6.11184 -3.54474
16520 1 33.5823 62.5896 40.7989 5 12.2235 -3.54471
16521 1 36.0551 62.5896 40.7989 5 12.2235 -3.54471
16522 1 35.23 62.5896 38.4675 5 12.2231 -3.54468
16523 1 37.7028 62.5896 38.4675 5 12.2231 -3.54468
16524 1 36.8783 62.5896 36.1361 5 12.2233 -3.54464
16525 1 39.3511 62.5896 36.1361 5 12.2233 -3.54464
16526 1 38.5273 62.5896 33.8048 5 12.2239 -3.54461
16527 1 41.0001 62.5896 33.8048 5 12.2239 -3.54461
16528 1 40.1769 62.5896 31.4734 5 12.2265 -3.54458
16529 1 42.6497 62.5896 31.4734 5 12.2265 -3.54458
16530 1 41.827 62.5896 29.142 5 12.2286 -3.54455
16531 1 44.2998 62.5896 29.142 5 12.2286 -3.54455
16532 1 43.4776 62.5896 26.8107 5 12.2309 -3.54454
16533 1 45.9503 62.5896 26.8107 5 12.2309 -3.54454
16534 1 45.1283 62.5896 24.4793 5 12.2318 -3.54453
16535 1 47.6011 62.5896 24.4793 5 12.2318 -3.54453
16536 1 46.7791 62.5896 22.1479 5 12.2309 -3.54454
16537 1 49.2518 62.5896 22.1479 5 12.2309 -3.54454
16538 1 48.4296 62.5896 19.8166 5 12.2286 -3.54455
16539 1 50.9024 62.5896 19.8166 5 12.2286 -3.54455
16540 1 50.0797 62.5896 17.4852 5 12.2265 -3.54458
16541 1 52.5525 62.5896 17.4852 5 12.2265 -3.54458
16542 1 51.7293 62.5896 15.1539 5 12.2239 -3.54461
16543 1 54.2021 62.5896 15.1539 5 12.2239 -3.54461
16544 1 53.3783 62.5896 12.8225 5 12.2233 -3.54464
16545 1 55.8511 62.5896 12.8225 5 12.2233 -3.54464
16546 1 55.0266 62.5896 10.4911 5 12.2231 -3.54468
16547 1 57.4994 62.5896 10.4911 5 12.2231 -3.54468
16548 1 56.6743 62.5896 8.15977 5 12.2235 -3.54471
16549 1 59.1471 62.5896 8.15977 5 12.2235 -3.54471
16550 1 58.3215 62.5896 5.82841 5 6.11184 -3.54474
16551 1 60.7942 62.5896 5.82841 5 6.11184 -3.54474
16552 1 59.9682 62.5896 3.49704 5 6.11233 -3.54476
16553 1 62.441 62.5896 3.49704 5 6.11233 -3.54476
16554 1 61.6146 62.5896 1.16568 5 6.11303 -3.54477
16555 1 64.0874 62.5896 1.16568 5 6.11303 -3.54477
16556 1 31.9374 60.5706 46.6273 3 1.02055e-06 -4.10666
16557 1 34.4101 60.5706 46.6273 3 1.02054e-06 -4.10666
16558 1 33.5834 60.5706 44.2959 3 1.02815e-06 -4.10664
16559 1 36.0561 60.5706 44.2959 3 1.02817e-06 -4.10664
16560 1 35.2298 60.5706 41.9645 3 1.04077e-06 -4.10661
16561 1 37.7026 60.5706 41.9645 3 1.04074e-06 -4.10661
16562 1 36.8768 60.5706 39.6332 3 1.05865e-06 -4.10657
16563 1 39.3496 60.5706 39.6332 3 1.05862e-06 -4.10657
16564 1 38.5247 60.5706 37.3018 3 1.08243e-06 -4.10651
16565 1 40.9975 60.5706 37.3018 3 1.08243e-06 -4.10651
16566 1 40.1733 60.5706 34.9704 3 1.11276e-06 -4.10645
16567 1 42.6461 60.5706 34.9704 3 1.11273e-06 -4.10645
16568 1 41.8229 60.5706 32.6391 3 1.14889e-06 -4.10639
16569 1 44.2956 60.5706 32.6391 3 1.14887e-06 -4.10639
16570 1 43.4731 60.5706 30.3077 3 1.18715e-06 -4.10633
16571 1 45.9459 60.5706 30.3077 3 1.18713e-06 -4.10633
16572 1 45.1241 60.5706 27.9764 3 1.22041e-06 -4.1063
16573 1 47.5968 60.5706 27.9764 3 1.2204e-06 -4.1063
16574 1 46.7754 60.5706 25.645 3 1.24004e-06 -4.10627
16575 1 49.2481 60.5706 25.645 3 1.24004e-06 -4.10627
16576 1 48.4268 60.5706 23.3136 3 1.24004e-06 -4.10627
16577 1 50.8996 60.5706 23.3136 3 1.24006e-06 -4.10627
16578 1 50.0781 60.5706 20.9823 3 1.22041e-06 -4.1063
16579 1 52.5509 60.5706 20.9823 3 1.22039e-06 -4.1063
16580 1 51.729 60.5706 18.6509 3 1.18712e-06 -4.10633
16581 1 54.2018 60.5706 18.6509 3 1.18714e-06 -4.10633
16582 1 53.3793 60.5706 16.3195 3 1.14887e-06 -4.10639
16583 1 55.8521 60.5706 16.3195 3 1.14887e-06 -4.10639
16584 1 55.0288 60.5706 13.9882 3 1.11275e-06 -4.10645
16585 1 57.5016 60.5706 13.9882 3 1.11275e-06 -4.10645
16586 1 56.6775 60.5706 11.6568 3 1.08242e-06 -4.10651
16587 1 59.1503 60.5706 11.6568 3 1.08242e-06 -4.10651
16588 1 58.3253 60.5706 9.32545 3 1.05862e-06 -4.10657
16589 1 60.7981 60.5706 9.32545 3 1.05864e-06 -4.10657
16590 1 59.9724 60.5706 6.99409 3 1.04075e-06 -4.10661
16591 1 62.4452 60.5706 6.99409 3 1.04077e-06 -4.10661
16592 1 61.6188 60.5706 4.66273 3 1.02817e-06 -4.10664
16593 1 64.0916 60.5706 4.66273 3 1.02813e-06 -4.10664
16594 1 63.2648 60.5706 2.33136 3 1.02054e-06 -4.10666
16595 1 33.5869 58.5516 47.7929 3 0.000133584 -4.1223
16596 1 36.0596 58.5516 47.7929 3 0.000133584 -4.1223
16597 1 35.2319 58.5516 45.4616 3 0.000125533 -4.12231
16598 1 37.7047 58.5516 45.4616 3 0.000125533 -4.12231
16599 1 36.8774 58.5516 43.1302 3 0.000110457 -4.12234
16600 1 39.3502 58.5516 43.1302 3 0.000110457 -4.12234
16601 1 38.5236 58.5516 40.7989 3 9.07158e-05 -4.12237
16602 1 40.9964 58.5516 40.7989 3 9.07159e-05 -4.12237
16603 1 40.1707 58.5516 38.4675 3 6.97658e-05 -4.1224
16604 1 42.6435 58.5516 38.4675 3 6.97659e-05 -4.1224
16605 1 41.8188 58.5516 36.1361 3 5.08316e-05 -4.12243
16606 1 44.2916 58.5516 36.1361 3 5.08315e-05 -4.12243
16607 1 43.4681 58.5516 33.8048 3 3.52551e-05 -4.12244
16608 1 45.9409 58.5516 33.8048 3 3.52552e-05 -4.12244
16609 1 45.1184 58.5516 31.4734 3 2.24526e-05 -4.12244
16610 1 47.5912 58.5516 31.4734 3 2.24525e-05 -4.12244
16611 1 46.7696 58.5516 29.142 3 1.17353e-05 -4.12244
16612 1 49.2424 58.5516 29.142 3 1.17352e-05 -4.12244
16613 1 48.4216 58.5516 26.8107 3 3.91931e-06 -4.12243
16614 1 50.8944 58.5516 26.8107 3 3.91934e-06 -4.12243
16615 1 50.0739 58.5516 24.4793 3 9.47301e-07 -4.12242
16616 1 52.5467 58.5516 24.4793 3 9.47301e-07 -4.12242
16617 1 51.7262 58.5516 22.1479 3 3.91911e-06 -4.12243
16618 1 54.199 58.5516 22.1479 3 3.91905e-06 -4.12243
16619 1 53.3781 58.5516 19.8166 3 1.17349e-05 -4.12244
16620 1 55.8509 58.5516 19.8166 3 1.17349e-05 -4.12244
16621 1 55.0294 58.5516 17.4852 3 2.24521e-05 -4.12244
16622 1 57.5021 58.5516 17.4852 3 2.24522e-05 -4.12244
16623 1 56.6797 58.5516 15.1539 3 3.52549e-05 -4.12244
16624 1 59.1525 58.5516 15.1539 3 3.52547e-05 -4.12244
16625 1 58.3289 58.5516 12.8225 3 5.08313e-05 -4.12243
16626 1 60.8017 58.5516 12.8225 3 5.08313e-05 -4.12243
16627 1 59.977 58.5516 10.4911 3 6.97657e-05 -4.1224
16628 1 62.4498 58.5516 10.4911 3 6.97656e-05 -4.1224
16629 1 61.6241 58.5516 8.15977 3 9.07158e-05 -4.12237
16630 1 64.0969 58.5516 8.15977 3 9.07158e-05 -4.12237
16631 1 63.2703 58.5516 5.82841 3 0.000110457 -4.12234
16632 1 36.8814 56.5406 46.627 3 2.19144e-06 -4.12177
16633 1 39.3542 56.5406 46.627 3 2.19143e-06 -4.12177
16634 1 38.5261 56.5402 44.2953 3 3.49758e-06 -4.12182
16635 1 40.9988 56.5402 44.2953 3 3.49758e-06 -4.12182
16636 1 40.1715 56.5395 41.9635 3 5.88395e-06 -4.1219
16637 1 42.6443 56.5395 41.9635 3 5.88394e-06 -4.1219
16638 1 41.8181 56.5386 39.6317 3 9.06614e-06 -4.122
16639 1 44.2909 56.5386 39.6317 3 9.06613e-06 -4.122
16640 1 43.4659 56.5374 37.3 3 1.18619e-05 -4.12212
16641 1 45.9387 56.5374 37.3 3 1.18619e-05 -4.12212
16642 1 45.115 56.5361 34.9684 3 1.27621e-05 -4.12223
16643 1 47.5878 56.5361 34.9684 3 1.2762e-05 -4.12223
16644 1 46.7652 56.5348 32.637 3 1.11233e-05 -4.12233
16645 1 49.238 56.5348 32.637 3 1.11233e-05 -4.12233
16646 1 48.4164 56.5336 30.3059 3 7.59861e-06 -4.1224
16647 1 50.8891 56.5336 30.3059 3 7.59862e-06 -4.1224
16648 1 50.0682 56.5327 27.9752 3 3.91338e-06 -4.12244
16649 1 52.541 56.5327 27.9752 3 3.91338e-06 -4.12244
16650 1 51.7205 56.5323 25.6446 3 1.63777e-06 -4.12246
16651 1 54.1933 56.5323 25.6446 3 1.63777e-06 -4.12246
16652 1 53.3729 56.5323 23.3141 3 1.63777e-06 -4.12246
16653 1 55.8456 56.5323 23.3141 3 1.63778e-06 -4.12246
16654 1 55.0251 56.5327 20.9835 3 3.91337e-06 -4.12244
16655 1 57.4979 56.5327 20.9835 3 3.91338e-06 -4.12244
16656 1 56.677 56.5336 18.6527 3 7.59861e-06 -4.1224
16657 1 59.1497 56.5336 18.6527 3 7.5986e-06 -4.1224
16658 1 58.3281 56.5348 16.3216 3 1.11233e-05 -4.12233
16659 1 60.8009 56.5348 16.3216 3 1.11233e-05 -4.12233
16660 1 59.9783 56.5361 13.9902 3 1.27621e-05 -4.12223
16661 1 62.4511 56.5361 13.9902 3 1.27621e-05 -4.12223
16662 1 61.6274 56.5374 11.6586 3 1.18619e-05 -4.12212
16663 1 64.1002 56.5374 11.6586 3 1.18619e-05 -4.12212
16664 1 63.2752 56.5386 9.32688 3 9.06615e-06 -4.122
16665 1 38.5315 54.5298 47.7928 3 3.89996e-06 -4.12217
16666 1 41.0043 54.5298 47.7928 3 3.89996e-06 -4.12217
16667 1 40.1749 54.5293 45.4612 3 4.47753e-06 -4.12218
16668 1 42.6477 54.5293 45.4612 3 4.47753e-06 -4.12218
16669 1 41.8191 54.5283 43.1295 3 5.81592e-06 -4.12221
16670 1 44.2919 54.5283 43.1295 3 5.81593e-06 -4.12221
16671 1 43.4646 54.5268 40.7976 3 8.05886e-06 -4.12226
16672 1 45.9374 54.5268 40.7976 3 8.05886e-06 -4.12226
16673 1 45.1116 54.5247 38.4656 3 1.0958e-05 -4.12232
16674 1 47.5844 54.5247 38.4656 3 1.0958e-05 -4.12232
16675 1 46.7603 54.5221 36.1337 3 1.34554e-05 -4.12238
16676 1 49.2331 54.5221 36.1337 3 1.34554e-05 -4.12238
16677 1 48.4104 54.5193 33.802 3 1.40704e-05 -4.12243
16678 1 50.8832 54.5193 33.802 3 1.40704e-05 -4.12243
16679 1 50.0618 54.5166 31.4707 3 1.19593e-05 -4.12246
16680 1 52.5346 54.5166 31.4707 3 1.19593e-05 -4.12246
16681 1 51.7139 54.5144 29.1399 3 7.87667e-06 -4.12248
16682 1 54.1867 54.5144 29.1399 3 7.87667e-06 -4.12248
16683 1 53.3666 54.5129 26.8095 3 3.97123e-06 -4.12249
16684 1 55.8394 54.5129 26.8095 3 3.97123e-06 -4.12249
16685 1 55.0194 54.5124 24.4793 3 2.41598e-06 -4.12249
16686 1 57.4922 54.5124 24.4793 3 2.41598e-06 -4.12249
16687 1 56.6723 54.5129 22.1492 3 3.97123e-06 -4.12249
16688 1 59.1451 54.5129 22.1492 3 3.97123e-06 -4.12249
16689 1 58.325 54.5144 19.8188 3 7.87666e-06 -4.12248
16690 1 60.7977 54.5144 19.8188 3 7.87666e-06 -4.12248
16691 1 59.9771 54.5166 17.4879 3 1.19593e-05 -4.12246
16692 1 62.4499 54.5166 17.4879 3 1.19593e-05 -4.12246
16693 1 61.6284 54.5193 15.1566 3 1.40704e-05 -4.12243
16694 1 64.1012 54.5193 15.1566 3 1.40704e-05 -4.12243
16695 1 63.2786 54.5221 12.8249 3 1.34554e-05 -4.12238
16696 1 41.8245 52.5183 46.6275 3 7.52735e-06 -4.12216
16697 1 44.2973 52.5183 46.6275 3 7.52735e-06 -4.12216
16698 1 43.4669 52.5174 44.2961 3 8.29609e-06 -4.12218
16699 1 45.9397 52.5174 44.2961 3 8.29609e-06 -4.12218
16700 1 45.1107 52.5157 41.9645 3 9.67675e-06 -4.12221
16701 1 47.5834 52.5157 41.9645 3 9.67675e-06 -4.12221
16702 1 46.7563 52.5132 39.6326 3 1.15574e-05 -4.12226
16703 1 49.229 52.5132 39.6326 3 1.15574e-05 -4.12226
16704 1 48.4039 52.5098 37.3005 3 1.40121e-05 -4.12233
16705 1 50.8767 52.5098 37.3005 3 1.40121e-05 -4.12233
16706 1 50.0537 52.5057 34.9684 3 1.63502e-05 -4.12239
16707 1 52.5265 52.5057 34.9684 3 1.63502e-05 -4.12239
16708 1 51.7052 52.5014 32.6366 3 1.70391e-05 -4.12245
16709 1 54.178 52.5014 32.6366 3 1.70391e-05 -4.12245
16710 1 53.3579 52.4973 30.3053 3 1.49964e-05 -4.12248
16711 1 55.8307 52.4973 30.3053 3 1.49964e-05 -4.12248
16712 1 55.0114 52.4943 27.9746 3 1.09793e-05 -4.12249
16713 1 57.4842 52.4943 27.9746 3 1.09793e-05 -4.12249
16714 1 56.6652 52.4926 25.6444 3 7.73925e-06 -4.12249
16715 1 59.138 52.4926 25.6444 3 7.73925e-06 -4.12249
16716 1 58.3192 52.4926 23.3143 3 7.73925e-06 -4.12249
16717 1 60.792 52.4926 23.3143 3 7.73924e-06 -4.12249
16718 1 59.9731 52.4943 20.984 3 1.09792e-05 -4.12249
16719 1 62.4459 52.4943 20.984 3 1.09792e-05 -4.12249
16720 1 61.6266 52.4973 18.6533 3 1.49964e-05 -4.12248
16721 1 64.0993 52.4973 18.6533 3 1.49964e-05 -4.12248
16722 1 63.2793 52.5014 16.322 3 1.70391e-05 -4.12245
16723 1 43.4754 50.5068 47.7934 3 1.18952e-05 -4.12215
16724 1 45.9482 50.5068 47.7934 3 1.18952e-05 -4.12215
16725 1 45.1156 50.5062 45.4628 3 1.26248e-05 -4.12216
16726 1 47.5884 50.5062 45.4628 3 1.26248e-05 -4.12216
16727 1 46.757 50.5048 43.1318 3 1.38767e-05 -4.12217
16728 1 49.2298 50.5048 43.1318 3 1.38767e-05 -4.12217
16729 1 48.4003 50.5023 40.8005 3 1.53589e-05 -4.1222
16730 1 50.8731 50.5023 40.8005 3 1.53589e-05 -4.1222
16731 1 50.0462 50.4987 38.4686 3 1.67305e-05 -4.12225
16732 1 52.5189 50.4987 38.4686 3 1.67305e-05 -4.12225
16733 1 51.6948 50.4938 36.1363 3 1.86664e-05 -4.12233
16734 1 54.1676 50.4938 36.1363 3 1.86664e-05 -4.12233
16735 1 53.346 50.488 33.804 3 2.12611e-05 -4.12241
16736 1 55.8188 50.488 33.804 3 2.12611e-05 -4.12241
16737 1 54.9992 50.4822 31.472 3 2.30165e-05 -4.12246
16738 1 57.472 50.4822 31.472 3 2.30165e-05 -4.12246
16739 1 56.6539 50.477 29.1406 3 2.21126e-05 -4.12249
16740 1 59.1267 50.477 29.1406 3 2.21126e-05 -4.12249
16741 1 58.3093 50.4735 26.8098 3 1.91502e-05 -4.1225
16742 1 60.7821 50.4735 26.8098 3 1.91502e-05 -4.1225
16743 1 59.965 50.4723 24.4793 3 1.74186e-05 -4.1225
16744 1 62.4378 50.4723 24.4793 3 1.74186e-05 -4.1225
16745 1 61.6207 50.4735 22.1489 3 1.91502e-05 -4.1225
16746 1 64.0935 50.4735 22.1489 3 1.91502e-05 -4.1225
16747 1 63.2761 50.477 19.818 3 2.21126e-05 -4.12249
16748 1 46.7659 48.4942 46.629 3 1.78386e-05 -4.12214
16749 1 49.2387 48.4942 46.629 3 1.78386e-05 -4.12214
16750 1 48.4043 48.4932 44.299 3 1.96273e-05 -4.12214
16751 1 50.8771 48.4932 44.299 3 1.96273e-05 -4.12214
16752 1 50.0446 48.4913 41.9686 3 2.20453e-05 -4.12215
16753 1 52.5174 48.4913 41.9686 3 2.20453e-05 -4.12215
16754 1 51.6876 48.4881 39.6374 3 2.41335e-05 -4.12217
16755 1 54.1604 48.4881 39.6374 3 2.41335e-05 -4.12217
16756 1 53.334 48.4832 37.3054 3 2.49439e-05 -4.12223
16757 1 55.8068 48.4832 37.3054 3 2.49439e-05 -4.12223
16758 1 54.984 48.4767 34.9729 3 2.64238e-05 -4.12233
16759 1 57.4568 48.4767 34.9729 3 2.64238e-05 -4.12233
16760 1 56.6373 48.4693 32.6402 3 3.04308e-05 -4.12241
16761 1 59.11 48.4693 32.6402 3 3.04308e-05 -4.12241
16762 1 58.293 48.4619 30.3078 3 3.52972e-05 -4.12247
16763 1 60.7658 48.4619 30.3078 3 3.52972e-05 -4.12247
16764 1 59.9504 48.456 27.976 3 3.74501e-05 -4.1225
16765 1 62.4232 48.456 27.976 3 3.74501e-05 -4.1225
16766 1 61.6086 48.4526 25.6448 3 3.66337e-05 -4.12251
16767 1 64.0814 48.4526 25.6448 3 3.66337e-05 -4.12251
16768 1 63.267 48.4526 23.3138 3 3.66337e-05 -4.12251
16769 1 48.4184 46.4812 47.7943 3 2.36101e-05 -4.12212
16770 1 50.8912 46.4812 47.7943 3 2.36101e-05 -4.12212
16771 1 50.0536 46.4807 45.4655 3 2.56145e-05 -4.12212
16772 1 52.5264 46.4807 45.4655 3 2.56145e-05 -4.12212
16773 1 51.6902 46.4794 43.1363 3 2.95039e-05 -4.12211
16774 1 54.163 46.4794 43.1363 3 2.95039e-05 -4.12211
16775 1 53.3294 46.4771 40.8063 3 3.46056e-05 -4.1221
16776 1 55.8022 46.4771 40.8063 3 3.46056e-05 -4.1221
16777 1 54.9722 46.4731 38.4753 3 3.8725e-05 -4.12212
16778 1 57.4449 46.4731 38.4753 3 3.8725e-05 -4.12212
16779 1 56.6194 46.467 36.1432 3 3.9276e-05 -4.12218
16780 1 59.0922 46.467 36.1432 3 3.9276e-05 -4.12218
16781 1 58.2715 46.4588 33.8101 3 4.07035e-05 -4.12231
16782 1 60.7443 46.4588 33.8101 3 4.07035e-05 -4.12231
16783 1 59.9278 46.4495 31.4768 3 4.82067e-05 -4.1224
16784 1 62.4006 46.4495 31.4768 3 4.82067e-05 -4.1224
16785 1 61.5872 46.4409 29.1438 3 6.04472e-05 -4.12248
16786 1 64.06 46.4409 29.1438 3 6.04472e-05 -4.12248
16787 1 63.2485 46.4347 26.8113 3 6.90738e-05 -4.12252
16788 1 51.7054 44.4667 46.631 3 3.16705e-05 -4.12209
16789 1 54.1782 44.4667 46.631 3 3.16705e-05 -4.12209
16790 1 53.3379 44.4662 44.3031 3 3.62616e-05 -4.12207
16791 1 55.8107 44.4662 44.3031 3 3.62616e-05 -4.12207
16792 1 54.9726 44.4648 41.9745 3 4.42897e-05 -4.12205
16793 1 57.4454 44.4648 41.9745 3 4.42897e-05 -4.12205
16794 1 56.6106 44.4622 39.645 3 5.52161e-05 -4.12202
16795 1 59.0834 44.4622 39.645 3 5.52161e-05 -4.12202
16796 1 58.2534 44.4575 37.3141 3 6.50011e-05 -4.12201
16797 1 60.7262 44.4575 37.3141 3 6.50011e-05 -4.12201
16798 1 59.9022 44.4501 34.9816 3 6.6379e-05 -4.12208
16799 1 62.375 44.4501 34.9816 3 6.6379e-05 -4.12208
16800 1 61.5575 44.44 32.6477 3 6.90114e-05 -4.12229
16801 1 64.0303 44.44 32.6477 3 6.90114e-05 -4.12229
16802 1 63.2181 44.429 30.3136 3 8.3298e-05 -4.12236
16803 1 53.3604 42.4514 47.7953 3 3.88216e-05 -4.12204
16804 1 55.8332 42.4514 47.7953 3 3.88216e-05 -4.12204
16805 1 54.9885 42.4513 45.4685 3 4.29685e-05 -4.12203
16806 1 57.4613 42.4513 45.4685 3 4.29685e-05 -4.12203
16807 1 56.6182 42.4508 43.1414 3 5.21401e-05 -4.122
16808 1 59.091 42.4508 43.1414 3 5.21401e-05 -4.122
16809 1 58.2507 42.4495 40.8135 3 6.79327e-05 -4.12195
16810 1 60.7234 42.4495 40.8135 3 6.79327e-05 -4.12195
16811 1 59.8875 42.4468 38.4844 3 9.11994e-05 -4.12188
16812 1 62.3603 42.4468 38.4844 3 9.11994e-05 -4.12188
16813 1 61.5306 42.4416 36.1535 3 0.000115746 -4.12183
16814 1 64.0034 42.4416 36.1535 3 0.000115746 -4.12183
16815 1 63.1818 42.4328 33.8204 3 0.000121899 -4.12189
16816 1 56.6427 40.4348 46.6326 3 5.18024e-05 -4.12196
16817 1 59.1155 40.4348 46.6326 3 5.18024e-05 -4.12196
16818 1 58.267 40.4348 44.3065 3 6.06629e-05 -4.12193
16819 1 60.7397 40.4348 44.3065 3 6.06629e-05 -4.12193
16820 1 59.8934 40.4346 41.9799 3 7.80201e-05 -4.12187
16821 1 62.3662 40.4346 41.9799 3 7.80201e-05 -4.12187
16822 1 61.5234 40.4336 39.6526 3 0.000108536 -4.12178
16823 1 63.9962 40.4336 39.6526 3 0.000108536 -4.12178
16824 1 63.159 40.431 37.324 3 0.000158298 -4.12165
16825 1 58.3012 38.4171 47.7957 3 6.55492e-05 -4.12185
16826 1 60.774 38.4171 47.7957 3 6.55492e-05 -4.12185
16827 1 59.9196 38.4173 45.4699 3 7.3238e-05 -4.12182
16828 1 62.3924 38.4173 45.4699 3 7.3238e-05 -4.12182
16829 1 61.5395 38.4176 43.144 3 9.07642e-05 -4.12177
16830 1 64.0123 38.4176 43.144 3 9.07642e-05 -4.12177
16831 1 63.1621 38.4177 40.8179 3 0.00012367 -4.12167
16832 1 61.577 36.3986 46.6323 3 9.18568e-05 -4.12168
16833 1 64.0498 36.3986 46.6323 3 9.18568e-05 -4.12168
16834 1 63.1899 36.399 44.306 3 0.000108355 -4.12161
16835 1 63.2403 34.3792 47.7948 3 0.000115414 -4.12147
16836 1 33.5876 62.5896 47.7929 5 6.11303 -3.54477
16837 1 36.0603 62.5896 47.7929 5 6.11303 -3.54477
16838 1 35.234 62.5896 45.4616 5 6.11233 -3.54476
16839 1 37.7068 62.5896 45.4616 5 6.11233 -3.54476
16840 1 36.8807 62.5896 43.1302 5 6.11184 -3.54474
16841 1 39.3535 62.5896 43.1302 5 6.11184 -3.54474
16842 1 38.5279 62.5896 40.7989 5 12.2235 -3.54471
16843 1 41.0006 62.5896 40.7989 5 12.2235 -3.54471
16844 1 40.1756 62.5896 38.4675 5 12.2231 -3.54468
16845 1 42.6483 62.5896 38.4675 5 12.2231 -3.54468
16846 1 41.8239 62.5896 36.1361 5 12.2233 -3.54464
16847 1 44.2967 62.5896 36.1361 5 12.2233 -3.54464
16848 1 43.4728 62.5896 33.8048 5 12.2239 -3.54461
16849 1 45.9456 62.5896 33.8048 5 12.2239 -3.54461
16850 1 45.1225 62.5896 31.4734 5 12.2265 -3.54458
16851 1 47.5952 62.5896 31.4734 5 12.2265 -3.54458
16852 1 46.7726 62.5896 29.142 5 12.2286 -3.54455
16853 1 49.2454 62.5896 29.142 5 12.2286 -3.54455
16854 1 48.4231 62.5896 26.8107 5 12.2309 -3.54454
16855 1 50.8959 62.5896 26.8107 5 12.2309 -3.54454
16856 1 50.0739 62.5896 24.4793 5 12.2318 -3.54453
16857 1 52.5467 62.5896 24.4793 5 12.2318 -3.54453
16858 1 51.7246 62.5896 22.1479 5 12.2309 -3.54454
16859 1 54.1974 62.5896 22.1479 5 12.2309 -3.54454
16860 1 53.3752 62.5896 19.8166 5 12.2286 -3.54455
16861 1 55.8479 62.5896 19.8166 5 12.2286 -3.54455
16862 1 55.0253 62.5896 17.4852 5 12.2265 -3.54458
16863 1 57.4981 62.5896 17.4852 5 12.2265 -3.54458
16864 1 56.6749 62.5896 15.1539 5 12.2239 -3.54461
16865 1 59.1477 62.5896 15.1539 5 12.2239 -3.54461
16866 1 58.3239 62.5896 12.8225 5 12.2233 -3.54464
16867 1 60.7967 62.5896 12.8225 5 12.2233 -3.54464
16868 1 59.9722 62.5896 10.4911 5 12.2231 -3.54468
16869 1 62.445 62.5896 10.4911 5 12.2231 -3.54468
16870 1 61.6199 62.5896 8.15977 5 12.2235 -3.54471
16871 1 64.0927 62.5896 8.15977 5 12.2235 -3.54471
16872 1 63.267 62.5896 5.82841 5 6.11184 -3.54474
16873 1 36.8829 60.5706 46.6273 3 1.02056e-06 -4.10666
16874 1 39.3557 60.5706 46.6273 3 1.02055e-06 -4.10666
16875 1 38.5289 60.5706 44.2959 3 1.02815e-06 -4.10664
16876 1 41.0017 60.5706 44.2959 3 1.02814e-06 -4.10664
16877 1 40.1754 60.5706 41.9645 3 1.04077e-06 -4.10661
16878 1 42.6481 60.5706 41.9645 3 1.04076e-06 -4.10661
16879 1 41.8224 60.5706 39.6332 3 1.05865e-06 -4.10657
16880 1 44.2952 60.5706 39.6332 3 1.05863e-06 -4.10657
16881 1 43.4702 60.5706 37.3018 3 1.08242e-06 -4.10651
16882 1 45.943 60.5706 37.3018 3 1.08242e-06 -4.10651
16883 1 45.1189 60.5706 34.9704 3 1.11275e-06 -4.10645
16884 1 47.5917 60.5706 34.9704 3 1.11277e-06 -4.10645
16885 1 46.7684 60.5706 32.6391 3 1.14887e-06 -4.10639
16886 1 49.2412 60.5706 32.6391 3 1.14889e-06 -4.10639
16887 1 48.4187 60.5706 30.3077 3 1.18714e-06 -4.10633
16888 1 50.8915 60.5706 30.3077 3 1.18713e-06 -4.10633
16889 1 50.0696 60.5706 27.9764 3 1.22039e-06 -4.1063
16890 1 52.5424 60.5706 27.9764 3 1.2204e-06 -4.1063
16891 1 51.7209 60.5706 25.645 3 1.24004e-06 -4.10627
16892 1 54.1937 60.5706 25.645 3 1.24004e-06 -4.10627
16893 1 53.3724 60.5706 23.3136 3 1.24004e-06 -4.10627
16894 1 55.8452 60.5706 23.3136 3 1.24004e-06 -4.10627
16895 1 55.0237 60.5706 20.9823 3 1.2204e-06 -4.1063
16896 1 57.4965 60.5706 20.9823 3 1.2204e-06 -4.1063
16897 1 56.6746 60.5706 18.6509 3 1.18715e-06 -4.10633
16898 1 59.1474 60.5706 18.6509 3 1.18713e-06 -4.10633
16899 1 58.3249 60.5706 16.3195 3 1.14889e-06 -4.10639
16900 1 60.7977 60.5706 16.3195 3 1.14887e-06 -4.10639
16901 1 59.9744 60.5706 13.9882 3 1.11276e-06 -4.10645
16902 1 62.4472 60.5706 13.9882 3 1.11274e-06 -4.10645
16903 1 61.6231 60.5706 11.6568 3 1.08242e-06 -4.10651
16904 1 64.0959 60.5706 11.6568 3 1.08243e-06 -4.10651
16905 1 63.2709 60.5706 9.32545 3 1.05864e-06 -4.10657
16906 1 38.5324 58.5516 47.7929 3 0.000133584 -4.1223
16907 1 41.0052 58.5516 47.7929 3 0.000133584 -4.1223
16908 1 40.1775 58.5516 45.4616 3 0.000125533 -4.12231
16909 1 42.6503 58.5516 45.4616 3 0.000125533 -4.12231
16910 1 41.823 58.5516 43.1302 3 0.000110457 -4.12234
16911 1 44.2958 58.5516 43.1302 3 0.000110457 -4.12234
16912 1 43.4692 58.5516 40.7989 3 9.07158e-05 -4.12237
16913 1 45.942 58.5516 40.7989 3 9.07159e-05 -4.12237
16914 1 45.1163 58.5516 38.4675 3 6.97658e-05 -4.1224
16915 1 47.5891 58.5516 38.4675 3 6.9766e-05 -4.1224
16916 1 46.7644 58.5516 36.1361 3 5.08316e-05 -4.12243
16917 1 49.2372 58.5516 36.1361 3 5.08316e-05 -4.12243
16918 1 48.4136 58.5516 33.8048 3 3.52551e-05 -4.12244
16919 1 50.8864 58.5516 33.8048 3 3.52552e-05 -4.12244
16920 1 50.064 58.5516 31.4734 3 2.24526e-05 -4.12244
16921 1 52.5367 58.5516 31.4734 3 2.24525e-05 -4.12244
16922 1 51.7152 58.5516 29.142 3 1.17353e-05 -4.12244
16923 1 54.188 58.5516 29.142 3 1.17353e-05 -4.12244
16924 1 53.3671 58.5516 26.8107 3 3.91932e-06 -4.12243
16925 1 55.8399 58.5516 26.8107 3 3.9193e-06 -4.12243
16926 1 55.0194 58.5516 24.4793 3 9.473e-07 -4.12242
16927 1 57.4922 58.5516 24.4793 3 9.4731e-07 -4.12242
16928 1 56.6717 58.5516 22.1479 3 3.91909e-06 -4.12243
16929 1 59.1445 58.5516 22.1479 3 3.91913e-06 -4.12243
16930 1 58.3237 58.5516 19.8166 3 1.17349e-05 -4.12244
16931 1 60.7965 58.5516 19.8166 3 1.17349e-05 -4.12244
16932 1 59.9749 58.5516 17.4852 3 2.24521e-05 -4.12244
16933 1 62.4477 58.5516 17.4852 3 2.24522e-05 -4.12244
16934 1 61.6252 58.5516 15.1539 3 3.52548e-05 -4.12244
16935 1 64.098 58.5516 15.1539 3 3.52547e-05 -4.12244
16936 1 63.2745 58.5516 12.8225 3 5.08314e-05 -4.12243
16937 1 41.827 56.5406 46.627 3 2.19145e-06 -4.12177
16938 1 44.2998 56.5406 46.627 3 2.19144e-06 -4.12177
16939 1 43.4716 56.5402 44.2953 3 3.49757e-06 -4.12182
16940 1 45.9444 56.5402 44.2953 3 3.49758e-06 -4.12182
16941 1 45.1171 56.5395 41.9635 3 5.88395e-06 -4.1219
16942 1 47.5899 56.5395 41.9635 3 5.88394e-06 -4.1219
16943 1 46.7637 56.5386 39.6317 3 9.06615e-06 -4.122
16944 1 49.2364 56.5386 39.6317 3 9.06614e-06 -4.122
16945 1 48.4115 56.5374 37.3 3 1.18619e-05 -4.12212
16946 1 50.8842 56.5374 37.3 3 1.18619e-05 -4.12212
16947 1 50.0605 56.5361 34.9684 3 1.27621e-05 -4.12223
16948 1 52.5333 56.5361 34.9684 3 1.2762e-05 -4.12223
16949 1 51.7108 56.5348 32.637 3 1.11233e-05 -4.12233
16950 1 54.1835 56.5348 32.637 3 1.11233e-05 -4.12233
16951 1 53.3619 56.5336 30.3059 3 7.59862e-06 -4.1224
16952 1 55.8347 56.5336 30.3059 3 7.59863e-06 -4.1224
16953 1 55.0138 56.5327 27.9752 3 3.91337e-06 -4.12244
16954 1 57.4866 56.5327 27.9752 3 3.91338e-06 -4.12244
16955 1 56.666 56.5323 25.6446 3 1.63777e-06 -4.12246
16956 1 59.1388 56.5323 25.6446 3 1.63777e-06 -4.12246
16957 1 58.3184 56.5323 23.3141 3 1.63778e-06 -4.12246
16958 1 60.7912 56.5323 23.3141 3 1.63777e-06 -4.12246
16959 1 59.9707 56.5327 20.9835 3 3.91338e-06 -4.12244
16960 1 62.4435 56.5327 20.9835 3 3.91337e-06 -4.12244
16961 1 61.6225 56.5336 18.6527 3 7.59861e-06 -4.1224
16962 1 64.0953 56.5336 18.6527 3 7.59862e-06 -4.1224
16963 1 63.2737 56.5348 16.3216 3 1.11233e-05 -4.12233
16964 1 43.4771 54.5298 47.7928 3 3.89996e-06 -4.12217
16965 1 45.9499 54.5298 47.7928 3 3.89996e-06 -4.12217
16966 1 45.1205 54.5293 45.4612 3 4.47753e-06 -4.12218
16967 1 47.5932 54.5293 45.4612 3 4.47753e-06 -4.12218
16968 1 46.7647 54.5283 43.1295 3 5.81593e-06 -4.12221
16969 1 49.2375 54.5283 43.1295 3 5.81593e-06 -4.12221
16970 1 48.4102 54.5268 40.7976 3 8.05886e-06 -4.12226
16971 1 50.8829 54.5268 40.7976 3 8.05885e-06 -4.12226
16972 1 50.0572 54.5247 38.4656 3 1.0958e-05 -4.12232
16973 1 52.53 54.5247 38.4656 3 1.0958e-05 -4.12232
16974 1 51.7059 54.5221 36.1337 3 1.34554e-05 -4.12238
16975 1 54.1787 54.5221 36.1337 3 1.34554e-05 -4.12238
16976 1 53.356 54.5193 33.802 3 1.40704e-05 -4.12243
16977 1 55.8288 54.5193 33.802 3 1.40704e-05 -4.12243
16978 1 55.0073 54.5166 31.4707 3 1.19593e-05 -4.12246
16979 1 57.4801 54.5166 31.4707 3 1.19593e-05 -4.12246
16980 1 56.6595 54.5144 29.1399 3 7.87668e-06 -4.12248
16981 1 59.1323 54.5144 29.1399 3 7.87667e-06 -4.12248
16982 1 58.3121 54.5129 26.8095 3 3.97123e-06 -4.12249
16983 1 60.7849 54.5129 26.8095 3 3.97123e-06 -4.12249
16984 1 59.965 54.5124 24.4793 3 2.41598e-06 -4.12249
16985 1 62.4378 54.5124 24.4793 3 2.41598e-06 -4.12249
16986 1 61.6179 54.5129 22.1492 3 3.97123e-06 -4.12249
16987 1 64.0907 54.5129 22.1492 3 3.97123e-06 -4.12249
16988 1 63.2705 54.5144 19.8188 3 7.87667e-06 -4.12248
16989 1 46.77 52.5183 46.6275 3 7.52735e-06 -4.12216
16990 1 49.2428 52.5183 46.6275 3 7.52735e-06 -4.12216
16991 1 48.4125 52.5174 44.2961 3 8.29609e-06 -4.12218
16992 1 50.8853 52.5174 44.2961 3 8.29609e-06 -4.12218
16993 1 50.0562 52.5157 41.9645 3 9.67675e-06 -4.12221
16994 1 52.529 52.5157 41.9645 3 9.67675e-06 -4.12221
16995 1 51.7018 52.5132 39.6326 3 1.15574e-05 -4.12226
16996 1 54.1746 52.5132 39.6326 3 1.15574e-05 -4.12226
16997 1 53.3495 52.5098 37.3005 3 1.40121e-05 -4.12233
16998 1 55.8223 52.5098 37.3005 3 1.40121e-05 -4.12233
16999 1 54.9993 52.5057 34.9684 3 1.63502e-05 -4.12239
17000 1 57.472 52.5057 34.9684 3 1.63502e-05 -4.12239
17001 1 56.6507 52.5014 32.6366 3 1.70391e-05 -4.12245
17002 1 59.1235 52.5014 32.6366 3 1.70391e-05 -4.12245
17003 1 58.3035 52.4973 30.3053 3 1.49964e-05 -4.12248
17004 1 60.7762 52.4973 30.3053 3 1.49964e-05 -4.12248
17005 1 59.957 52.4943 27.9746 3 1.09793e-05 -4.12249
17006 1 62.4297 52.4943 27.9746 3 1.09793e-05 -4.12249
17007 1 61.6108 52.4926 25.6444 3 7.73925e-06 -4.12249
17008 1 64.0836 52.4926 25.6444 3 7.73925e-06 -4.12249
17009 1 63.2648 52.4926 23.3143 3 7.73925e-06 -4.12249
17010 1 48.421 50.5068 47.7934 3 1.18952e-05 -4.12215
17011 1 50.8938 50.5068 47.7934 3 1.18952e-05 -4.12215
17012 1 50.0612 50.5062 45.4628 3 1.26248e-05 -4.12216
17013 1 52.5339 50.5062 45.4628 3 1.26248e-05 -4.12216
17014 1 51.7025 50.5048 43.1318 3 1.38767e-05 -4.12217
17015 1 54.1753 50.5048 43.1318 3 1.38767e-05 -4.12217
17016 1 53.3459 50.5023 40.8005 3 1.53589e-05 -4.1222
17017 1 55.8187 50.5023 40.8005 3 1.53589e-05 -4.1222
17018 1 54.9917 50.4987 38.4686 3 1.67305e-05 -4.12225
17019 1 57.4645 50.4987 38.4686 3 1.67305e-05 -4.12225
17020 1 56.6403 50.4938 36.1363 3 1.86664e-05 -4.12233
17021 1 59.1131 50.4938 36.1363 3 1.86664e-05 -4.12233
17022 1 58.2915 50.488 33.804 3 2.12611e-05 -4.12241
17023 1 60.7643 50.488 33.804 3 2.12611e-05 -4.12241
17024 1 59.9448 50.4822 31.472 3 2.30165e-05 -4.12246
17025 1 62.4176 50.4822 31.472 3 2.30165e-05 -4.12246
17026 1 61.5995 50.477 29.1406 3 2.21126e-05 -4.12249
17027 1 64.0723 50.477 29.1406 3 2.21126e-05 -4.12249
17028 1 63.2549 50.4735 26.8098 3 1.91502e-05 -4.1225
17029 1 51.7114 48.4942 46.629 3 1.78386e-05 -4.12214
17030 1 54.1842 48.4942 46.629 3 1.78386e-05 -4.12214
17031 1 53.3499 48.4932 44.299 3 1.96273e-05 -4.12214
17032 1 55.8227 48.4932 44.299 3 1.96273e-05 -4.12214
17033 1 54.9902 48.4913 41.9686 3 2.20453e-05 -4.12215
17034 1 57.463 48.4913 41.9686 3 2.20453e-05 -4.12215
17035 1 56.6332 48.4881 39.6374 3 2.41335e-05 -4.12217
17036 1 59.106 48.4881 39.6374 3 2.41335e-05 -4.12217
17037 1 58.2796 48.4832 37.3054 3 2.49439e-05 -4.12223
17038 1 60.7523 48.4832 37.3054 3 2.49439e-05 -4.12223
17039 1 59.9296 48.4767 34.9729 3 2.64238e-05 -4.12233
17040 1 62.4023 48.4767 34.9729 3 2.64238e-05 -4.12233
17041 1 61.5828 48.4693 32.6402 3 3.04308e-05 -4.12241
17042 1 64.0556 48.4693 32.6402 3 3.04308e-05 -4.12241
17043 1 63.2386 48.4619 30.3078 3 3.52972e-05 -4.12247
17044 1 53.364 46.4812 47.7943 3 2.36101e-05 -4.12212
17045 1 55.8368 46.4812 47.7943 3 2.36101e-05 -4.12212
17046 1 54.9991 46.4807 45.4655 3 2.56145e-05 -4.12212
17047 1 57.4719 46.4807 45.4655 3 2.56145e-05 -4.12212
17048 1 56.6358 46.4794 43.1363 3 2.95039e-05 -4.12211
17049 1 59.1086 46.4794 43.1363 3 2.95039e-05 -4.12211
17050 1 58.275 46.4771 40.8063 3 3.46056e-05 -4.1221
17051 1 60.7477 46.4771 40.8063 3 3.46056e-05 -4.1221
17052 1 59.9177 46.4731 38.4753 3 3.8725e-05 -4.12212
17053 1 62.3905 46.4731 38.4753 3 3.8725e-05 -4.12212
17054 1 61.565 46.467 36.1432 3 3.9276e-05 -4.12218
17055 1 64.0378 46.467 36.1432 3 3.9276e-05 -4.12218
17056 1 63.2171 46.4588 33.8101 3 4.07035e-05 -4.12231
17057 1 56.651 44.4667 46.631 3 3.16705e-05 -4.12209
17058 1 59.1237 44.4667 46.631 3 3.16705e-05 -4.12209
17059 1 58.2835 44.4662 44.3031 3 3.62616e-05 -4.12207
17060 1 60.7563 44.4662 44.3031 3 3.62616e-05 -4.12207
17061 1 59.9181 44.4648 41.9745 3 4.42897e-05 -4.12205
17062 1 62.3909 44.4648 41.9745 3 4.42897e-05 -4.12205
17063 1 61.5562 44.4622 39.645 3 5.52161e-05 -4.12202
17064 1 64.029 44.4622 39.645 3 5.52161e-05 -4.12202
17065 1 63.199 44.4575 37.3141 3 6.50011e-05 -4.12201
17066 1 58.306 42.4514 47.7953 3 3.88216e-05 -4.12204
17067 1 60.7788 42.4514 47.7953 3 3.88216e-05 -4.12204
17068 1 59.9341 42.4513 45.4685 3 4.29685e-05 -4.12203
17069 1 62.4069 42.4513 45.4685 3 4.29685e-05 -4.12203
17070 1 61.5637 42.4508 43.1414 3 5.21401e-05 -4.122
17071 1 64.0365 42.4508 43.1414 3 5.21401e-05 -4.122
17072 1 63.1962 42.4495 40.8135 3 6.79327e-05 -4.12195
17073 1 61.5883 40.4348 46.6326 3 5.18024e-05 -4.12196
17074 1 64.061 40.4348 46.6326 3 5.18024e-05 -4.12196
17075 1 63.2125 40.4348 44.3065 3 6.06629e-05 -4.12193
17076 1 63.2468 38.4171 47.7957 3 6.55492e-05 -4.12185
17077 1 38.5331 62.5896 47.7929 5 6.11303 -3.54477
17078 1 41.0059 62.5896 47.7929 5 6.11303 -3.54477
17079 1 40.1796 62.5896 45.4616 5 6.11233 -3.54476
17080 1 42.6524 62.5896 45.4616 5 6.11233 -3.54476
17081 1 41.8263 62.5896 43.1302 5 6.11184 -3.54474
17082 1 44.2991 62.5896 43.1302 5 6.11184 -3.54474
17083 1 43.4734 62.5896 40.7989 5 12.2235 -3.54471
17084 1 45.9462 62.5896 40.7989 5 12.2235 -3.54471
17085 1 45.1211 62.5896 38.4675 5 12.2231 -3.54468
17086 1 47.5939 62.5896 38.4675 5 12.2231 -3.54468
17087 1 46.7694 62.5896 36.1361 5 12.2233 -3.54464
17088 1 49.2422 62.5896 36.1361 5 12.2233 -3.54464
17089 1 48.4184 62.5896 33.8048 5 12.2239 -3.54461
17090 1 50.8912 62.5896 33.8048 5 12.2239 -3.54461
17091 1 50.068 62.5896 31.4734 5 12.2265 -3.54458
17092 1 52.5408 62.5896 31.4734 5 12.2265 -3.54458
17093 1 51.7182 62.5896 29.142 5 12.2286 -3.54455
17094 1 54.1909 62.5896 29.142 5 12.2286 -3.54455
17095 1 53.3687 62.5896 26.8107 5 12.2309 -3.54454
17096 1 55.8415 62.5896 26.8107 5 12.2309 -3.54454
17097 1 55.0194 62.5896 24.4793 5 12.2318 -3.54453
17098 1 57.4922 62.5896 24.4793 5 12.2318 -3.54453
17099 1 56.6702 62.5896 22.1479 5 12.2309 -3.54454
17100 1 59.143 62.5896 22.1479 5 12.2309 -3.54454
17101 1 58.3207 62.5896 19.8166 5 12.2286 -3.54455
17102 1 60.7935 62.5896 19.8166 5 12.2286 -3.54455
17103 1 59.9709 62.5896 17.4852 5 12.2265 -3.54458
17104 1 62.4437 62.5896 17.4852 5 12.2265 -3.54458
17105 1 61.6205 62.5896 15.1539 5 12.2239 -3.54461
17106 1 64.0933 62.5896 15.1539 5 12.2239 -3.54461
17107 1 63.2695 62.5896 12.8225 5 12.2233 -3.54464
17108 1 41.8285 60.5706 46.6273 3 1.02052e-06 -4.10666
17109 1 44.3013 60.5706 46.6273 3 1.02055e-06 -4.10666
17110 1 43.4745 60.5706 44.2959 3 1.02816e-06 -4.10664
17111 1 45.9473 60.5706 44.2959 3 1.02815e-06 -4.10664
17112 1 45.1209 60.5706 41.9645 3 1.04077e-06 -4.10661
17113 1 47.5937 60.5706 41.9645 3 1.04077e-06 -4.10661
17114 1 46.768 60.5706 39.6332 3 1.05864e-06 -4.10657
17115 1 49.2408 60.5706 39.6332 3 1.05865e-06 -4.10657
17116 1 48.4158 60.5706 37.3018 3 1.08242e-06 -4.10651
17117 1 50.8886 60.5706 37.3018 3 1.08243e-06 -4.10651
17118 1 50.0645 60.5706 34.9704 3 1.11274e-06 -4.10645
17119 1 52.5373 60.5706 34.9704 3 1.11276e-06 -4.10645
17120 1 51.714 60.5706 32.6391 3 1.14887e-06 -4.10639
17121 1 54.1868 60.5706 32.6391 3 1.14889e-06 -4.10639
17122 1 53.3643 60.5706 30.3077 3 1.18715e-06 -4.10633
17123 1 55.8371 60.5706 30.3077 3 1.18713e-06 -4.10633
17124 1 55.0152 60.5706 27.9764 3 1.22039e-06 -4.1063
17125 1 57.488 60.5706 27.9764 3 1.22041e-06 -4.1063
17126 1 56.6665 60.5706 25.645 3 1.24005e-06 -4.10627
17127 1 59.1393 60.5706 25.645 3 1.24004e-06 -4.10627
17128 1 58.318 60.5706 23.3136 3 1.24004e-06 -4.10627
17129 1 60.7907 60.5706 23.3136 3 1.24004e-06 -4.10627
17130 1 59.9693 60.5706 20.9823 3 1.22039e-06 -4.1063
17131 1 62.4421 60.5706 20.9823 3 1.22041e-06 -4.1063
17132 1 61.6202 60.5706 18.6509 3 1.18715e-06 -4.10633
17133 1 64.093 60.5706 18.6509 3 1.18713e-06 -4.10633
17134 1 63.2705 60.5706 16.3195 3 1.14889e-06 -4.10639
17135 1 43.478 58.5516 47.7929 3 0.000133584 -4.1223
17136 1 45.9508 58.5516 47.7929 3 0.000133584 -4.1223
17137 1 45.1231 58.5516 45.4616 3 0.000125533 -4.12231
17138 1 47.5958 58.5516 45.4616 3 0.000125533 -4.12231
17139 1 46.7686 58.5516 43.1302 3 0.000110457 -4.12234
17140 1 49.2414 58.5516 43.1302 3 0.000110457 -4.12234
17141 1 48.4148 58.5516 40.7989 3 9.07158e-05 -4.12237
17142 1 50.8875 58.5516 40.7989 3 9.07158e-05 -4.12237
17143 1 50.0618 58.5516 38.4675 3 6.97659e-05 -4.1224
17144 1 52.5346 58.5516 38.4675 3 6.97658e-05 -4.1224
17145 1 51.71 58.5516 36.1361 3 5.08317e-05 -4.12243
17146 1 54.1828 58.5516 36.1361 3 5.08316e-05 -4.12243
17147 1 53.3592 58.5516 33.8048 3 3.52552e-05 -4.12244
17148 1 55.832 58.5516 33.8048 3 3.52551e-05 -4.12244
17149 1 55.0095 58.5516 31.4734 3 2.24525e-05 -4.12244
17150 1 57.4823 58.5516 31.4734 3 2.24526e-05 -4.12244
17151 1 56.6608 58.5516 29.142 3 1.17354e-05 -4.12244
17152 1 59.1336 58.5516 29.142 3 1.17353e-05 -4.12244
17153 1 58.3127 58.5516 26.8107 3 3.91933e-06 -4.12243
17154 1 60.7855 58.5516 26.8107 3 3.91931e-06 -4.12243
17155 1 59.965 58.5516 24.4793 3 9.47301e-07 -4.12242
17156 1 62.4378 58.5516 24.4793 3 9.47301e-07 -4.12242
17157 1 61.6173 58.5516 22.1479 3 3.91909e-06 -4.12243
17158 1 64.0901 58.5516 22.1479 3 3.91911e-06 -4.12243
17159 1 63.2692 58.5516 19.8166 3 1.1735e-05 -4.12244
17160 1 46.7725 56.5406 46.627 3 2.19143e-06 -4.12177
17161 1 49.2453 56.5406 46.627 3 2.19144e-06 -4.12177
17162 1 48.4172 56.5402 44.2953 3 3.49757e-06 -4.12182
17163 1 50.89 56.5402 44.2953 3 3.49758e-06 -4.12182
17164 1 50.0627 56.5395 41.9635 3 5.88395e-06 -4.1219
17165 1 52.5354 56.5395 41.9635 3 5.88395e-06 -4.1219
17166 1 51.7092 56.5386 39.6317 3 9.06613e-06 -4.122
17167 1 54.182 56.5386 39.6317 3 9.06614e-06 -4.122
17168 1 53.357 56.5374 37.3 3 1.18619e-05 -4.12212
17169 1 55.8298 56.5374 37.3 3 1.18619e-05 -4.12212
17170 1 55.0061 56.5361 34.9684 3 1.2762e-05 -4.12223
17171 1 57.4789 56.5361 34.9684 3 1.27621e-05 -4.12223
17172 1 56.6563 56.5348 32.637 3 1.11233e-05 -4.12233
17173 1 59.1291 56.5348 32.637 3 1.11233e-05 -4.12233
17174 1 58.3075 56.5336 30.3059 3 7.59862e-06 -4.1224
17175 1 60.7803 56.5336 30.3059 3 7.59861e-06 -4.1224
17176 1 59.9593 56.5327 27.9752 3 3.91337e-06 -4.12244
17177 1 62.4321 56.5327 27.9752 3 3.91338e-06 -4.12244
17178 1 61.6116 56.5323 25.6446 3 1.63777e-06 -4.12246
17179 1 64.0844 56.5323 25.6446 3 1.63777e-06 -4.12246
17180 1 63.264 56.5323 23.3141 3 1.63778e-06 -4.12246
17181 1 48.4226 54.5298 47.7928 3 3.89996e-06 -4.12217
17182 1 50.8954 54.5298 47.7928 3 3.89996e-06 -4.12217
17183 1 50.066 54.5293 45.4612 3 4.47753e-06 -4.12218
17184 1 52.5388 54.5293 45.4612 3 4.47753e-06 -4.12218
17185 1 51.7102 54.5283 43.1295 3 5.81593e-06 -4.12221
17186 1 54.183 54.5283 43.1295 3 5.81592e-06 -4.12221
17187 1 53.3557 54.5268 40.7976 3 8.05886e-06 -4.12226
17188 1 55.8285 54.5268 40.7976 3 8.05886e-06 -4.12226
17189 1 55.0028 54.5247 38.4656 3 1.0958e-05 -4.12232
17190 1 57.4756 54.5247 38.4656 3 1.0958e-05 -4.12232
17191 1 56.6514 54.5221 36.1337 3 1.34554e-05 -4.12238
17192 1 59.1242 54.5221 36.1337 3 1.34554e-05 -4.12238
17193 1 58.3016 54.5193 33.802 3 1.40704e-05 -4.12243
17194 1 60.7744 54.5193 33.802 3 1.40704e-05 -4.12243
17195 1 59.9529 54.5166 31.4707 3 1.19593e-05 -4.12246
17196 1 62.4257 54.5166 31.4707 3 1.19593e-05 -4.12246
17197 1 61.6051 54.5144 29.1399 3 7.87667e-06 -4.12248
17198 1 64.0779 54.5144 29.1399 3 7.87667e-06 -4.12248
17199 1 63.2577 54.5129 26.8095 3 3.97123e-06 -4.12249
17200 1 51.7156 52.5183 46.6275 3 7.52735e-06 -4.12216
17201 1 54.1884 52.5183 46.6275 3 7.52735e-06 -4.12216
17202 1 53.358 52.5174 44.2961 3 8.29609e-06 -4.12218
17203 1 55.8308 52.5174 44.2961 3 8.29609e-06 -4.12218
17204 1 55.0018 52.5157 41.9645 3 9.67675e-06 -4.12221
17205 1 57.4746 52.5157 41.9645 3 9.67675e-06 -4.12221
17206 1 56.6474 52.5132 39.6326 3 1.15574e-05 -4.12226
17207 1 59.1202 52.5132 39.6326 3 1.15574e-05 -4.12226
17208 1 58.2951 52.5098 37.3005 3 1.40121e-05 -4.12233
17209 1 60.7679 52.5098 37.3005 3 1.4012e-05 -4.12233
17210 1 59.9448 52.5057 34.9684 3 1.63502e-05 -4.12239
17211 1 62.4176 52.5057 34.9684 3 1.63502e-05 -4.12239
17212 1 61.5963 52.5014 32.6366 3 1.70391e-05 -4.12245
17213 1 64.0691 52.5014 32.6366 3 1.70391e-05 -4.12245
17214 1 63.249 52.4973 30.3053 3 1.49964e-05 -4.12248
17215 1 53.3665 50.5068 47.7934 3 1.18952e-05 -4.12215
17216 1 55.8393 50.5068 47.7934 3 1.18952e-05 -4.12215
17217 1 55.0067 50.5062 45.4628 3 1.26248e-05 -4.12216
17218 1 57.4795 50.5062 45.4628 3 1.26248e-05 -4.12216
17219 1 56.6481 50.5048 43.1318 3 1.38767e-05 -4.12217
17220 1 59.1209 50.5048 43.1318 3 1.38767e-05 -4.12217
17221 1 58.2914 50.5023 40.8005 3 1.53589e-05 -4.1222
17222 1 60.7642 50.5023 40.8005 3 1.53589e-05 -4.1222
17223 1 59.9373 50.4987 38.4686 3 1.67305e-05 -4.12225
17224 1 62.4101 50.4987 38.4686 3 1.67305e-05 -4.12225
17225 1 61.5859 50.4938 36.1363 3 1.86664e-05 -4.12233
17226 1 64.0587 50.4938 36.1363 3 1.86664e-05 -4.12233
17227 1 63.2371 50.488 33.804 3 2.12611e-05 -4.12241
17228 1 56.657 48.4942 46.629 3 1.78386e-05 -4.12214
17229 1 59.1298 48.4942 46.629 3 1.78386e-05 -4.12214
17230 1 58.2955 48.4932 44.299 3 1.96273e-05 -4.12214
17231 1 60.7683 48.4932 44.299 3 1.96273e-05 -4.12214
17232 1 59.9358 48.4913 41.9686 3 2.20453e-05 -4.12215
17233 1 62.4086 48.4913 41.9686 3 2.20453e-05 -4.12215
17234 1 61.5788 48.4881 39.6374 3 2.41335e-05 -4.12217
17235 1 64.0515 48.4881 39.6374 3 2.41335e-05 -4.12217
17236 1 63.2251 48.4832 37.3054 3 2.49439e-05 -4.12223
17237 1 58.3096 46.4812 47.7943 3 2.36101e-05 -4.12212
17238 1 60.7823 46.4812 47.7943 3 2.36101e-05 -4.12212
17239 1 59.9447 46.4807 45.4655 3 2.56145e-05 -4.12212
17240 1 62.4175 46.4807 45.4655 3 2.56145e-05 -4.12212
17241 1 61.5813 46.4794 43.1363 3 2.95039e-05 -4.12211
17242 1 64.0541 46.4794 43.1363 3 2.95039e-05 -4.12211
17243 1 63.2205 46.4771 40.8063 3 3.46056e-05 -4.1221
17244 1 61.5965 44.4667 46.631 3 3.16705e-05 -4.12209
17245 1 64.0693 44.4667 46.631 3 3.16705e-05 -4.12209
17246 1 63.2291 44.4662 44.3031 3 3.62616e-05 -4.12207
17247 1 63.2516 42.4514 47.7953 3 3.88216e-05 -4.12204
17248 1 43.4787 62.5896 47.7929 5 6.11303 -3.54477
17249 1 45.9515 62.5896 47.7929 5 6.11303 -3.54477
17250 1 45.1251 62.5896 45.4616 5 6.11233 -3.54476
17251 1 47.5979 62.5896 45.4616 5 6.11233 -3.54476
17252 1 46.7719 62.5896 43.1302 5 6.11184 -3.54474
17253 1 49.2446 62.5896 43.1302 5 6.11184 -3.54474
17254 1 48.419 62.5896 40.7989 5 12.2235 -3.54471
17255 1 50.8918 62.5896 40.7989 5 12.2235 -3.54471
17256 1 50.0667 62.5896 38.4675 5 12.2231 -3.54468
17257 1 52.5395 62.5896 38.4675 5 12.2231 -3.54468
17258 1 51.715 62.5896 36.1361 5 12.2233 -3.54464
17259 1 54.1878 62.5896 36.1361 5 12.2233 -3.54464
17260 1 53.364 62.5896 33.8048 5 12.2239 -3.54461
17261 1 55.8368 62.5896 33.8048 5 12.2239 -3.54461
17262 1 55.0136 62.5896 31.4734 5 12.2265 -3.54458
17263 1 57.4864 62.5896 31.4734 5 12.2265 -3.54458
17264 1 56.6637 62.5896 29.142 5 12.2286 -3.54455
17265 1 59.1365 62.5896 29.142 5 12.2286 -3.54455
17266 1 58.3143 62.5896 26.8107 5 12.2309 -3.54454
17267 1 60.7871 62.5896 26.8107 5 12.2309 -3.54454
17268 1 59.965 62.5896 24.4793 5 12.2318 -3.54453
17269 1 62.4378 62.5896 24.4793 5 12.2318 -3.54453
17270 1 61.6158 62.5896 22.1479 5 12.2309 -3.54454
17271 1 64.0885 62.5896 22.1479 5 12.2309 -3.54454
17272 1 63.2663 62.5896 19.8166 5 12.2286 -3.54455
17273 1 46.7741 60.5706 46.6273 3 1.02055e-06 -4.10666
17274 1 49.2469 60.5706 46.6273 3 1.02056e-06 -4.10666
17275 1 48.4201 60.5706 44.2959 3 1.02816e-06 -4.10664
17276 1 50.8928 60.5706 44.2959 3 1.02815e-06 -4.10664
17277 1 50.0665 60.5706 41.9645 3 1.04074e-06 -4.10661
17278 1 52.5393 60.5706 41.9645 3 1.04077e-06 -4.10661
17279 1 51.7135 60.5706 39.6332 3 1.05862e-06 -4.10657
17280 1 54.1863 60.5706 39.6332 3 1.05865e-06 -4.10657
17281 1 53.3614 60.5706 37.3018 3 1.08243e-06 -4.10651
17282 1 55.8342 60.5706 37.3018 3 1.08242e-06 -4.10651
17283 1 55.01 60.5706 34.9704 3 1.11275e-06 -4.10645
17284 1 57.4828 60.5706 34.9704 3 1.11275e-06 -4.10645
17285 1 56.6596 60.5706 32.6391 3 1.14887e-06 -4.10639
17286 1 59.1323 60.5706 32.6391 3 1.14887e-06 -4.10639
17287 1 58.3098 60.5706 30.3077 3 1.18713e-06 -4.10633
17288 1 60.7826 60.5706 30.3077 3 1.18714e-06 -4.10633
17289 1 59.9608 60.5706 27.9764 3 1.2204e-06 -4.1063
17290 1 62.4335 60.5706 27.9764 3 1.22038e-06 -4.1063
17291 1 61.6121 60.5706 25.645 3 1.24004e-06 -4.10627
17292 1 64.0849 60.5706 25.645 3 1.24007e-06 -4.10627
17293 1 63.2635 60.5706 23.3136 3 1.24006e-06 -4.10627
17294 1 48.4236 58.5516 47.7929 3 0.000133584 -4.1223
17295 1 50.8963 58.5516 47.7929 3 0.000133584 -4.1223
17296 1 50.0686 58.5516 45.4616 3 0.000125533 -4.12231
17297 1 52.5414 58.5516 45.4616 3 0.000125533 -4.12231
17298 1 51.7141 58.5516 43.1302 3 0.000110457 -4.12234
17299 1 54.1869 58.5516 43.1302 3 0.000110457 -4.12234
17300 1 53.3603 58.5516 40.7989 3 9.07159e-05 -4.12237
17301 1 55.8331 58.5516 40.7989 3 9.07158e-05 -4.12237
17302 1 55.0074 58.5516 38.4675 3 6.97659e-05 -4.1224
17303 1 57.4802 58.5516 38.4675 3 6.97659e-05 -4.1224
17304 1 56.6555 58.5516 36.1361 3 5.08315e-05 -4.12243
17305 1 59.1283 58.5516 36.1361 3 5.08316e-05 -4.12243
17306 1 58.3048 58.5516 33.8048 3 3.52552e-05 -4.12244
17307 1 60.7776 58.5516 33.8048 3 3.52551e-05 -4.12244
17308 1 59.9551 58.5516 31.4734 3 2.24525e-05 -4.12244
17309 1 62.4279 58.5516 31.4734 3 2.24526e-05 -4.12244
17310 1 61.6063 58.5516 29.142 3 1.17353e-05 -4.12244
17311 1 64.0791 58.5516 29.142 3 1.17353e-05 -4.12244
17312 1 63.2583 58.5516 26.8107 3 3.91934e-06 -4.12243
17313 1 51.7181 56.5406 46.627 3 2.19143e-06 -4.12177
17314 1 54.1909 56.5406 46.627 3 2.19145e-06 -4.12177
17315 1 53.3628 56.5402 44.2953 3 3.49758e-06 -4.12182
17316 1 55.8356 56.5402 44.2953 3 3.49757e-06 -4.12182
17317 1 55.0082 56.5395 41.9635 3 5.88394e-06 -4.1219
17318 1 57.481 56.5395 41.9635 3 5.88395e-06 -4.1219
17319 1 56.6548 56.5386 39.6317 3 9.06613e-06 -4.122
17320 1 59.1276 56.5386 39.6317 3 9.06614e-06 -4.122
17321 1 58.3026 56.5374 37.3 3 1.18619e-05 -4.12212
17322 1 60.7754 56.5374 37.3 3 1.18619e-05 -4.12212
17323 1 59.9517 56.5361 34.9684 3 1.2762e-05 -4.12223
17324 1 62.4245 56.5361 34.9684 3 1.27621e-05 -4.12223
17325 1 61.6019 56.5348 32.637 3 1.11233e-05 -4.12233
17326 1 64.0747 56.5348 32.637 3 1.11233e-05 -4.12233
17327 1 63.2531 56.5336 30.3059 3 7.59862e-06 -4.1224
17328 1 53.3682 54.5298 47.7928 3 3.89996e-06 -4.12217
17329 1 55.841 54.5298 47.7928 3 3.89996e-06 -4.12217
17330 1 55.0116 54.5293 45.4612 3 4.47753e-06 -4.12218
17331 1 57.4844 54.5293 45.4612 3 4.47753e-06 -4.12218
17332 1 56.6558 54.5283 43.1295 3 5.81593e-06 -4.12221
17333 1 59.1286 54.5283 43.1295 3 5.81593e-06 -4.12221
17334 1 58.3013 54.5268 40.7976 3 8.05886e-06 -4.12226
17335 1 60.7741 54.5268 40.7976 3 8.05886e-06 -4.12226
17336 1 59.9483 54.5247 38.4656 3 1.0958e-05 -4.12232
17337 1 62.4211 54.5247 38.4656 3 1.0958e-05 -4.12232
17338 1 61.597 54.5221 36.1337 3 1.34554e-05 -4.12238
17339 1 64.0698 54.5221 36.1337 3 1.34554e-05 -4.12238
17340 1 63.2472 54.5193 33.802 3 1.40704e-05 -4.12243
17341 1 56.6612 52.5183 46.6275 3 7.52735e-06 -4.12216
17342 1 59.134 52.5183 46.6275 3 7.52735e-06 -4.12216
17343 1 58.3036 52.5174 44.2961 3 8.29609e-06 -4.12218
17344 1 60.7764 52.5174 44.2961 3 8.29609e-06 -4.12218
17345 1 59.9474 52.5157 41.9645 3 9.67675e-06 -4.12221
17346 1 62.4201 52.5157 41.9645 3 9.67675e-06 -4.12221
17347 1 61.593 52.5132 39.6326 3 1.15574e-05 -4.12226
17348 1 64.0657 52.5132 39.6326 3 1.15574e-05 -4.12226
17349 1 63.2406 52.5098 37.3005 3 1.40121e-05 -4.12233
17350 1 58.3121 50.5068 47.7934 3 1.18952e-05 -4.12215
17351 1 60.7849 50.5068 47.7934 3 1.18952e-05 -4.12215
17352 1 59.9523 50.5062 45.4628 3 1.26248e-05 -4.12216
17353 1 62.4251 50.5062 45.4628 3 1.26248e-05 -4.12216
17354 1 61.5937 50.5048 43.1318 3 1.38767e-05 -4.12217
17355 1 64.0665 50.5048 43.1318 3 1.38767e-05 -4.12217
17356 1 63.237 50.5023 40.8005 3 1.53589e-05 -4.1222
17357 1 61.6026 48.4942 46.629 3 1.78386e-05 -4.12214
17358 1 64.0754 48.4942 46.629 3 1.78386e-05 -4.12214
17359 1 63.241 48.4932 44.299 3 1.96273e-05 -4.12214
17360 1 63.2551 46.4812 47.7943 3 2.36101e-05 -4.12212
17361 1 48.4243 62.5896 47.7929 5 6.11303 -3.54477
17362 1 50.8971 62.5896 47.7929 5 6.11303 -3.54477
17363 1 50.0707 62.5896 45.4616 5 6.11233 -3.54476
17364 1 52.5435 62.5896 45.4616 5 6.11233 -3.54476
17365 1 51.7174 62.5896 43.1302 5 6.11184 -3.54474
17366 1 54.1902 62.5896 43.1302 5 6.11184 -3.54474
17367 1 53.3646 62.5896 40.7989 5 12.2235 -3.54471
17368 1 55.8374 62.5896 40.7989 5 12.2235 -3.54471
17369 1 55.0123 62.5896 38.4675 5 12.2231 -3.54468
17370 1 57.485 62.5896 38.4675 5 12.2231 -3.54468
17371 1 56.6606 62.5896 36.1361 5 12.2233 -3.54464
17372 1 59.1334 62.5896 36.1361 5 12.2233 -3.54464
17373 1 58.3095 62.5896 33.8048 5 12.2239 -3.54461
17374 1 60.7823 62.5896 33.8048 5 12.2239 -3.54461
17375 1 59.9592 62.5896 31.4734 5 12.2265 -3.54458
17376 1 62.4319 62.5896 31.4734 5 12.2265 -3.54458
17377 1 61.6093 62.5896 29.142 5 12.2286 -3.54455
17378 1 64.0821 62.5896 29.142 5 12.2286 -3.54455
17379 1 63.2598 62.5896 26.8107 5 12.2309 -3.54454
17380 1 51.7196 60.5706 46.6273 3 1.02055e-06 -4.10666
17381 1 54.1924 60.5706 46.6273 3 1.02052e-06 -4.10666
17382 1 53.3656 60.5706 44.2959 3 1.02814e-06 -4.10664
17383 1 55.8384 60.5706 44.2959 3 1.02816e-06 -4.10664
17384 1 55.0121 60.5706 41.9645 3 1.04076e-06 -4.10661
17385 1 57.4848 60.5706 41.9645 3 1.04077e-06 -4.10661
17386 1 56.6591 60.5706 39.6332 3 1.05863e-06 -4.10657
17387 1 59.1319 60.5706 39.6332 3 1.05862e-06 -4.10657
17388 1 58.3069 60.5706 37.3018 3 1.08242e-06 -4.10651
17389 1 60.7797 60.5706 37.3018 3 1.08242e-06 -4.10651
17390 1 59.9556 60.5706 34.9704 3 1.11277e-06 -4.10645
17391 1 62.4284 60.5706 34.9704 3 1.11274e-06 -4.10645
17392 1 61.6051 60.5706 32.6391 3 1.14889e-06 -4.10639
17393 1 64.0779 60.5706 32.6391 3 1.14887e-06 -4.10639
17394 1 63.2554 60.5706 30.3077 3 1.18713e-06 -4.10633
17395 1 53.3691 58.5516 47.7929 3 0.000133584 -4.1223
17396 1 55.8419 58.5516 47.7929 3 0.000133584 -4.1223
17397 1 55.0142 58.5516 45.4616 3 0.000125533 -4.12231
17398 1 57.487 58.5516 45.4616 3 0.000125533 -4.12231
17399 1 56.6597 58.5516 43.1302 3 0.000110457 -4.12234
17400 1 59.1325 58.5516 43.1302 3 0.000110457 -4.12234
17401 1 58.3059 58.5516 40.7989 3 9.07159e-05 -4.12237
17402 1 60.7787 58.5516 40.7989 3 9.07159e-05 -4.12237
17403 1 59.953 58.5516 38.4675 3 6.97658e-05 -4.1224
17404 1 62.4258 58.5516 38.4675 3 6.97659e-05 -4.1224
17405 1 61.6011 58.5516 36.1361 3 5.08316e-05 -4.12243
17406 1 64.0739 58.5516 36.1361 3 5.08316e-05 -4.12243
17407 1 63.2504 58.5516 33.8048 3 3.52552e-05 -4.12244
17408 1 56.6637 56.5406 46.627 3 2.19144e-06 -4.12177
17409 1 59.1365 56.5406 46.627 3 2.19143e-06 -4.12177
17410 1 58.3083 56.5402 44.2953 3 3.49758e-06 -4.12182
17411 1 60.7811 56.5402 44.2953 3 3.49757e-06 -4.12182
17412 1 59.9538 56.5395 41.9635 3 5.88395e-06 -4.1219
17413 1 62.4266 56.5395 41.9635 3 5.88395e-06 -4.1219
17414 1 61.6004 56.5386 39.6317 3 9.06614e-06 -4.122
17415 1 64.0731 56.5386 39.6317 3 9.06613e-06 -4.122
17416 1 63.2482 56.5374 37.3 3 1.18619e-05 -4.12212
17417 1 58.3138 54.5298 47.7928 3 3.89996e-06 -4.12217
17418 1 60.7866 54.5298 47.7928 3 3.89996e-06 -4.12217
17419 1 59.9572 54.5293 45.4612 3 4.47753e-06 -4.12218
17420 1 62.43 54.5293 45.4612 3 4.47753e-06 -4.12218
17421 1 61.6014 54.5283 43.1295 3 5.81593e-06 -4.12221
17422 1 64.0742 54.5283 43.1295 3 5.81593e-06 -4.12221
17423 1 63.2469 54.5268 40.7976 3 8.05885e-06 -4.12226
17424 1 61.6067 52.5183 46.6275 3 7.52735e-06 -4.12216
17425 1 64.0795 52.5183 46.6275 3 7.52735e-06 -4.12216
17426 1 63.2492 52.5174 44.2961 3 8.29609e-06 -4.12218
17427 1 63.2577 50.5068 47.7934 3 1.18952e-05 -4.12215
17428 1 53.3698 62.5896 47.7929 5 6.11303 -3.54477
17429 1 55.8426 62.5896 47.7929 5 6.11303 -3.54477
17430 1 55.0163 62.5896 45.4616 5 6.11233 -3.54476
17431 1 57.4891 62.5896 45.4616 5 6.11233 -3.54476
17432 1 56.663 62.5896 43.1302 5 6.11184 -3.54474
17433 1 59.1358 62.5896 43.1302 5 6.11184 -3.54474
17434 1 58.3101 62.5896 40.7989 5 12.2235 -3.54471
17435 1 60.7829 62.5896 40.7989 5 12.2235 -3.54471
17436 1 59.9578 62.5896 38.4675 5 12.2231 -3.54468
17437 1 62.4306 62.5896 38.4675 5 12.2231 -3.54468
17438 1 61.6061 62.5896 36.1361 5 12.2233 -3.54464
17439 1 64.0789 62.5896 36.1361 5 12.2233 -3.54464
17440 1 63.2551 62.5896 33.8048 5 12.2239 -3.54461
17441 1 56.6652 60.5706 46.6273 3 1.02055e-06 -4.10666
17442 1 59.138 60.5706 46.6273 3 1.02055e-06 -4.10666
17443 1 58.3112 60.5706 44.2959 3 1.02815e-06 -4.10664
17444 1 60.784 60.5706 44.2959 3 1.02816e-06 -4.10664
17445 1 59.9576 60.5706 41.9645 3 1.04077e-06 -4.10661
17446 1 62.4304 60.5706 41.9645 3 1.04074e-06 -4.10661
17447 1 61.6047 60.5706 39.6332 3 1.05865e-06 -4.10657
17448 1 64.0775 60.5706 39.6332 3 1.05863e-06 -4.10657
17449 1 63.2525 60.5706 37.3018 3 1.08243e-06 -4.10651
17450 1 58.3147 58.5516 47.7929 3 0.000133584 -4.1223
17451 1 60.7875 58.5516 47.7929 3 0.000133584 -4.1223
17452 1 59.9598 58.5516 45.4616 3 0.000125533 -4.12231
17453 1 62.4326 58.5516 45.4616 3 0.000125533 -4.12231
17454 1 61.6053 58.5516 43.1302 3 0.000110457 -4.12234
17455 1 64.0781 58.5516 43.1302 3 0.000110457 -4.12234
17456 1 63.2515 58.5516 40.7989 3 9.07158e-05 -4.12237
17457 1 61.6092 56.5406 46.627 3 2.19144e-06 -4.12177
17458 1 64.082 56.5406 46.627 3 2.19143e-06 -4.12177
17459 1 63.2539 56.5402 44.2953 3 3.49758e-06 -4.12182
17460 1 63.2593 54.5298 47.7928 3 3.89996e-06 -4.12217
17461 1 58.3154 62.5896 47.7929 5 6.11303 -3.54477
17462 1 60.7882 62.5896 47.7929 5 6.11303 -3.54477
17463 1 59.9619 62.5896 45.4616 5 6.11233 -3.54476
17464 1 62.4346 62.5896 45.4616 5 6.11233 -3.54476
17465 1 61.6086 62.5896 43.1302 5 6.11184 -3.54474
17466 1 64.0814 62.5896 43.1302 5 6.11184 -3.54474
17467 1 63.2557 62.5896 40.7989 5 12.2235 -3.54471
17468 1 61.6108 60.5706 46.6273 3 1.02054e-06 -4.10666
17469 1 64.0836 60.5706 46.6273 3 1.02055e-06 -4.10666
17470 1 63.2568 60.5706 44.2959 3 1.02815e-06 -4.10664
17471 1 63.2603 58.5516 47.7929 3 0.000133584 -4.1223
17472 1 63.261 62.5896 47.7929 5 6.11303 -3.54477
