BCC Fe edge dislocation + rigid particle

17136 atoms
2 atom types

0.0 64.2923836376 xlo xhi
0.0 64.6086294397 ylo yhi
0.0 48.9586250987 zlo zhi

Masses

1 55.845
2 55.845

Atoms # atomic

1 1 0.82426133 0.00000000 2.33136310
2 1 0.00000000 0.00000000 0.00000000
3 1 2.47278399 0.00000000 -0.00000000
4 1 0.82426133 4.03803934 2.33136310
5 1 0.00000000 4.03803934 -0.00000000
6 1 2.47278399 4.03803934 -0.00000000
7 1 0.82426133 2.01901967 5.82840775
8 1 0.00000000 2.01901967 3.49704465
9 1 2.47278399 2.01901967 3.49704465
10 1 1.64852266 2.01901967 1.16568155
11 1 4.12130664 2.01901967 1.16568155
12 1 0.82426133 0.00000000 9.32545240
13 1 0.00000000 0.00000000 6.99408930
14 1 2.47278399 0.00000000 6.99408930
15 1 1.64852266 0.00000000 4.66272620
16 1 4.12130664 0.00000000 4.66272620
17 1 3.29704531 0.00000000 2.33136310
18 1 5.76982930 0.00000000 2.33136310
19 1 4.94556797 0.00000000 -0.00000000
20 1 7.41835196 0.00000000 0.00000000
21 1 0.82426133 8.07607868 2.33136310
22 1 0.00000000 8.07607868 -0.00000000
23 1 2.47278399 8.07607868 0.00000000
24 1 0.82426133 6.05705901 5.82840775
25 1 0.00000000 6.05705901 3.49704465
26 1 2.47278399 6.05705901 3.49704465
27 1 1.64852266 6.05705901 1.16568155
28 1 4.12130664 6.05705901 1.16568155
29 1 0.82426133 4.03803934 9.32545240
30 1 0.00000000 4.03803934 6.99408930
31 1 2.47278399 4.03803934 6.99408930
32 1 1.64852266 4.03803934 4.66272620
33 1 4.12130664 4.03803934 4.66272620
34 1 3.29704531 4.03803934 2.33136310
35 1 5.76982930 4.03803934 2.33136310
36 1 4.94556797 4.03803934 -0.00000000
37 1 7.41835196 4.03803934 0.00000000
38 1 0.82426133 2.01901967 12.82249705
39 1 -0.00000000 2.01901967 10.49113395
40 1 2.47278399 2.01901967 10.49113395
41 1 1.64852266 2.01901967 8.15977085
42 1 4.12130664 2.01901967 8.15977085
43 1 3.29704531 2.01901967 5.82840775
44 1 5.76982930 2.01901967 5.82840775
45 1 4.94556797 2.01901967 3.49704465
46 1 7.41835196 2.01901967 3.49704465
47 1 6.59409063 2.01901967 1.16568155
48 1 9.06687462 2.01901967 1.16568155
49 1 0.82426133 0.00000000 16.31954170
50 1 0.00000000 0.00000000 13.98817860
51 1 2.47278399 0.00000000 13.98817860
52 1 1.64852266 0.00000000 11.65681550
53 1 4.12130664 0.00000000 11.65681550
54 1 3.29704531 0.00000000 9.32545240
55 1 5.76982930 0.00000000 9.32545240
56 1 4.94556797 0.00000000 6.99408930
57 1 7.41835196 0.00000000 6.99408930
58 1 6.59409063 0.00000000 4.66272620
59 1 9.06687462 0.00000000 4.66272620
60 1 8.24261329 0.00000000 2.33136310
61 1 10.71539727 0.00000000 2.33136310
62 1 9.89113594 0.00000000 -0.00000000
63 1 12.36391993 0.00000000 0.00000000
64 1 0.82426133 12.11411802 2.33136310
65 1 -0.00000000 12.11411802 0.00000000
66 1 2.47278399 12.11411802 0.00000000
67 1 0.82426133 10.09509835 5.82840775
68 1 -0.00000000 10.09509835 3.49704465
69 1 2.47278399 10.09509835 3.49704465
70 1 1.64852266 10.09509835 1.16568155
71 1 4.12130664 10.09509835 1.16568155
72 1 0.82426133 8.07607868 9.32545240
73 1 -0.00000000 8.07607868 6.99408930
74 1 2.47278399 8.07607868 6.99408930
75 1 1.64852266 8.07607868 4.66272620
76 1 4.12130664 8.07607868 4.66272620
77 1 3.29704531 8.07607868 2.33136310
78 1 5.76982930 8.07607868 2.33136310
79 1 4.94556797 8.07607868 -0.00000000
80 1 7.41835196 8.07607868 0.00000000
81 1 0.82426133 6.05705901 12.82249705
82 1 -0.00000000 6.05705901 10.49113395
83 1 2.47278399 6.05705901 10.49113395
84 1 1.64852266 6.05705901 8.15977085
85 1 4.12130664 6.05705901 8.15977085
86 1 3.29704531 6.05705901 5.82840775
87 1 5.76982930 6.05705901 5.82840775
88 1 4.94556797 6.05705901 3.49704465
89 1 7.41835196 6.05705901 3.49704465
90 1 6.59409063 6.05705901 1.16568155
91 1 9.06687462 6.05705901 1.16568155
92 1 0.82426133 4.03803934 16.31954170
93 1 -0.00000000 4.03803934 13.98817860
94 1 2.47278399 4.03803934 13.98817860
95 1 1.64852266 4.03803934 11.65681550
96 1 4.12130664 4.03803934 11.65681550
97 1 3.29704531 4.03803934 9.32545240
98 1 5.76982930 4.03803934 9.32545240
99 1 4.94556797 4.03803934 6.99408930
100 1 7.41835196 4.03803934 6.99408930
101 1 6.59409063 4.03803934 4.66272620
102 1 9.06687462 4.03803934 4.66272620
103 1 8.24261329 4.03803934 2.33136310
104 1 10.71539727 4.03803934 2.33136310
105 1 9.89113594 4.03803934 -0.00000000
106 1 12.36391993 4.03803934 0.00000000
107 1 0.82426133 2.01901967 19.81658635
108 1 -0.00000000 2.01901967 17.48522325
109 1 2.47278399 2.01901967 17.48522325
110 1 1.64852266 2.01901967 15.15386015
111 1 4.12130664 2.01901967 15.15386015
112 1 3.29704531 2.01901967 12.82249705
113 1 5.76982930 2.01901967 12.82249705
114 1 4.94556797 2.01901967 10.49113395
115 1 7.41835196 2.01901967 10.49113395
116 1 6.59409063 2.01901967 8.15977085
117 1 9.06687462 2.01901967 8.15977085
118 1 8.24261329 2.01901967 5.82840775
119 1 10.71539727 2.01901967 5.82840775
120 1 9.89113594 2.01901967 3.49704465
121 1 12.36391993 2.01901967 3.49704465
122 1 11.53965860 2.01901967 1.16568155
123 1 14.01244259 2.01901967 1.16568155
124 1 0.82426133 -0.00000000 23.31363100
125 1 -0.00000000 0.00000000 20.98226790
126 1 2.47278399 -0.00000000 20.98226790
127 1 1.64852266 0.00000000 18.65090480
128 1 4.12130664 -0.00000000 18.65090480
129 1 3.29704531 0.00000000 16.31954170
130 1 5.76982930 -0.00000000 16.31954170
131 1 4.94556797 0.00000000 13.98817860
132 1 7.41835196 -0.00000000 13.98817860
133 1 6.59409063 0.00000000 11.65681550
134 1 9.06687462 -0.00000000 11.65681550
135 1 8.24261329 0.00000000 9.32545240
136 1 10.71539727 -0.00000000 9.32545240
137 1 9.89113594 0.00000000 6.99408930
138 1 12.36391993 -0.00000000 6.99408930
139 1 11.53965860 0.00000000 4.66272620
140 1 14.01244259 -0.00000000 4.66272620
141 1 13.18818126 0.00000000 2.33136310
142 1 15.66096525 -0.00000000 2.33136310
143 1 14.83670392 0.00000000 0.00000000
144 1 17.30948790 -0.00000000 0.00000000
145 1 0.82426133 16.15215736 2.33136310
146 1 0.00000000 16.15215736 -0.00000000
147 1 2.47278399 16.15215736 -0.00000000
148 1 0.82426133 14.13313769 5.82840775
149 1 0.00000000 14.13313769 3.49704465
150 1 2.47278399 14.13313769 3.49704465
151 1 1.64852266 14.13313769 1.16568155
152 1 4.12130664 14.13313769 1.16568155
153 1 0.82426133 12.11411802 9.32545240
154 1 0.00000000 12.11411802 6.99408930
155 1 2.47278399 12.11411802 6.99408930
156 1 1.64852266 12.11411802 4.66272620
157 1 4.12130664 12.11411802 4.66272620
158 1 3.29704531 12.11411802 2.33136310
159 1 5.76982930 12.11411802 2.33136310
160 1 4.94556797 12.11411802 -0.00000000
161 1 7.41835196 12.11411802 0.00000000
162 1 0.82426133 10.09509835 12.82249705
163 1 0.00000000 10.09509835 10.49113395
164 1 2.47278399 10.09509835 10.49113395
165 1 1.64852266 10.09509835 8.15977085
166 1 4.12130664 10.09509835 8.15977085
167 1 3.29704531 10.09509835 5.82840775
168 1 5.76982930 10.09509835 5.82840775
169 1 4.94556797 10.09509835 3.49704465
170 1 7.41835196 10.09509835 3.49704465
171 1 6.59409063 10.09509835 1.16568155
172 1 9.06687462 10.09509835 1.16568155
173 1 0.82426133 8.07607868 16.31954170
174 1 0.00000000 8.07607868 13.98817860
175 1 2.47278399 8.07607868 13.98817860
176 1 1.64852266 8.07607868 11.65681550
177 1 4.12130664 8.07607868 11.65681550
178 1 3.29704531 8.07607868 9.32545240
179 1 5.76982930 8.07607868 9.32545240
180 1 4.94556797 8.07607868 6.99408930
181 1 7.41835196 8.07607868 6.99408930
182 1 6.59409063 8.07607868 4.66272620
183 1 9.06687462 8.07607868 4.66272620
184 1 8.24261329 8.07607868 2.33136310
185 1 10.71539727 8.07607868 2.33136310
186 1 9.89113594 8.07607868 -0.00000000
187 1 12.36391993 8.07607868 -0.00000000
188 1 0.82426133 6.05705901 19.81658635
189 1 0.00000000 6.05705901 17.48522325
190 1 2.47278399 6.05705901 17.48522325
191 1 1.64852266 6.05705901 15.15386015
192 1 4.12130664 6.05705901 15.15386015
193 1 3.29704531 6.05705901 12.82249705
194 1 5.76982930 6.05705901 12.82249705
195 1 4.94556797 6.05705901 10.49113395
196 1 7.41835196 6.05705901 10.49113395
197 1 6.59409063 6.05705901 8.15977085
198 1 9.06687462 6.05705901 8.15977085
199 1 8.24261329 6.05705901 5.82840775
200 1 10.71539727 6.05705901 5.82840775
201 1 9.89113594 6.05705901 3.49704465
202 1 12.36391993 6.05705901 3.49704465
203 1 11.53965860 6.05705901 1.16568155
204 1 14.01244259 6.05705901 1.16568155
205 1 0.82426133 4.03803934 23.31363100
206 1 -0.00000000 4.03803934 20.98226790
207 1 2.47278399 4.03803934 20.98226790
208 1 1.64852266 4.03803934 18.65090480
209 1 4.12130664 4.03803934 18.65090480
210 1 3.29704531 4.03803934 16.31954170
211 1 5.76982930 4.03803934 16.31954170
212 1 4.94556797 4.03803934 13.98817860
213 1 7.41835196 4.03803934 13.98817860
214 1 6.59409063 4.03803934 11.65681550
215 1 9.06687462 4.03803934 11.65681550
216 1 8.24261329 4.03803934 9.32545240
217 1 10.71539727 4.03803934 9.32545240
218 1 9.89113594 4.03803934 6.99408930
219 1 12.36391993 4.03803934 6.99408930
220 1 11.53965860 4.03803934 4.66272620
221 1 14.01244259 4.03803934 4.66272620
222 1 13.18818126 4.03803934 2.33136310
223 1 15.66096525 4.03803934 2.33136310
224 1 14.83670392 4.03803934 0.00000000
225 1 17.30948790 4.03803934 0.00000000
226 1 0.82426133 2.01901967 26.81067565
227 1 -0.00000000 2.01901967 24.47931255
228 1 2.47278399 2.01901967 24.47931255
229 1 1.64852266 2.01901967 22.14794945
230 1 4.12130664 2.01901967 22.14794945
231 1 3.29704531 2.01901967 19.81658635
232 1 5.76982930 2.01901967 19.81658635
233 1 4.94556797 2.01901967 17.48522325
234 1 7.41835196 2.01901967 17.48522325
235 1 6.59409063 2.01901967 15.15386015
236 1 9.06687462 2.01901967 15.15386015
237 1 8.24261329 2.01901967 12.82249705
238 1 10.71539727 2.01901967 12.82249705
239 1 9.89113594 2.01901967 10.49113395
240 1 12.36391993 2.01901967 10.49113395
241 1 11.53965860 2.01901967 8.15977085
242 1 14.01244259 2.01901967 8.15977085
243 1 13.18818126 2.01901967 5.82840775
244 1 15.66096525 2.01901967 5.82840775
245 1 14.83670392 2.01901967 3.49704465
246 1 17.30948790 2.01901967 3.49704465
247 1 16.48522657 2.01901967 1.16568155
248 1 18.95801056 2.01901967 1.16568155
249 1 0.82426133 0.00000000 30.30772030
250 1 0.00000000 0.00000000 27.97635720
251 1 2.47278399 0.00000000 27.97635720
252 1 1.64852266 0.00000000 25.64499410
253 1 4.12130664 0.00000000 25.64499410
254 1 3.29704531 0.00000000 23.31363100
255 1 5.76982930 0.00000000 23.31363100
256 1 4.94556797 0.00000000 20.98226790
257 1 7.41835196 0.00000000 20.98226790
258 1 6.59409063 0.00000000 18.65090480
259 1 9.06687462 0.00000000 18.65090480
260 1 8.24261329 0.00000000 16.31954170
261 1 10.71539727 0.00000000 16.31954170
262 1 9.89113594 0.00000000 13.98817860
263 1 12.36391993 0.00000000 13.98817860
264 1 11.53965860 0.00000000 11.65681550
265 1 14.01244259 0.00000000 11.65681550
266 1 13.18818126 0.00000000 9.32545240
267 1 15.66096525 0.00000000 9.32545240
268 1 14.83670392 0.00000000 6.99408930
269 1 17.30948790 0.00000000 6.99408930
270 1 16.48522657 0.00000000 4.66272620
271 1 18.95801056 0.00000000 4.66272620
272 1 18.13374923 0.00000000 2.33136310
273 1 20.60653322 0.00000000 2.33136310
274 1 19.78227189 0.00000000 -0.00000000
275 1 22.25505587 0.00000000 -0.00000000
276 1 0.82426133 20.19019670 2.33136310
277 1 0.00000000 20.19019670 0.00000000
278 1 2.47278399 20.19019670 -0.00000000
279 1 0.82426133 18.17117703 5.82840775
280 1 0.00000000 18.17117703 3.49704465
281 1 2.47278399 18.17117703 3.49704465
282 1 1.64852266 18.17117703 1.16568155
283 1 4.12130664 18.17117703 1.16568155
284 1 0.82426133 16.15215736 9.32545240
285 1 0.00000000 16.15215736 6.99408930
286 1 2.47278399 16.15215736 6.99408930
287 1 1.64852266 16.15215736 4.66272620
288 1 4.12130664 16.15215736 4.66272620
289 1 3.29704531 16.15215736 2.33136310
290 1 5.76982930 16.15215736 2.33136310
291 1 4.94556797 16.15215736 0.00000000
292 1 7.41835196 16.15215736 0.00000000
293 1 0.82426133 14.13313769 12.82249705
294 1 0.00000000 14.13313769 10.49113395
295 1 2.47278399 14.13313769 10.49113395
296 1 1.64852266 14.13313769 8.15977085
297 1 4.12130664 14.13313769 8.15977085
298 1 3.29704531 14.13313769 5.82840775
299 1 5.76982930 14.13313769 5.82840775
300 1 4.94556797 14.13313769 3.49704465
301 1 7.41835196 14.13313769 3.49704465
302 1 6.59409063 14.13313769 1.16568155
303 1 9.06687462 14.13313769 1.16568155
304 1 0.82426133 12.11411802 16.31954170
305 1 0.00000000 12.11411802 13.98817860
306 1 2.47278399 12.11411802 13.98817860
307 1 1.64852266 12.11411802 11.65681550
308 1 4.12130664 12.11411802 11.65681550
309 1 3.29704531 12.11411802 9.32545240
310 1 5.76982930 12.11411802 9.32545240
311 1 4.94556797 12.11411802 6.99408930
312 1 7.41835196 12.11411802 6.99408930
313 1 6.59409063 12.11411802 4.66272620
314 1 9.06687462 12.11411802 4.66272620
315 1 8.24261329 12.11411802 2.33136310
316 1 10.71539727 12.11411802 2.33136310
317 1 9.89113594 12.11411802 -0.00000000
318 1 12.36391993 12.11411802 0.00000000
319 1 0.82426133 10.09509835 19.81658635
320 1 0.00000000 10.09509835 17.48522325
321 1 2.47278399 10.09509835 17.48522325
322 1 1.64852266 10.09509835 15.15386015
323 1 4.12130664 10.09509835 15.15386015
324 1 3.29704531 10.09509835 12.82249705
325 1 5.76982930 10.09509835 12.82249705
326 1 4.94556797 10.09509835 10.49113395
327 1 7.41835196 10.09509835 10.49113395
328 1 6.59409063 10.09509835 8.15977085
329 1 9.06687462 10.09509835 8.15977085
330 1 8.24261329 10.09509835 5.82840775
331 1 10.71539727 10.09509835 5.82840775
332 1 9.89113594 10.09509835 3.49704465
333 1 12.36391993 10.09509835 3.49704465
334 1 11.53965860 10.09509835 1.16568155
335 1 14.01244259 10.09509835 1.16568155
336 1 0.82426133 8.07607868 23.31363100
337 1 0.00000000 8.07607868 20.98226790
338 1 2.47278399 8.07607868 20.98226790
339 1 1.64852266 8.07607868 18.65090480
340 1 4.12130664 8.07607868 18.65090480
341 1 3.29704531 8.07607868 16.31954170
342 1 5.76982930 8.07607868 16.31954170
343 1 4.94556797 8.07607868 13.98817860
344 1 7.41835196 8.07607868 13.98817860
345 1 6.59409063 8.07607868 11.65681550
346 1 9.06687462 8.07607868 11.65681550
347 1 8.24261329 8.07607868 9.32545240
348 1 10.71539727 8.07607868 9.32545240
349 1 9.89113594 8.07607868 6.99408930
350 1 12.36391993 8.07607868 6.99408930
351 1 11.53965860 8.07607868 4.66272620
352 1 14.01244259 8.07607868 4.66272620
353 1 13.18818126 8.07607868 2.33136310
354 1 15.66096525 8.07607868 2.33136310
355 1 14.83670392 8.07607868 0.00000000
356 1 17.30948790 8.07607868 0.00000000
357 1 0.82426133 6.05705901 26.81067565
358 1 -0.00000000 6.05705901 24.47931255
359 1 2.47278399 6.05705901 24.47931255
360 1 1.64852266 6.05705901 22.14794945
361 1 4.12130664 6.05705901 22.14794945
362 1 3.29704531 6.05705901 19.81658635
363 1 5.76982930 6.05705901 19.81658635
364 1 4.94556797 6.05705901 17.48522325
365 1 7.41835196 6.05705901 17.48522325
366 1 6.59409063 6.05705901 15.15386015
367 1 9.06687462 6.05705901 15.15386015
368 1 8.24261329 6.05705901 12.82249705
369 1 10.71539727 6.05705901 12.82249705
370 1 9.89113594 6.05705901 10.49113395
371 1 12.36391993 6.05705901 10.49113395
372 1 11.53965860 6.05705901 8.15977085
373 1 14.01244259 6.05705901 8.15977085
374 1 13.18818126 6.05705901 5.82840775
375 1 15.66096525 6.05705901 5.82840775
376 1 14.83670392 6.05705901 3.49704465
377 1 17.30948790 6.05705901 3.49704465
378 1 16.48522657 6.05705901 1.16568155
379 1 18.95801056 6.05705901 1.16568155
380 1 0.82426133 4.03803934 30.30772030
381 1 0.00000000 4.03803934 27.97635720
382 1 2.47278399 4.03803934 27.97635720
383 1 1.64852266 4.03803934 25.64499410
384 1 4.12130664 4.03803934 25.64499410
385 1 3.29704531 4.03803934 23.31363100
386 1 5.76982930 4.03803934 23.31363100
387 1 4.94556797 4.03803934 20.98226790
388 1 7.41835196 4.03803934 20.98226790
389 1 6.59409063 4.03803934 18.65090480
390 1 9.06687462 4.03803934 18.65090480
391 1 8.24261329 4.03803934 16.31954170
392 1 10.71539727 4.03803934 16.31954170
393 1 9.89113594 4.03803934 13.98817860
394 1 12.36391993 4.03803934 13.98817860
395 1 11.53965860 4.03803934 11.65681550
396 1 14.01244259 4.03803934 11.65681550
397 1 13.18818126 4.03803934 9.32545240
398 1 15.66096525 4.03803934 9.32545240
399 1 14.83670392 4.03803934 6.99408930
400 1 17.30948790 4.03803934 6.99408930
401 1 16.48522657 4.03803934 4.66272620
402 1 18.95801056 4.03803934 4.66272620
403 1 18.13374923 4.03803934 2.33136310
404 1 20.60653322 4.03803934 2.33136310
405 1 19.78227189 4.03803934 -0.00000000
406 1 22.25505587 4.03803934 -0.00000000
407 1 0.82426133 2.01901967 33.80476495
408 1 0.00000000 2.01901967 31.47340185
409 1 2.47278399 2.01901967 31.47340185
410 1 1.64852266 2.01901967 29.14203875
411 1 4.12130664 2.01901967 29.14203875
412 1 3.29704531 2.01901967 26.81067565
413 1 5.76982930 2.01901967 26.81067565
414 1 4.94556797 2.01901967 24.47931255
415 1 7.41835196 2.01901967 24.47931255
416 1 6.59409063 2.01901967 22.14794945
417 1 9.06687462 2.01901967 22.14794945
418 1 8.24261329 2.01901967 19.81658635
419 1 10.71539727 2.01901967 19.81658635
420 1 9.89113594 2.01901967 17.48522325
421 1 12.36391993 2.01901967 17.48522325
422 1 11.53965860 2.01901967 15.15386015
423 1 14.01244259 2.01901967 15.15386015
424 1 13.18818126 2.01901967 12.82249705
425 1 15.66096525 2.01901967 12.82249705
426 1 14.83670392 2.01901967 10.49113395
427 1 17.30948790 2.01901967 10.49113395
428 1 16.48522657 2.01901967 8.15977085
429 1 18.95801056 2.01901967 8.15977085
430 1 18.13374923 2.01901967 5.82840775
431 1 20.60653322 2.01901967 5.82840775
432 1 19.78227189 2.01901967 3.49704465
433 1 22.25505587 2.01901967 3.49704465
434 1 21.43079455 2.01901967 1.16568155
435 1 23.90357853 2.01901967 1.16568155
436 1 0.82426133 -0.00000000 37.30180960
437 1 0.00000000 0.00000000 34.97044650
438 1 2.47278399 -0.00000000 34.97044650
439 1 1.64852266 0.00000000 32.63908340
440 1 4.12130664 -0.00000000 32.63908340
441 1 3.29704531 0.00000000 30.30772030
442 1 5.76982930 -0.00000000 30.30772030
443 1 4.94556797 0.00000000 27.97635720
444 1 7.41835196 -0.00000000 27.97635720
445 1 6.59409063 0.00000000 25.64499410
446 1 9.06687462 -0.00000000 25.64499410
447 1 8.24261329 0.00000000 23.31363100
448 1 10.71539727 -0.00000000 23.31363100
449 1 9.89113594 0.00000000 20.98226790
450 1 12.36391993 -0.00000000 20.98226790
451 1 11.53965860 0.00000000 18.65090480
452 1 14.01244259 -0.00000000 18.65090480
453 1 13.18818126 0.00000000 16.31954170
454 1 15.66096525 -0.00000000 16.31954170
455 1 14.83670392 0.00000000 13.98817860
456 1 17.30948790 -0.00000000 13.98817860
457 1 16.48522657 0.00000000 11.65681550
458 1 18.95801056 -0.00000000 11.65681550
459 1 18.13374923 0.00000000 9.32545240
460 1 20.60653322 -0.00000000 9.32545240
461 1 19.78227189 0.00000000 6.99408930
462 1 22.25505587 -0.00000000 6.99408930
463 1 21.43079455 0.00000000 4.66272620
464 1 23.90357853 -0.00000000 4.66272620
465 1 23.07931720 0.00000000 2.33136310
466 1 25.55210119 -0.00000000 2.33136310
467 1 24.72783986 0.00000000 0.00000000
468 1 27.20062385 -0.00000000 -0.00000000
469 1 0.82426133 24.22823604 2.33136310
470 1 -0.00000000 24.22823604 0.00000000
471 1 2.47278399 24.22823604 0.00000000
472 1 0.82426133 22.20921637 5.82840775
473 1 -0.00000000 22.20921637 3.49704465
474 1 2.47278399 22.20921637 3.49704465
475 1 1.64852266 22.20921637 1.16568155
476 1 4.12130664 22.20921637 1.16568155
477 1 0.82426133 20.19019670 9.32545240
478 1 -0.00000000 20.19019670 6.99408930
479 1 2.47278399 20.19019670 6.99408930
480 1 1.64852266 20.19019670 4.66272620
481 1 4.12130664 20.19019670 4.66272620
482 1 3.29704531 20.19019670 2.33136310
483 1 5.76982930 20.19019670 2.33136310
484 1 4.94556797 20.19019670 -0.00000000
485 1 7.41835196 20.19019670 0.00000000
486 1 0.82426133 18.17117703 12.82249705
487 1 -0.00000000 18.17117703 10.49113395
488 1 2.47278399 18.17117703 10.49113395
489 1 1.64852266 18.17117703 8.15977085
490 1 4.12130664 18.17117703 8.15977085
491 1 3.29704531 18.17117703 5.82840775
492 1 5.76982930 18.17117703 5.82840775
493 1 4.94556797 18.17117703 3.49704465
494 1 7.41835196 18.17117703 3.49704465
495 1 6.59409063 18.17117703 1.16568155
496 1 9.06687462 18.17117703 1.16568155
497 1 0.82426133 16.15215736 16.31954170
498 1 -0.00000000 16.15215736 13.98817860
499 1 2.47278399 16.15215736 13.98817860
500 1 1.64852266 16.15215736 11.65681550
501 1 4.12130664 16.15215736 11.65681550
502 1 3.29704531 16.15215736 9.32545240
503 1 5.76982930 16.15215736 9.32545240
504 1 4.94556797 16.15215736 6.99408930
505 1 7.41835196 16.15215736 6.99408930
506 1 6.59409063 16.15215736 4.66272620
507 1 9.06687462 16.15215736 4.66272620
508 1 8.24261329 16.15215736 2.33136310
509 1 10.71539727 16.15215736 2.33136310
510 1 9.89113594 16.15215736 -0.00000000
511 1 12.36391993 16.15215736 -0.00000000
512 1 0.82426133 14.13313769 19.81658635
513 1 -0.00000000 14.13313769 17.48522325
514 1 2.47278399 14.13313769 17.48522325
515 1 1.64852266 14.13313769 15.15386015
516 1 4.12130664 14.13313769 15.15386015
517 1 3.29704531 14.13313769 12.82249705
518 1 5.76982930 14.13313769 12.82249705
519 1 4.94556797 14.13313769 10.49113395
520 1 7.41835196 14.13313769 10.49113395
521 1 6.59409063 14.13313769 8.15977085
522 1 9.06687462 14.13313769 8.15977085
523 1 8.24261329 14.13313769 5.82840775
524 1 10.71539727 14.13313769 5.82840775
525 1 9.89113594 14.13313769 3.49704465
526 1 12.36391993 14.13313769 3.49704465
527 1 11.53965860 14.13313769 1.16568155
528 1 14.01244259 14.13313769 1.16568155
529 1 0.82426133 12.11411802 23.31363100
530 1 -0.00000000 12.11411802 20.98226790
531 1 2.47278399 12.11411802 20.98226790
532 1 1.64852266 12.11411802 18.65090480
533 1 4.12130664 12.11411802 18.65090480
534 1 3.29704531 12.11411802 16.31954170
535 1 5.76982930 12.11411802 16.31954170
536 1 4.94556797 12.11411802 13.98817860
537 1 7.41835196 12.11411802 13.98817860
538 1 6.59409063 12.11411802 11.65681550
539 1 9.06687462 12.11411802 11.65681550
540 1 8.24261329 12.11411802 9.32545240
541 1 10.71539727 12.11411802 9.32545240
542 1 9.89113594 12.11411802 6.99408930
543 1 12.36391993 12.11411802 6.99408930
544 1 11.53965860 12.11411802 4.66272620
545 1 14.01244259 12.11411802 4.66272620
546 1 13.18818126 12.11411802 2.33136310
547 1 15.66096525 12.11411802 2.33136310
548 1 14.83670392 12.11411802 0.00000000
549 1 17.30948790 12.11411802 0.00000000
550 1 0.82426133 10.09509835 26.81067565
551 1 -0.00000000 10.09509835 24.47931255
552 1 2.47278399 10.09509835 24.47931255
553 1 1.64852266 10.09509835 22.14794945
554 1 4.12130664 10.09509835 22.14794945
555 1 3.29704531 10.09509835 19.81658635
556 1 5.76982930 10.09509835 19.81658635
557 1 4.94556797 10.09509835 17.48522325
558 1 7.41835196 10.09509835 17.48522325
559 1 6.59409063 10.09509835 15.15386015
560 1 9.06687462 10.09509835 15.15386015
561 1 8.24261329 10.09509835 12.82249705
562 1 10.71539727 10.09509835 12.82249705
563 1 9.89113594 10.09509835 10.49113395
564 1 12.36391993 10.09509835 10.49113395
565 1 11.53965860 10.09509835 8.15977085
566 1 14.01244259 10.09509835 8.15977085
567 1 13.18818126 10.09509835 5.82840775
568 1 15.66096525 10.09509835 5.82840775
569 1 14.83670392 10.09509835 3.49704465
570 1 17.30948790 10.09509835 3.49704465
571 1 16.48522657 10.09509835 1.16568155
572 1 18.95801056 10.09509835 1.16568155
573 1 0.82426133 8.07607868 30.30772030
574 1 -0.00000000 8.07607868 27.97635720
575 1 2.47278399 8.07607868 27.97635720
576 1 1.64852266 8.07607868 25.64499410
577 1 4.12130664 8.07607868 25.64499410
578 1 3.29704531 8.07607868 23.31363100
579 1 5.76982930 8.07607868 23.31363100
580 1 4.94556797 8.07607868 20.98226790
581 1 7.41835196 8.07607868 20.98226790
582 1 6.59409063 8.07607868 18.65090480
583 1 9.06687462 8.07607868 18.65090480
584 1 8.24261329 8.07607868 16.31954170
585 1 10.71539727 8.07607868 16.31954170
586 1 9.89113594 8.07607868 13.98817860
587 1 12.36391993 8.07607868 13.98817860
588 1 11.53965860 8.07607868 11.65681550
589 1 14.01244259 8.07607868 11.65681550
590 1 13.18818126 8.07607868 9.32545240
591 1 15.66096525 8.07607868 9.32545240
592 1 14.83670392 8.07607868 6.99408930
593 1 17.30948790 8.07607868 6.99408930
594 1 16.48522657 8.07607868 4.66272620
595 1 18.95801056 8.07607868 4.66272620
596 1 18.13374923 8.07607868 2.33136310
597 1 20.60653322 8.07607868 2.33136310
598 1 19.78227189 8.07607868 -0.00000000
599 1 22.25505587 8.07607868 -0.00000000
600 1 0.82426133 6.05705901 33.80476495
601 1 -0.00000000 6.05705901 31.47340185
602 1 2.47278399 6.05705901 31.47340185
603 1 1.64852266 6.05705901 29.14203875
604 1 4.12130664 6.05705901 29.14203875
605 1 3.29704531 6.05705901 26.81067565
606 1 5.76982930 6.05705901 26.81067565
607 1 4.94556797 6.05705901 24.47931255
608 1 7.41835196 6.05705901 24.47931255
609 1 6.59409063 6.05705901 22.14794945
610 1 9.06687462 6.05705901 22.14794945
611 1 8.24261329 6.05705901 19.81658635
612 1 10.71539727 6.05705901 19.81658635
613 1 9.89113594 6.05705901 17.48522325
614 1 12.36391993 6.05705901 17.48522325
615 1 11.53965860 6.05705901 15.15386015
616 1 14.01244259 6.05705901 15.15386015
617 1 13.18818126 6.05705901 12.82249705
618 1 15.66096525 6.05705901 12.82249705
619 1 14.83670392 6.05705901 10.49113395
620 1 17.30948790 6.05705901 10.49113395
621 1 16.48522657 6.05705901 8.15977085
622 1 18.95801056 6.05705901 8.15977085
623 1 18.13374923 6.05705901 5.82840775
624 1 20.60653322 6.05705901 5.82840775
625 1 19.78227189 6.05705901 3.49704465
626 1 22.25505587 6.05705901 3.49704465
627 1 21.43079455 6.05705901 1.16568155
628 1 23.90357853 6.05705901 1.16568155
629 1 0.82426133 4.03803934 37.30180960
630 1 -0.00000000 4.03803934 34.97044650
631 1 2.47278399 4.03803934 34.97044650
632 1 1.64852266 4.03803934 32.63908340
633 1 4.12130664 4.03803934 32.63908340
634 1 3.29704531 4.03803934 30.30772030
635 1 5.76982930 4.03803934 30.30772030
636 1 4.94556797 4.03803934 27.97635720
637 1 7.41835196 4.03803934 27.97635720
638 1 6.59409063 4.03803934 25.64499410
639 1 9.06687462 4.03803934 25.64499410
640 1 8.24261329 4.03803934 23.31363100
641 1 10.71539727 4.03803934 23.31363100
642 1 9.89113594 4.03803934 20.98226790
643 1 12.36391993 4.03803934 20.98226790
644 1 11.53965860 4.03803934 18.65090480
645 1 14.01244259 4.03803934 18.65090480
646 1 13.18818126 4.03803934 16.31954170
647 1 15.66096525 4.03803934 16.31954170
648 1 14.83670392 4.03803934 13.98817860
649 1 17.30948790 4.03803934 13.98817860
650 1 16.48522657 4.03803934 11.65681550
651 1 18.95801056 4.03803934 11.65681550
652 1 18.13374923 4.03803934 9.32545240
653 1 20.60653322 4.03803934 9.32545240
654 1 19.78227189 4.03803934 6.99408930
655 1 22.25505587 4.03803934 6.99408930
656 1 21.43079455 4.03803934 4.66272620
657 1 23.90357853 4.03803934 4.66272620
658 1 23.07931720 4.03803934 2.33136310
659 1 25.55210119 4.03803934 2.33136310
660 1 24.72783986 4.03803934 0.00000000
661 1 27.20062385 4.03803934 -0.00000000
662 1 0.82426133 2.01901967 40.79885425
663 1 -0.00000000 2.01901967 38.46749115
664 1 2.47278399 2.01901967 38.46749115
665 1 1.64852266 2.01901967 36.13612805
666 1 4.12130664 2.01901967 36.13612805
667 1 3.29704531 2.01901967 33.80476495
668 1 5.76982930 2.01901967 33.80476495
669 1 4.94556797 2.01901967 31.47340185
670 1 7.41835196 2.01901967 31.47340185
671 1 6.59409063 2.01901967 29.14203875
672 1 9.06687462 2.01901967 29.14203875
673 1 8.24261329 2.01901967 26.81067565
674 1 10.71539727 2.01901967 26.81067565
675 1 9.89113594 2.01901967 24.47931255
676 1 12.36391993 2.01901967 24.47931255
677 1 11.53965860 2.01901967 22.14794945
678 1 14.01244259 2.01901967 22.14794945
679 1 13.18818126 2.01901967 19.81658635
680 1 15.66096525 2.01901967 19.81658635
681 1 14.83670392 2.01901967 17.48522325
682 1 17.30948790 2.01901967 17.48522325
683 1 16.48522657 2.01901967 15.15386015
684 1 18.95801056 2.01901967 15.15386015
685 1 18.13374923 2.01901967 12.82249705
686 1 20.60653322 2.01901967 12.82249705
687 1 19.78227189 2.01901967 10.49113395
688 1 22.25505587 2.01901967 10.49113395
689 1 21.43079455 2.01901967 8.15977085
690 1 23.90357853 2.01901967 8.15977085
691 1 23.07931720 2.01901967 5.82840775
692 1 25.55210119 2.01901967 5.82840775
693 1 24.72783986 2.01901967 3.49704465
694 1 27.20062385 2.01901967 3.49704465
695 1 26.37636252 2.01901967 1.16568155
696 1 28.84914650 2.01901967 1.16568155
697 1 0.82426133 0.00000000 44.29589890
698 1 -0.00000000 0.00000000 41.96453580
699 1 2.47278399 0.00000000 41.96453580
700 1 1.64852266 0.00000000 39.63317270
701 1 4.12130664 0.00000000 39.63317270
702 1 3.29704531 0.00000000 37.30180960
703 1 5.76982930 0.00000000 37.30180960
704 1 4.94556797 0.00000000 34.97044650
705 1 7.41835196 0.00000000 34.97044650
706 1 6.59409063 0.00000000 32.63908340
707 1 9.06687462 0.00000000 32.63908340
708 1 8.24261329 0.00000000 30.30772030
709 1 10.71539727 0.00000000 30.30772030
710 1 9.89113594 0.00000000 27.97635720
711 1 12.36391993 0.00000000 27.97635720
712 1 11.53965860 0.00000000 25.64499410
713 1 14.01244259 0.00000000 25.64499410
714 1 13.18818126 0.00000000 23.31363100
715 1 15.66096525 0.00000000 23.31363100
716 1 14.83670392 0.00000000 20.98226790
717 1 17.30948790 0.00000000 20.98226790
718 1 16.48522657 0.00000000 18.65090480
719 1 18.95801056 0.00000000 18.65090480
720 1 18.13374923 0.00000000 16.31954170
721 1 20.60653322 0.00000000 16.31954170
722 1 19.78227189 0.00000000 13.98817860
723 1 22.25505587 0.00000000 13.98817860
724 1 21.43079455 0.00000000 11.65681550
725 1 23.90357853 0.00000000 11.65681550
726 1 23.07931720 0.00000000 9.32545240
727 1 25.55210119 0.00000000 9.32545240
728 1 24.72783986 0.00000000 6.99408930
729 1 27.20062385 0.00000000 6.99408930
730 1 26.37636252 0.00000000 4.66272620
731 1 28.84914650 0.00000000 4.66272620
732 1 28.02488518 0.00000000 2.33136310
733 1 30.49766916 0.00000000 2.33136310
734 1 29.67340783 0.00000000 0.00000000
735 1 32.14619182 0.00000000 -0.00000000
736 1 0.82426133 28.26627538 2.33136310
737 1 -0.00000000 28.26627538 0.00000000
738 1 2.47278399 28.26627538 -0.00000000
739 1 0.82426133 26.24725571 5.82840775
740 1 0.00000000 26.24725571 3.49704465
741 1 2.47278399 26.24725571 3.49704465
742 1 1.64852266 26.24725571 1.16568155
743 1 4.12130664 26.24725571 1.16568155
744 1 0.82426133 24.22823604 9.32545240
745 1 -0.00000000 24.22823604 6.99408930
746 1 2.47278399 24.22823604 6.99408930
747 1 1.64852266 24.22823604 4.66272620
748 1 4.12130664 24.22823604 4.66272620
749 1 3.29704531 24.22823604 2.33136310
750 1 5.76982930 24.22823604 2.33136310
751 1 4.94556797 24.22823604 -0.00000000
752 1 7.41835196 24.22823604 -0.00000000
753 1 0.82426133 22.20921637 12.82249705
754 1 -0.00000000 22.20921637 10.49113395
755 1 2.47278399 22.20921637 10.49113395
756 1 1.64852266 22.20921637 8.15977085
757 1 4.12130664 22.20921637 8.15977085
758 1 3.29704531 22.20921637 5.82840775
759 1 5.76982930 22.20921637 5.82840775
760 1 4.94556797 22.20921637 3.49704465
761 1 7.41835196 22.20921637 3.49704465
762 1 6.59409063 22.20921637 1.16568155
763 1 9.06687462 22.20921637 1.16568155
764 1 0.82426133 20.19019670 16.31954170
765 1 0.00000000 20.19019670 13.98817860
766 1 2.47278399 20.19019670 13.98817860
767 1 1.64852266 20.19019670 11.65681550
768 1 4.12130664 20.19019670 11.65681550
769 1 3.29704531 20.19019670 9.32545240
770 1 5.76982930 20.19019670 9.32545240
771 1 4.94556797 20.19019670 6.99408930
772 1 7.41835196 20.19019670 6.99408930
773 1 6.59409063 20.19019670 4.66272620
774 1 9.06687462 20.19019670 4.66272620
775 1 8.24261329 20.19019670 2.33136310
776 1 10.71539727 20.19019670 2.33136310
777 1 9.89113594 20.19019670 0.00000000
778 1 12.36391993 20.19019670 -0.00000000
779 1 0.82426133 18.17117703 19.81658635
780 1 0.00000000 18.17117703 17.48522325
781 1 2.47278399 18.17117703 17.48522325
782 1 1.64852266 18.17117703 15.15386015
783 1 4.12130664 18.17117703 15.15386015
784 1 3.29704531 18.17117703 12.82249705
785 1 5.76982930 18.17117703 12.82249705
786 1 4.94556797 18.17117703 10.49113395
787 1 7.41835196 18.17117703 10.49113395
788 1 6.59409063 18.17117703 8.15977085
789 1 9.06687462 18.17117703 8.15977085
790 1 8.24261329 18.17117703 5.82840775
791 1 10.71539727 18.17117703 5.82840775
792 1 9.89113594 18.17117703 3.49704465
793 1 12.36391993 18.17117703 3.49704465
794 1 11.53965860 18.17117703 1.16568155
795 1 14.01244259 18.17117703 1.16568155
796 1 0.82426133 16.15215736 23.31363100
797 1 -0.00000000 16.15215736 20.98226790
798 1 2.47278399 16.15215736 20.98226790
799 1 1.64852266 16.15215736 18.65090480
800 1 4.12130664 16.15215736 18.65090480
801 1 3.29704531 16.15215736 16.31954170
802 1 5.76982930 16.15215736 16.31954170
803 1 4.94556797 16.15215736 13.98817860
804 1 7.41835196 16.15215736 13.98817860
805 1 6.59409063 16.15215736 11.65681550
806 1 9.06687462 16.15215736 11.65681550
807 1 8.24261329 16.15215736 9.32545240
808 1 10.71539727 16.15215736 9.32545240
809 1 9.89113594 16.15215736 6.99408930
810 1 12.36391993 16.15215736 6.99408930
811 1 11.53965860 16.15215736 4.66272620
812 1 14.01244259 16.15215736 4.66272620
813 1 13.18818126 16.15215736 2.33136310
814 1 15.66096525 16.15215736 2.33136310
815 1 14.83670392 16.15215736 0.00000000
816 1 17.30948790 16.15215736 -0.00000000
817 1 0.82426133 14.13313769 26.81067565
818 1 -0.00000000 14.13313769 24.47931255
819 1 2.47278399 14.13313769 24.47931255
820 1 1.64852266 14.13313769 22.14794945
821 1 4.12130664 14.13313769 22.14794945
822 1 3.29704531 14.13313769 19.81658635
823 1 5.76982930 14.13313769 19.81658635
824 1 4.94556797 14.13313769 17.48522325
825 1 7.41835196 14.13313769 17.48522325
826 1 6.59409063 14.13313769 15.15386015
827 1 9.06687462 14.13313769 15.15386015
828 1 8.24261329 14.13313769 12.82249705
829 1 10.71539727 14.13313769 12.82249705
830 1 9.89113594 14.13313769 10.49113395
831 1 12.36391993 14.13313769 10.49113395
832 1 11.53965860 14.13313769 8.15977085
833 1 14.01244259 14.13313769 8.15977085
834 1 13.18818126 14.13313769 5.82840775
835 1 15.66096525 14.13313769 5.82840775
836 1 14.83670392 14.13313769 3.49704465
837 1 17.30948790 14.13313769 3.49704465
838 1 16.48522657 14.13313769 1.16568155
839 1 18.95801056 14.13313769 1.16568155
840 1 0.82426133 12.11411802 30.30772030
841 1 0.00000000 12.11411802 27.97635720
842 1 2.47278399 12.11411802 27.97635720
843 1 1.64852266 12.11411802 25.64499410
844 1 4.12130664 12.11411802 25.64499410
845 1 3.29704531 12.11411802 23.31363100
846 1 5.76982930 12.11411802 23.31363100
847 1 4.94556797 12.11411802 20.98226790
848 1 7.41835196 12.11411802 20.98226790
849 1 6.59409063 12.11411802 18.65090480
850 1 9.06687462 12.11411802 18.65090480
851 1 8.24261329 12.11411802 16.31954170
852 1 10.71539727 12.11411802 16.31954170
853 1 9.89113594 12.11411802 13.98817860
854 1 12.36391993 12.11411802 13.98817860
855 1 11.53965860 12.11411802 11.65681550
856 1 14.01244259 12.11411802 11.65681550
857 1 13.18818126 12.11411802 9.32545240
858 1 15.66096525 12.11411802 9.32545240
859 1 14.83670392 12.11411802 6.99408930
860 1 17.30948790 12.11411802 6.99408930
861 1 16.48522657 12.11411802 4.66272620
862 1 18.95801056 12.11411802 4.66272620
863 1 18.13374923 12.11411802 2.33136310
864 1 20.60653322 12.11411802 2.33136310
865 1 19.78227189 12.11411802 -0.00000000
866 1 22.25505587 12.11411802 -0.00000000
867 1 0.82426133 10.09509835 33.80476495
868 1 -0.00000000 10.09509835 31.47340185
869 1 2.47278399 10.09509835 31.47340185
870 1 1.64852266 10.09509835 29.14203875
871 1 4.12130664 10.09509835 29.14203875
872 1 3.29704531 10.09509835 26.81067565
873 1 5.76982930 10.09509835 26.81067565
874 1 4.94556797 10.09509835 24.47931255
875 1 7.41835196 10.09509835 24.47931255
876 1 6.59409063 10.09509835 22.14794945
877 1 9.06687462 10.09509835 22.14794945
878 1 8.24261329 10.09509835 19.81658635
879 1 10.71539727 10.09509835 19.81658635
880 1 9.89113594 10.09509835 17.48522325
881 1 12.36391993 10.09509835 17.48522325
882 1 11.53965860 10.09509835 15.15386015
883 1 14.01244259 10.09509835 15.15386015
884 1 13.18818126 10.09509835 12.82249705
885 1 15.66096525 10.09509835 12.82249705
886 1 14.83670392 10.09509835 10.49113395
887 1 17.30948790 10.09509835 10.49113395
888 1 16.48522657 10.09509835 8.15977085
889 1 18.95801056 10.09509835 8.15977085
890 1 18.13374923 10.09509835 5.82840775
891 1 20.60653322 10.09509835 5.82840775
892 1 19.78227189 10.09509835 3.49704465
893 1 22.25505587 10.09509835 3.49704465
894 1 21.43079455 10.09509835 1.16568155
895 1 23.90357853 10.09509835 1.16568155
896 1 0.82426133 8.07607868 37.30180960
897 1 0.00000000 8.07607868 34.97044650
898 1 2.47278399 8.07607868 34.97044650
899 1 1.64852266 8.07607868 32.63908340
900 1 4.12130664 8.07607868 32.63908340
901 1 3.29704531 8.07607868 30.30772030
902 1 5.76982930 8.07607868 30.30772030
903 1 4.94556797 8.07607868 27.97635720
904 1 7.41835196 8.07607868 27.97635720
905 1 6.59409063 8.07607868 25.64499410
906 1 9.06687462 8.07607868 25.64499410
907 1 8.24261329 8.07607868 23.31363100
908 1 10.71539727 8.07607868 23.31363100
909 1 9.89113594 8.07607868 20.98226790
910 1 12.36391993 8.07607868 20.98226790
911 1 11.53965860 8.07607868 18.65090480
912 1 14.01244259 8.07607868 18.65090480
913 1 13.18818126 8.07607868 16.31954170
914 1 15.66096525 8.07607868 16.31954170
915 1 14.83670392 8.07607868 13.98817860
916 1 17.30948790 8.07607868 13.98817860
917 1 16.48522657 8.07607868 11.65681550
918 1 18.95801056 8.07607868 11.65681550
919 1 18.13374923 8.07607868 9.32545240
920 1 20.60653322 8.07607868 9.32545240
921 1 19.78227189 8.07607868 6.99408930
922 1 22.25505587 8.07607868 6.99408930
923 1 21.43079455 8.07607868 4.66272620
924 1 23.90357853 8.07607868 4.66272620
925 1 23.07931720 8.07607868 2.33136310
926 1 25.55210119 8.07607868 2.33136310
927 1 24.72783986 8.07607868 0.00000000
928 1 27.20062385 8.07607868 -0.00000000
929 1 0.82426133 6.05705901 40.79885425
930 1 -0.00000000 6.05705901 38.46749115
931 1 2.47278399 6.05705901 38.46749115
932 1 1.64852266 6.05705901 36.13612805
933 1 4.12130664 6.05705901 36.13612805
934 1 3.29704531 6.05705901 33.80476495
935 1 5.76982930 6.05705901 33.80476495
936 1 4.94556797 6.05705901 31.47340185
937 1 7.41835196 6.05705901 31.47340185
938 1 6.59409063 6.05705901 29.14203875
939 1 9.06687462 6.05705901 29.14203875
940 1 8.24261329 6.05705901 26.81067565
941 1 10.71539727 6.05705901 26.81067565
942 1 9.89113594 6.05705901 24.47931255
943 1 12.36391993 6.05705901 24.47931255
944 1 11.53965860 6.05705901 22.14794945
945 1 14.01244259 6.05705901 22.14794945
946 1 13.18818126 6.05705901 19.81658635
947 1 15.66096525 6.05705901 19.81658635
948 1 14.83670392 6.05705901 17.48522325
949 1 17.30948790 6.05705901 17.48522325
950 1 16.48522657 6.05705901 15.15386015
951 1 18.95801056 6.05705901 15.15386015
952 1 18.13374923 6.05705901 12.82249705
953 1 20.60653322 6.05705901 12.82249705
954 1 19.78227189 6.05705901 10.49113395
955 1 22.25505587 6.05705901 10.49113395
956 1 21.43079455 6.05705901 8.15977085
957 1 23.90357853 6.05705901 8.15977085
958 1 23.07931720 6.05705901 5.82840775
959 1 25.55210119 6.05705901 5.82840775
960 1 24.72783986 6.05705901 3.49704465
961 1 27.20062385 6.05705901 3.49704465
962 1 26.37636252 6.05705901 1.16568155
963 1 28.84914650 6.05705901 1.16568155
964 1 0.82426133 4.03803934 44.29589890
965 1 -0.00000000 4.03803934 41.96453580
966 1 2.47278399 4.03803934 41.96453580
967 1 1.64852266 4.03803934 39.63317270
968 1 4.12130664 4.03803934 39.63317270
969 1 3.29704531 4.03803934 37.30180960
970 1 5.76982930 4.03803934 37.30180960
971 1 4.94556797 4.03803934 34.97044650
972 1 7.41835196 4.03803934 34.97044650
973 1 6.59409063 4.03803934 32.63908340
974 1 9.06687462 4.03803934 32.63908340
975 1 8.24261329 4.03803934 30.30772030
976 1 10.71539727 4.03803934 30.30772030
977 1 9.89113594 4.03803934 27.97635720
978 1 12.36391993 4.03803934 27.97635720
979 1 11.53965860 4.03803934 25.64499410
980 1 14.01244259 4.03803934 25.64499410
981 1 13.18818126 4.03803934 23.31363100
982 1 15.66096525 4.03803934 23.31363100
983 1 14.83670392 4.03803934 20.98226790
984 1 17.30948790 4.03803934 20.98226790
985 1 16.48522657 4.03803934 18.65090480
986 1 18.95801056 4.03803934 18.65090480
987 1 18.13374923 4.03803934 16.31954170
988 1 20.60653322 4.03803934 16.31954170
989 1 19.78227189 4.03803934 13.98817860
990 1 22.25505587 4.03803934 13.98817860
991 1 21.43079455 4.03803934 11.65681550
992 1 23.90357853 4.03803934 11.65681550
993 1 23.07931720 4.03803934 9.32545240
994 1 25.55210119 4.03803934 9.32545240
995 1 24.72783986 4.03803934 6.99408930
996 1 27.20062385 4.03803934 6.99408930
997 1 26.37636252 4.03803934 4.66272620
998 1 28.84914650 4.03803934 4.66272620
999 1 28.02488518 4.03803934 2.33136310
1000 1 30.49766916 4.03803934 2.33136310
1001 1 29.67340783 4.03803934 0.00000000
1002 1 32.14619182 4.03803934 -0.00000000
1003 1 0.82426133 2.01901967 47.79294355
1004 1 0.00000000 2.01901967 45.46158045
1005 1 2.47278399 2.01901967 45.46158045
1006 1 1.64852266 2.01901967 43.13021735
1007 1 4.12130664 2.01901967 43.13021735
1008 1 3.29704531 2.01901967 40.79885425
1009 1 5.76982930 2.01901967 40.79885425
1010 1 4.94556797 2.01901967 38.46749115
1011 1 7.41835196 2.01901967 38.46749115
1012 1 6.59409063 2.01901967 36.13612805
1013 1 9.06687462 2.01901967 36.13612805
1014 1 8.24261329 2.01901967 33.80476495
1015 1 10.71539727 2.01901967 33.80476495
1016 1 9.89113594 2.01901967 31.47340185
1017 1 12.36391993 2.01901967 31.47340185
1018 1 11.53965860 2.01901967 29.14203875
1019 1 14.01244259 2.01901967 29.14203875
1020 1 13.18818126 2.01901967 26.81067565
1021 1 15.66096525 2.01901967 26.81067565
1022 1 14.83670392 2.01901967 24.47931255
1023 1 17.30948790 2.01901967 24.47931255
1024 1 16.48522657 2.01901967 22.14794945
1025 1 18.95801056 2.01901967 22.14794945
1026 1 18.13374923 2.01901967 19.81658635
1027 1 20.60653322 2.01901967 19.81658635
1028 1 19.78227189 2.01901967 17.48522325
1029 1 22.25505587 2.01901967 17.48522325
1030 1 21.43079455 2.01901967 15.15386015
1031 1 23.90357853 2.01901967 15.15386015
1032 1 23.07931720 2.01901967 12.82249705
1033 1 25.55210119 2.01901967 12.82249705
1034 1 24.72783986 2.01901967 10.49113395
1035 1 27.20062385 2.01901967 10.49113395
1036 1 26.37636252 2.01901967 8.15977085
1037 1 28.84914650 2.01901967 8.15977085
1038 1 28.02488518 2.01901967 5.82840775
1039 1 30.49766916 2.01901967 5.82840775
1040 1 29.67340783 2.01901967 3.49704465
1041 1 32.14619182 2.01901967 3.49704465
1042 1 31.32193049 2.01901967 1.16568155
1043 1 33.79471448 2.01901967 1.16568155
1044 1 1.64852266 -0.00000000 46.62726200
1045 1 4.12130664 -0.00000000 46.62726200
1046 1 3.29704531 -0.00000000 44.29589890
1047 1 5.76982930 -0.00000000 44.29589890
1048 1 4.94556797 -0.00000000 41.96453580
1049 1 7.41835196 -0.00000000 41.96453580
1050 1 6.59409063 -0.00000000 39.63317270
1051 1 9.06687462 -0.00000000 39.63317270
1052 1 8.24261329 -0.00000000 37.30180960
1053 1 10.71539727 -0.00000000 37.30180960
1054 1 9.89113594 -0.00000000 34.97044650
1055 1 12.36391993 -0.00000000 34.97044650
1056 1 11.53965860 -0.00000000 32.63908340
1057 1 14.01244259 -0.00000000 32.63908340
1058 1 13.18818126 -0.00000000 30.30772030
1059 1 15.66096525 -0.00000000 30.30772030
1060 1 14.83670392 -0.00000000 27.97635720
1061 1 17.30948790 -0.00000000 27.97635720
1062 1 16.48522657 -0.00000000 25.64499410
1063 1 18.95801056 -0.00000000 25.64499410
1064 1 18.13374923 -0.00000000 23.31363100
1065 1 20.60653322 -0.00000000 23.31363100
1066 1 19.78227189 -0.00000000 20.98226790
1067 1 22.25505587 -0.00000000 20.98226790
1068 1 21.43079455 -0.00000000 18.65090480
1069 1 23.90357853 -0.00000000 18.65090480
1070 1 23.07931720 -0.00000000 16.31954170
1071 1 25.55210119 -0.00000000 16.31954170
1072 1 24.72783986 -0.00000000 13.98817860
1073 1 27.20062385 -0.00000000 13.98817860
1074 1 26.37636252 -0.00000000 11.65681550
1075 1 28.84914650 -0.00000000 11.65681550
1076 1 28.02488518 -0.00000000 9.32545240
1077 1 30.49766916 -0.00000000 9.32545240
1078 1 29.67340783 -0.00000000 6.99408930
1079 1 32.14619182 -0.00000000 6.99408930
1080 1 31.32193049 -0.00000000 4.66272620
1081 1 33.79471448 -0.00000000 4.66272620
1082 1 32.97045315 -0.00000000 2.33136310
1083 1 35.44323713 -0.00000000 2.33136310
1084 1 34.61897580 -0.00000000 0.00000000
1085 1 37.09175979 -0.00000000 -0.00000000
1086 1 0.82426133 30.28529505 5.82840775
1087 1 0.00000000 30.28529505 3.49704465
1088 1 2.47278399 30.28529505 3.49704465
1089 1 1.64852266 30.28529505 1.16568155
1090 1 4.12130664 30.28529505 1.16568155
1091 1 0.82426133 28.26627538 9.32545240
1092 1 0.00000000 28.26627538 6.99408930
1093 1 2.47278399 28.26627538 6.99408930
1094 1 1.64852266 28.26627538 4.66272620
1095 1 4.12130664 28.26627538 4.66272620
1096 1 3.29704531 28.26627538 2.33136310
1097 1 5.76982930 28.26627538 2.33136310
1098 1 4.94556797 28.26627538 0.00000000
1099 1 7.41835196 28.26627538 0.00000000
1100 1 0.82426133 26.24725571 12.82249705
1101 1 -0.00000000 26.24725571 10.49113395
1102 1 2.47278399 26.24725571 10.49113395
1103 1 1.64852266 26.24725571 8.15977085
1104 1 4.12130664 26.24725571 8.15977085
1105 1 3.29704531 26.24725571 5.82840775
1106 1 5.76982930 26.24725571 5.82840775
1107 1 4.94556797 26.24725571 3.49704465
1108 1 7.41835196 26.24725571 3.49704465
1109 1 6.59409063 26.24725571 1.16568155
1110 1 9.06687462 26.24725571 1.16568155
1111 1 0.82426133 24.22823604 16.31954170
1112 1 0.00000000 24.22823604 13.98817860
1113 1 2.47278399 24.22823604 13.98817860
1114 1 1.64852266 24.22823604 11.65681550
1115 1 4.12130664 24.22823604 11.65681550
1116 1 3.29704531 24.22823604 9.32545240
1117 1 5.76982930 24.22823604 9.32545240
1118 1 4.94556797 24.22823604 6.99408930
1119 1 7.41835196 24.22823604 6.99408930
1120 1 6.59409063 24.22823604 4.66272620
1121 1 9.06687462 24.22823604 4.66272620
1122 1 8.24261329 24.22823604 2.33136310
1123 1 10.71539727 24.22823604 2.33136310
1124 1 9.89113594 24.22823604 -0.00000000
1125 1 12.36391993 24.22823604 0.00000000
1126 1 0.82426133 22.20921637 19.81658635
1127 1 0.00000000 22.20921637 17.48522325
1128 1 2.47278399 22.20921637 17.48522325
1129 1 1.64852266 22.20921637 15.15386015
1130 1 4.12130664 22.20921637 15.15386015
1131 1 3.29704531 22.20921637 12.82249705
1132 1 5.76982930 22.20921637 12.82249705
1133 1 4.94556797 22.20921637 10.49113395
1134 1 7.41835196 22.20921637 10.49113395
1135 1 6.59409063 22.20921637 8.15977085
1136 1 9.06687462 22.20921637 8.15977085
1137 1 8.24261329 22.20921637 5.82840775
1138 1 10.71539727 22.20921637 5.82840775
1139 1 9.89113594 22.20921637 3.49704465
1140 1 12.36391993 22.20921637 3.49704465
1141 1 11.53965860 22.20921637 1.16568155
1142 1 14.01244259 22.20921637 1.16568155
1143 1 0.82426133 20.19019670 23.31363100
1144 1 0.00000000 20.19019670 20.98226790
1145 1 2.47278399 20.19019670 20.98226790
1146 1 1.64852266 20.19019670 18.65090480
1147 1 4.12130664 20.19019670 18.65090480
1148 1 3.29704531 20.19019670 16.31954170
1149 1 5.76982930 20.19019670 16.31954170
1150 1 4.94556797 20.19019670 13.98817860
1151 1 7.41835196 20.19019670 13.98817860
1152 1 6.59409063 20.19019670 11.65681550
1153 1 9.06687462 20.19019670 11.65681550
1154 1 8.24261329 20.19019670 9.32545240
1155 1 10.71539727 20.19019670 9.32545240
1156 1 9.89113594 20.19019670 6.99408930
1157 1 12.36391993 20.19019670 6.99408930
1158 1 11.53965860 20.19019670 4.66272620
1159 1 14.01244259 20.19019670 4.66272620
1160 1 13.18818126 20.19019670 2.33136310
1161 1 15.66096525 20.19019670 2.33136310
1162 1 14.83670392 20.19019670 0.00000000
1163 1 17.30948790 20.19019670 0.00000000
1164 1 0.82426133 18.17117703 26.81067565
1165 1 -0.00000000 18.17117703 24.47931255
1166 1 2.47278399 18.17117703 24.47931255
1167 1 1.64852266 18.17117703 22.14794945
1168 1 4.12130664 18.17117703 22.14794945
1169 1 3.29704531 18.17117703 19.81658635
1170 1 5.76982930 18.17117703 19.81658635
1171 1 4.94556797 18.17117703 17.48522325
1172 1 7.41835196 18.17117703 17.48522325
1173 1 6.59409063 18.17117703 15.15386015
1174 1 9.06687462 18.17117703 15.15386015
1175 1 8.24261329 18.17117703 12.82249705
1176 1 10.71539727 18.17117703 12.82249705
1177 1 9.89113594 18.17117703 10.49113395
1178 1 12.36391993 18.17117703 10.49113395
1179 1 11.53965860 18.17117703 8.15977085
1180 1 14.01244259 18.17117703 8.15977085
1181 1 13.18818126 18.17117703 5.82840775
1182 1 15.66096525 18.17117703 5.82840775
1183 1 14.83670392 18.17117703 3.49704465
1184 1 17.30948790 18.17117703 3.49704465
1185 1 16.48522657 18.17117703 1.16568155
1186 1 18.95801056 18.17117703 1.16568155
1187 1 0.82426133 16.15215736 30.30772030
1188 1 0.00000000 16.15215736 27.97635720
1189 1 2.47278399 16.15215736 27.97635720
1190 1 1.64852266 16.15215736 25.64499410
1191 1 4.12130664 16.15215736 25.64499410
1192 1 3.29704531 16.15215736 23.31363100
1193 1 5.76982930 16.15215736 23.31363100
1194 1 4.94556797 16.15215736 20.98226790
1195 1 7.41835196 16.15215736 20.98226790
1196 1 6.59409063 16.15215736 18.65090480
1197 1 9.06687462 16.15215736 18.65090480
1198 1 8.24261329 16.15215736 16.31954170
1199 1 10.71539727 16.15215736 16.31954170
1200 1 9.89113594 16.15215736 13.98817860
1201 1 12.36391993 16.15215736 13.98817860
1202 1 11.53965860 16.15215736 11.65681550
1203 1 14.01244259 16.15215736 11.65681550
1204 1 13.18818126 16.15215736 9.32545240
1205 1 15.66096525 16.15215736 9.32545240
1206 1 14.83670392 16.15215736 6.99408930
1207 1 17.30948790 16.15215736 6.99408930
1208 1 16.48522657 16.15215736 4.66272620
1209 1 18.95801056 16.15215736 4.66272620
1210 1 18.13374923 16.15215736 2.33136310
1211 1 20.60653322 16.15215736 2.33136310
1212 1 19.78227189 16.15215736 -0.00000000
1213 1 22.25505587 16.15215736 0.00000000
1214 1 0.82426133 14.13313769 33.80476495
1215 1 0.00000000 14.13313769 31.47340185
1216 1 2.47278399 14.13313769 31.47340185
1217 1 1.64852266 14.13313769 29.14203875
1218 1 4.12130664 14.13313769 29.14203875
1219 1 3.29704531 14.13313769 26.81067565
1220 1 5.76982930 14.13313769 26.81067565
1221 1 4.94556797 14.13313769 24.47931255
1222 1 7.41835196 14.13313769 24.47931255
1223 1 6.59409063 14.13313769 22.14794945
1224 1 9.06687462 14.13313769 22.14794945
1225 1 8.24261329 14.13313769 19.81658635
1226 1 10.71539727 14.13313769 19.81658635
1227 1 9.89113594 14.13313769 17.48522325
1228 1 12.36391993 14.13313769 17.48522325
1229 1 11.53965860 14.13313769 15.15386015
1230 1 14.01244259 14.13313769 15.15386015
1231 1 13.18818126 14.13313769 12.82249705
1232 1 15.66096525 14.13313769 12.82249705
1233 1 14.83670392 14.13313769 10.49113395
1234 1 17.30948790 14.13313769 10.49113395
1235 1 16.48522657 14.13313769 8.15977085
1236 1 18.95801056 14.13313769 8.15977085
1237 1 18.13374923 14.13313769 5.82840775
1238 1 20.60653322 14.13313769 5.82840775
1239 1 19.78227189 14.13313769 3.49704465
1240 1 22.25505587 14.13313769 3.49704465
1241 1 21.43079455 14.13313769 1.16568155
1242 1 23.90357853 14.13313769 1.16568155
1243 1 0.82426133 12.11411802 37.30180960
1244 1 0.00000000 12.11411802 34.97044650
1245 1 2.47278399 12.11411802 34.97044650
1246 1 1.64852266 12.11411802 32.63908340
1247 1 4.12130664 12.11411802 32.63908340
1248 1 3.29704531 12.11411802 30.30772030
1249 1 5.76982930 12.11411802 30.30772030
1250 1 4.94556797 12.11411802 27.97635720
1251 1 7.41835196 12.11411802 27.97635720
1252 1 6.59409063 12.11411802 25.64499410
1253 1 9.06687462 12.11411802 25.64499410
1254 1 8.24261329 12.11411802 23.31363100
1255 1 10.71539727 12.11411802 23.31363100
1256 1 9.89113594 12.11411802 20.98226790
1257 1 12.36391993 12.11411802 20.98226790
1258 1 11.53965860 12.11411802 18.65090480
1259 1 14.01244259 12.11411802 18.65090480
1260 1 13.18818126 12.11411802 16.31954170
1261 1 15.66096525 12.11411802 16.31954170
1262 1 14.83670392 12.11411802 13.98817860
1263 1 17.30948790 12.11411802 13.98817860
1264 1 16.48522657 12.11411802 11.65681550
1265 1 18.95801056 12.11411802 11.65681550
1266 1 18.13374923 12.11411802 9.32545240
1267 1 20.60653322 12.11411802 9.32545240
1268 1 19.78227189 12.11411802 6.99408930
1269 1 22.25505587 12.11411802 6.99408930
1270 1 21.43079455 12.11411802 4.66272620
1271 1 23.90357853 12.11411802 4.66272620
1272 1 23.07931720 12.11411802 2.33136310
1273 1 25.55210119 12.11411802 2.33136310
1274 1 24.72783986 12.11411802 0.00000000
1275 1 27.20062385 12.11411802 -0.00000000
1276 1 0.82426133 10.09509835 40.79885425
1277 1 -0.00000000 10.09509835 38.46749115
1278 1 2.47278399 10.09509835 38.46749115
1279 1 1.64852266 10.09509835 36.13612805
1280 1 4.12130664 10.09509835 36.13612805
1281 1 3.29704531 10.09509835 33.80476495
1282 1 5.76982930 10.09509835 33.80476495
1283 1 4.94556797 10.09509835 31.47340185
1284 1 7.41835196 10.09509835 31.47340185
1285 1 6.59409063 10.09509835 29.14203875
1286 1 9.06687462 10.09509835 29.14203875
1287 1 8.24261329 10.09509835 26.81067565
1288 1 10.71539727 10.09509835 26.81067565
1289 1 9.89113594 10.09509835 24.47931255
1290 1 12.36391993 10.09509835 24.47931255
1291 1 11.53965860 10.09509835 22.14794945
1292 1 14.01244259 10.09509835 22.14794945
1293 1 13.18818126 10.09509835 19.81658635
1294 1 15.66096525 10.09509835 19.81658635
1295 1 14.83670392 10.09509835 17.48522325
1296 1 17.30948790 10.09509835 17.48522325
1297 1 16.48522657 10.09509835 15.15386015
1298 1 18.95801056 10.09509835 15.15386015
1299 1 18.13374923 10.09509835 12.82249705
1300 1 20.60653322 10.09509835 12.82249705
1301 1 19.78227189 10.09509835 10.49113395
1302 1 22.25505587 10.09509835 10.49113395
1303 1 21.43079455 10.09509835 8.15977085
1304 1 23.90357853 10.09509835 8.15977085
1305 1 23.07931720 10.09509835 5.82840775
1306 1 25.55210119 10.09509835 5.82840775
1307 1 24.72783986 10.09509835 3.49704465
1308 1 27.20062385 10.09509835 3.49704465
1309 1 26.37636252 10.09509835 1.16568155
1310 1 28.84914650 10.09509835 1.16568155
1311 1 0.82426133 8.07607868 44.29589890
1312 1 -0.00000000 8.07607868 41.96453580
1313 1 2.47278399 8.07607868 41.96453580
1314 1 1.64852266 8.07607868 39.63317270
1315 1 4.12130664 8.07607868 39.63317270
1316 1 3.29704531 8.07607868 37.30180960
1317 1 5.76982930 8.07607868 37.30180960
1318 1 4.94556797 8.07607868 34.97044650
1319 1 7.41835196 8.07607868 34.97044650
1320 1 6.59409063 8.07607868 32.63908340
1321 1 9.06687462 8.07607868 32.63908340
1322 1 8.24261329 8.07607868 30.30772030
1323 1 10.71539727 8.07607868 30.30772030
1324 1 9.89113594 8.07607868 27.97635720
1325 1 12.36391993 8.07607868 27.97635720
1326 1 11.53965860 8.07607868 25.64499410
1327 1 14.01244259 8.07607868 25.64499410
1328 1 13.18818126 8.07607868 23.31363100
1329 1 15.66096525 8.07607868 23.31363100
1330 1 14.83670392 8.07607868 20.98226790
1331 1 17.30948790 8.07607868 20.98226790
1332 1 16.48522657 8.07607868 18.65090480
1333 1 18.95801056 8.07607868 18.65090480
1334 1 18.13374923 8.07607868 16.31954170
1335 1 20.60653322 8.07607868 16.31954170
1336 1 19.78227189 8.07607868 13.98817860
1337 1 22.25505587 8.07607868 13.98817860
1338 1 21.43079455 8.07607868 11.65681550
1339 1 23.90357853 8.07607868 11.65681550
1340 1 23.07931720 8.07607868 9.32545240
1341 1 25.55210119 8.07607868 9.32545240
1342 1 24.72783986 8.07607868 6.99408930
1343 1 27.20062385 8.07607868 6.99408930
1344 1 26.37636252 8.07607868 4.66272620
1345 1 28.84914650 8.07607868 4.66272620
1346 1 28.02488518 8.07607868 2.33136310
1347 1 30.49766916 8.07607868 2.33136310
1348 1 29.67340783 8.07607868 0.00000000
1349 1 32.14619182 8.07607868 0.00000000
1350 1 0.82426133 6.05705901 47.79294355
1351 1 0.00000000 6.05705901 45.46158045
1352 1 2.47278399 6.05705901 45.46158045
1353 1 1.64852266 6.05705901 43.13021735
1354 1 4.12130664 6.05705901 43.13021735
1355 1 3.29704531 6.05705901 40.79885425
1356 1 5.76982930 6.05705901 40.79885425
1357 1 4.94556797 6.05705901 38.46749115
1358 1 7.41835196 6.05705901 38.46749115
1359 1 6.59409063 6.05705901 36.13612805
1360 1 9.06687462 6.05705901 36.13612805
1361 1 8.24261329 6.05705901 33.80476495
1362 1 10.71539727 6.05705901 33.80476495
1363 1 9.89113594 6.05705901 31.47340185
1364 1 12.36391993 6.05705901 31.47340185
1365 1 11.53965860 6.05705901 29.14203875
1366 1 14.01244259 6.05705901 29.14203875
1367 1 13.18818126 6.05705901 26.81067565
1368 1 15.66096525 6.05705901 26.81067565
1369 1 14.83670392 6.05705901 24.47931255
1370 1 17.30948790 6.05705901 24.47931255
1371 1 16.48522657 6.05705901 22.14794945
1372 1 18.95801056 6.05705901 22.14794945
1373 1 18.13374923 6.05705901 19.81658635
1374 1 20.60653322 6.05705901 19.81658635
1375 1 19.78227189 6.05705901 17.48522325
1376 1 22.25505587 6.05705901 17.48522325
1377 1 21.43079455 6.05705901 15.15386015
1378 1 23.90357853 6.05705901 15.15386015
1379 1 23.07931720 6.05705901 12.82249705
1380 1 25.55210119 6.05705901 12.82249705
1381 1 24.72783986 6.05705901 10.49113395
1382 1 27.20062385 6.05705901 10.49113395
1383 1 26.37636252 6.05705901 8.15977085
1384 1 28.84914650 6.05705901 8.15977085
1385 1 28.02488518 6.05705901 5.82840775
1386 1 30.49766916 6.05705901 5.82840775
1387 1 29.67340783 6.05705901 3.49704465
1388 1 32.14619182 6.05705901 3.49704465
1389 1 31.32193049 6.05705901 1.16568155
1390 1 33.79471448 6.05705901 1.16568155
1391 1 1.64852266 4.03803934 46.62726200
1392 1 4.12130664 4.03803934 46.62726200
1393 1 3.29704531 4.03803934 44.29589890
1394 1 5.76982930 4.03803934 44.29589890
1395 1 4.94556797 4.03803934 41.96453580
1396 1 7.41835196 4.03803934 41.96453580
1397 1 6.59409063 4.03803934 39.63317270
1398 1 9.06687462 4.03803934 39.63317270
1399 1 8.24261329 4.03803934 37.30180960
1400 1 10.71539727 4.03803934 37.30180960
1401 1 9.89113594 4.03803934 34.97044650
1402 1 12.36391993 4.03803934 34.97044650
1403 1 11.53965860 4.03803934 32.63908340
1404 1 14.01244259 4.03803934 32.63908340
1405 1 13.18818126 4.03803934 30.30772030
1406 1 15.66096525 4.03803934 30.30772030
1407 1 14.83670392 4.03803934 27.97635720
1408 1 17.30948790 4.03803934 27.97635720
1409 1 16.48522657 4.03803934 25.64499410
1410 1 18.95801056 4.03803934 25.64499410
1411 1 18.13374923 4.03803934 23.31363100
1412 1 20.60653322 4.03803934 23.31363100
1413 1 19.78227189 4.03803934 20.98226790
1414 1 22.25505587 4.03803934 20.98226790
1415 1 21.43079455 4.03803934 18.65090480
1416 1 23.90357853 4.03803934 18.65090480
1417 1 23.07931720 4.03803934 16.31954170
1418 1 25.55210119 4.03803934 16.31954170
1419 1 24.72783986 4.03803934 13.98817860
1420 1 27.20062385 4.03803934 13.98817860
1421 1 26.37636252 4.03803934 11.65681550
1422 1 28.84914650 4.03803934 11.65681550
1423 1 28.02488518 4.03803934 9.32545240
1424 1 30.49766916 4.03803934 9.32545240
1425 1 29.67340783 4.03803934 6.99408930
1426 1 32.14619182 4.03803934 6.99408930
1427 1 31.32193049 4.03803934 4.66272620
1428 1 33.79471448 4.03803934 4.66272620
1429 1 32.97045315 4.03803934 2.33136310
1430 1 35.44323713 4.03803934 2.33136310
1431 1 34.61897580 4.03803934 0.00000000
1432 1 37.09175979 4.03803934 0.00000000
1433 1 3.29704531 2.01901967 47.79294355
1434 1 5.76982930 2.01901967 47.79294355
1435 1 4.94556797 2.01901967 45.46158045
1436 1 7.41835196 2.01901967 45.46158045
1437 1 6.59409063 2.01901967 43.13021735
1438 1 9.06687462 2.01901967 43.13021735
1439 1 8.24261329 2.01901967 40.79885425
1440 1 10.71539727 2.01901967 40.79885425
1441 1 9.89113594 2.01901967 38.46749115
1442 1 12.36391993 2.01901967 38.46749115
1443 1 11.53965860 2.01901967 36.13612805
1444 1 14.01244259 2.01901967 36.13612805
1445 1 13.18818126 2.01901967 33.80476495
1446 1 15.66096525 2.01901967 33.80476495
1447 1 14.83670392 2.01901967 31.47340185
1448 1 17.30948790 2.01901967 31.47340185
1449 1 16.48522657 2.01901967 29.14203875
1450 1 18.95801056 2.01901967 29.14203875
1451 1 18.13374923 2.01901967 26.81067565
1452 1 20.60653322 2.01901967 26.81067565
1453 1 19.78227189 2.01901967 24.47931255
1454 1 22.25505587 2.01901967 24.47931255
1455 1 21.43079455 2.01901967 22.14794945
1456 1 23.90357853 2.01901967 22.14794945
1457 1 23.07931720 2.01901967 19.81658635
1458 1 25.55210119 2.01901967 19.81658635
1459 1 24.72783986 2.01901967 17.48522325
1460 1 27.20062385 2.01901967 17.48522325
1461 1 26.37636252 2.01901967 15.15386015
1462 1 28.84914650 2.01901967 15.15386015
1463 1 28.02488518 2.01901967 12.82249705
1464 1 30.49766916 2.01901967 12.82249705
1465 1 29.67340783 2.01901967 10.49113395
1466 1 32.14619182 2.01901967 10.49113395
1467 1 31.32193049 2.01901967 8.15977085
1468 1 33.79471448 2.01901967 8.15977085
1469 1 32.97045315 2.01901967 5.82840775
1470 1 35.44323713 2.01901967 5.82840775
1471 1 34.61897580 2.01901967 3.49704465
1472 1 37.09175979 2.01901967 3.49704465
1473 1 36.26749846 2.01901967 1.16568155
1474 1 38.74028245 2.01901967 1.16568155
1475 1 6.59409063 0.00000000 46.62726200
1476 1 9.06687462 0.00000000 46.62726200
1477 1 8.24261329 0.00000000 44.29589890
1478 1 10.71539727 0.00000000 44.29589890
1479 1 9.89113594 0.00000000 41.96453580
1480 1 12.36391993 0.00000000 41.96453580
1481 1 11.53965860 0.00000000 39.63317270
1482 1 14.01244259 0.00000000 39.63317270
1483 1 13.18818126 0.00000000 37.30180960
1484 1 15.66096525 0.00000000 37.30180960
1485 1 14.83670392 0.00000000 34.97044650
1486 1 17.30948790 0.00000000 34.97044650
1487 1 16.48522657 0.00000000 32.63908340
1488 1 18.95801056 0.00000000 32.63908340
1489 1 18.13374923 0.00000000 30.30772030
1490 1 20.60653322 0.00000000 30.30772030
1491 1 19.78227189 0.00000000 27.97635720
1492 1 22.25505587 0.00000000 27.97635720
1493 1 21.43079455 0.00000000 25.64499410
1494 1 23.90357853 0.00000000 25.64499410
1495 1 23.07931720 0.00000000 23.31363100
1496 1 25.55210119 0.00000000 23.31363100
1497 1 24.72783986 0.00000000 20.98226790
1498 1 27.20062385 0.00000000 20.98226790
1499 1 26.37636252 0.00000000 18.65090480
1500 1 28.84914650 0.00000000 18.65090480
1501 1 28.02488518 0.00000000 16.31954170
1502 1 30.49766916 0.00000000 16.31954170
1503 1 29.67340783 0.00000000 13.98817860
1504 1 32.14619182 0.00000000 13.98817860
1505 1 31.32193049 0.00000000 11.65681550
1506 1 33.79471448 0.00000000 11.65681550
1507 1 32.97045315 0.00000000 9.32545240
1508 1 35.44323713 0.00000000 9.32545240
1509 1 34.61897580 0.00000000 6.99408930
1510 1 37.09175979 0.00000000 6.99408930
1511 1 36.26749846 0.00000000 4.66272620
1512 1 38.74028245 0.00000000 4.66272620
1513 1 37.91602112 0.00000000 2.33136310
1514 1 40.38880511 0.00000000 2.33136310
1515 1 39.56454378 0.00000000 -0.00000000
1516 1 42.03732776 0.00000000 0.00000000
1517 1 0.82426133 30.28529505 12.82249705
1518 1 0.00000000 30.28529505 10.49113395
1519 1 2.47278399 30.28529505 10.49113395
1520 1 1.64852266 30.28529505 8.15977085
1521 1 4.12130664 30.28529505 8.15977085
1522 1 3.29704531 30.28529505 5.82840775
1523 1 5.76982930 30.28529505 5.82840775
1524 1 4.94556797 30.28529505 3.49704465
1525 1 7.41835196 30.28529505 3.49704465
1526 1 6.59409063 30.28529505 1.16568155
1527 1 9.06687462 30.28529505 1.16568155
1528 1 0.82426133 28.26627538 16.31954170
1529 1 0.00000000 28.26627538 13.98817860
1530 1 2.47278399 28.26627538 13.98817860
1531 1 1.64852266 28.26627538 11.65681550
1532 1 4.12130664 28.26627538 11.65681550
1533 1 3.29704531 28.26627538 9.32545240
1534 1 5.76982930 28.26627538 9.32545240
1535 1 4.94556797 28.26627538 6.99408930
1536 1 7.41835196 28.26627538 6.99408930
1537 1 6.59409063 28.26627538 4.66272620
1538 1 9.06687462 28.26627538 4.66272620
1539 1 8.24261329 28.26627538 2.33136310
1540 1 10.71539727 28.26627538 2.33136310
1541 1 9.89113594 28.26627538 -0.00000000
1542 1 12.36391993 28.26627538 0.00000000
1543 1 0.82426133 26.24725571 19.81658635
1544 1 0.00000000 26.24725571 17.48522325
1545 1 2.47278399 26.24725571 17.48522325
1546 1 1.64852266 26.24725571 15.15386015
1547 1 4.12130664 26.24725571 15.15386015
1548 1 3.29704531 26.24725571 12.82249705
1549 1 5.76982930 26.24725571 12.82249705
1550 1 4.94556797 26.24725571 10.49113395
1551 1 7.41835196 26.24725571 10.49113395
1552 1 6.59409063 26.24725571 8.15977085
1553 1 9.06687462 26.24725571 8.15977085
1554 1 8.24261329 26.24725571 5.82840775
1555 1 10.71539727 26.24725571 5.82840775
1556 1 9.89113594 26.24725571 3.49704465
1557 1 12.36391993 26.24725571 3.49704465
1558 1 11.53965860 26.24725571 1.16568155
1559 1 14.01244259 26.24725571 1.16568155
1560 1 0.82426133 24.22823604 23.31363100
1561 1 0.00000000 24.22823604 20.98226790
1562 1 2.47278399 24.22823604 20.98226790
1563 1 1.64852266 24.22823604 18.65090480
1564 1 4.12130664 24.22823604 18.65090480
1565 1 3.29704531 24.22823604 16.31954170
1566 1 5.76982930 24.22823604 16.31954170
1567 1 4.94556797 24.22823604 13.98817860
1568 1 7.41835196 24.22823604 13.98817860
1569 1 6.59409063 24.22823604 11.65681550
1570 1 9.06687462 24.22823604 11.65681550
1571 1 8.24261329 24.22823604 9.32545240
1572 1 10.71539727 24.22823604 9.32545240
1573 1 9.89113594 24.22823604 6.99408930
1574 1 12.36391993 24.22823604 6.99408930
1575 1 11.53965860 24.22823604 4.66272620
1576 1 14.01244259 24.22823604 4.66272620
1577 1 13.18818126 24.22823604 2.33136310
1578 1 15.66096525 24.22823604 2.33136310
1579 1 14.83670392 24.22823604 0.00000000
1580 1 17.30948790 24.22823604 0.00000000
1581 1 0.82426133 22.20921637 26.81067565
1582 1 0.00000000 22.20921637 24.47931255
1583 1 2.47278399 22.20921637 24.47931255
1584 1 1.64852266 22.20921637 22.14794945
1585 1 4.12130664 22.20921637 22.14794945
1586 1 3.29704531 22.20921637 19.81658635
1587 2 5.76982930 22.20921637 19.81658635
1588 1 4.94556797 22.20921637 17.48522325
1589 1 7.41835196 22.20921637 17.48522325
1590 1 6.59409063 22.20921637 15.15386015
1591 1 9.06687462 22.20921637 15.15386015
1592 1 8.24261329 22.20921637 12.82249705
1593 1 10.71539727 22.20921637 12.82249705
1594 1 9.89113594 22.20921637 10.49113395
1595 1 12.36391993 22.20921637 10.49113395
1596 1 11.53965860 22.20921637 8.15977085
1597 1 14.01244259 22.20921637 8.15977085
1598 1 13.18818126 22.20921637 5.82840775
1599 1 15.66096525 22.20921637 5.82840775
1600 1 14.83670392 22.20921637 3.49704465
1601 1 17.30948790 22.20921637 3.49704465
1602 1 16.48522657 22.20921637 1.16568155
1603 1 18.95801056 22.20921637 1.16568155
1604 1 0.82426133 20.19019670 30.30772030
1605 1 0.00000000 20.19019670 27.97635720
1606 1 2.47278399 20.19019670 27.97635720
1607 1 1.64852266 20.19019670 25.64499410
1608 1 4.12130664 20.19019670 25.64499410
1609 1 3.29704531 20.19019670 23.31363100
1610 1 5.76982930 20.19019670 23.31363100
1611 1 4.94556797 20.19019670 20.98226790
1612 1 7.41835196 20.19019670 20.98226790
1613 1 6.59409063 20.19019670 18.65090480
1614 1 9.06687462 20.19019670 18.65090480
1615 1 8.24261329 20.19019670 16.31954170
1616 1 10.71539727 20.19019670 16.31954170
1617 1 9.89113594 20.19019670 13.98817860
1618 1 12.36391993 20.19019670 13.98817860
1619 1 11.53965860 20.19019670 11.65681550
1620 1 14.01244259 20.19019670 11.65681550
1621 1 13.18818126 20.19019670 9.32545240
1622 1 15.66096525 20.19019670 9.32545240
1623 1 14.83670392 20.19019670 6.99408930
1624 1 17.30948790 20.19019670 6.99408930
1625 1 16.48522657 20.19019670 4.66272620
1626 1 18.95801056 20.19019670 4.66272620
1627 1 18.13374923 20.19019670 2.33136310
1628 1 20.60653322 20.19019670 2.33136310
1629 1 19.78227189 20.19019670 -0.00000000
1630 1 22.25505587 20.19019670 -0.00000000
1631 1 0.82426133 18.17117703 33.80476495
1632 1 0.00000000 18.17117703 31.47340185
1633 1 2.47278399 18.17117703 31.47340185
1634 1 1.64852266 18.17117703 29.14203875
1635 1 4.12130664 18.17117703 29.14203875
1636 1 3.29704531 18.17117703 26.81067565
1637 1 5.76982930 18.17117703 26.81067565
1638 1 4.94556797 18.17117703 24.47931255
1639 1 7.41835196 18.17117703 24.47931255
1640 1 6.59409063 18.17117703 22.14794945
1641 1 9.06687462 18.17117703 22.14794945
1642 1 8.24261329 18.17117703 19.81658635
1643 1 10.71539727 18.17117703 19.81658635
1644 1 9.89113594 18.17117703 17.48522325
1645 1 12.36391993 18.17117703 17.48522325
1646 1 11.53965860 18.17117703 15.15386015
1647 1 14.01244259 18.17117703 15.15386015
1648 1 13.18818126 18.17117703 12.82249705
1649 1 15.66096525 18.17117703 12.82249705
1650 1 14.83670392 18.17117703 10.49113395
1651 1 17.30948790 18.17117703 10.49113395
1652 1 16.48522657 18.17117703 8.15977085
1653 1 18.95801056 18.17117703 8.15977085
1654 1 18.13374923 18.17117703 5.82840775
1655 1 20.60653322 18.17117703 5.82840775
1656 1 19.78227189 18.17117703 3.49704465
1657 1 22.25505587 18.17117703 3.49704465
1658 1 21.43079455 18.17117703 1.16568155
1659 1 23.90357853 18.17117703 1.16568155
1660 1 0.82426133 16.15215736 37.30180960
1661 1 0.00000000 16.15215736 34.97044650
1662 1 2.47278399 16.15215736 34.97044650
1663 1 1.64852266 16.15215736 32.63908340
1664 1 4.12130664 16.15215736 32.63908340
1665 1 3.29704531 16.15215736 30.30772030
1666 1 5.76982930 16.15215736 30.30772030
1667 1 4.94556797 16.15215736 27.97635720
1668 1 7.41835196 16.15215736 27.97635720
1669 1 6.59409063 16.15215736 25.64499410
1670 1 9.06687462 16.15215736 25.64499410
1671 1 8.24261329 16.15215736 23.31363100
1672 1 10.71539727 16.15215736 23.31363100
1673 1 9.89113594 16.15215736 20.98226790
1674 1 12.36391993 16.15215736 20.98226790
1675 1 11.53965860 16.15215736 18.65090480
1676 1 14.01244259 16.15215736 18.65090480
1677 1 13.18818126 16.15215736 16.31954170
1678 1 15.66096525 16.15215736 16.31954170
1679 1 14.83670392 16.15215736 13.98817860
1680 1 17.30948790 16.15215736 13.98817860
1681 1 16.48522657 16.15215736 11.65681550
1682 1 18.95801056 16.15215736 11.65681550
1683 1 18.13374923 16.15215736 9.32545240
1684 1 20.60653322 16.15215736 9.32545240
1685 1 19.78227189 16.15215736 6.99408930
1686 1 22.25505587 16.15215736 6.99408930
1687 1 21.43079455 16.15215736 4.66272620
1688 1 23.90357853 16.15215736 4.66272620
1689 1 23.07931720 16.15215736 2.33136310
1690 1 25.55210119 16.15215736 2.33136310
1691 1 24.72783986 16.15215736 -0.00000000
1692 1 27.20062385 16.15215736 -0.00000000
1693 1 0.82426133 14.13313769 40.79885425
1694 1 -0.00000000 14.13313769 38.46749115
1695 1 2.47278399 14.13313769 38.46749115
1696 1 1.64852266 14.13313769 36.13612805
1697 1 4.12130664 14.13313769 36.13612805
1698 1 3.29704531 14.13313769 33.80476495
1699 1 5.76982930 14.13313769 33.80476495
1700 1 4.94556797 14.13313769 31.47340185
1701 1 7.41835196 14.13313769 31.47340185
1702 1 6.59409063 14.13313769 29.14203875
1703 1 9.06687462 14.13313769 29.14203875
1704 1 8.24261329 14.13313769 26.81067565
1705 1 10.71539727 14.13313769 26.81067565
1706 1 9.89113594 14.13313769 24.47931255
1707 1 12.36391993 14.13313769 24.47931255
1708 1 11.53965860 14.13313769 22.14794945
1709 1 14.01244259 14.13313769 22.14794945
1710 1 13.18818126 14.13313769 19.81658635
1711 1 15.66096525 14.13313769 19.81658635
1712 1 14.83670392 14.13313769 17.48522325
1713 1 17.30948790 14.13313769 17.48522325
1714 1 16.48522657 14.13313769 15.15386015
1715 1 18.95801056 14.13313769 15.15386015
1716 1 18.13374923 14.13313769 12.82249705
1717 1 20.60653322 14.13313769 12.82249705
1718 1 19.78227189 14.13313769 10.49113395
1719 1 22.25505587 14.13313769 10.49113395
1720 1 21.43079455 14.13313769 8.15977085
1721 1 23.90357853 14.13313769 8.15977085
1722 1 23.07931720 14.13313769 5.82840775
1723 1 25.55210119 14.13313769 5.82840775
1724 1 24.72783986 14.13313769 3.49704465
1725 1 27.20062385 14.13313769 3.49704465
1726 1 26.37636252 14.13313769 1.16568155
1727 1 28.84914650 14.13313769 1.16568155
1728 1 0.82426133 12.11411802 44.29589890
1729 1 0.00000000 12.11411802 41.96453580
1730 1 2.47278399 12.11411802 41.96453580
1731 1 1.64852266 12.11411802 39.63317270
1732 1 4.12130664 12.11411802 39.63317270
1733 1 3.29704531 12.11411802 37.30180960
1734 1 5.76982930 12.11411802 37.30180960
1735 1 4.94556797 12.11411802 34.97044650
1736 1 7.41835196 12.11411802 34.97044650
1737 1 6.59409063 12.11411802 32.63908340
1738 1 9.06687462 12.11411802 32.63908340
1739 1 8.24261329 12.11411802 30.30772030
1740 1 10.71539727 12.11411802 30.30772030
1741 1 9.89113594 12.11411802 27.97635720
1742 1 12.36391993 12.11411802 27.97635720
1743 1 11.53965860 12.11411802 25.64499410
1744 1 14.01244259 12.11411802 25.64499410
1745 1 13.18818126 12.11411802 23.31363100
1746 1 15.66096525 12.11411802 23.31363100
1747 1 14.83670392 12.11411802 20.98226790
1748 1 17.30948790 12.11411802 20.98226790
1749 1 16.48522657 12.11411802 18.65090480
1750 1 18.95801056 12.11411802 18.65090480
1751 1 18.13374923 12.11411802 16.31954170
1752 1 20.60653322 12.11411802 16.31954170
1753 1 19.78227189 12.11411802 13.98817860
1754 1 22.25505587 12.11411802 13.98817860
1755 1 21.43079455 12.11411802 11.65681550
1756 1 23.90357853 12.11411802 11.65681550
1757 1 23.07931720 12.11411802 9.32545240
1758 1 25.55210119 12.11411802 9.32545240
1759 1 24.72783986 12.11411802 6.99408930
1760 1 27.20062385 12.11411802 6.99408930
1761 1 26.37636252 12.11411802 4.66272620
1762 1 28.84914650 12.11411802 4.66272620
1763 1 28.02488518 12.11411802 2.33136310
1764 1 30.49766916 12.11411802 2.33136310
1765 1 29.67340783 12.11411802 0.00000000
1766 1 32.14619182 12.11411802 -0.00000000
1767 1 0.82426133 10.09509835 47.79294355
1768 1 0.00000000 10.09509835 45.46158045
1769 1 2.47278399 10.09509835 45.46158045
1770 1 1.64852266 10.09509835 43.13021735
1771 1 4.12130664 10.09509835 43.13021735
1772 1 3.29704531 10.09509835 40.79885425
1773 1 5.76982930 10.09509835 40.79885425
1774 1 4.94556797 10.09509835 38.46749115
1775 1 7.41835196 10.09509835 38.46749115
1776 1 6.59409063 10.09509835 36.13612805
1777 1 9.06687462 10.09509835 36.13612805
1778 1 8.24261329 10.09509835 33.80476495
1779 1 10.71539727 10.09509835 33.80476495
1780 1 9.89113594 10.09509835 31.47340185
1781 1 12.36391993 10.09509835 31.47340185
1782 1 11.53965860 10.09509835 29.14203875
1783 1 14.01244259 10.09509835 29.14203875
1784 1 13.18818126 10.09509835 26.81067565
1785 1 15.66096525 10.09509835 26.81067565
1786 1 14.83670392 10.09509835 24.47931255
1787 1 17.30948790 10.09509835 24.47931255
1788 1 16.48522657 10.09509835 22.14794945
1789 1 18.95801056 10.09509835 22.14794945
1790 1 18.13374923 10.09509835 19.81658635
1791 1 20.60653322 10.09509835 19.81658635
1792 1 19.78227189 10.09509835 17.48522325
1793 1 22.25505587 10.09509835 17.48522325
1794 1 21.43079455 10.09509835 15.15386015
1795 1 23.90357853 10.09509835 15.15386015
1796 1 23.07931720 10.09509835 12.82249705
1797 1 25.55210119 10.09509835 12.82249705
1798 1 24.72783986 10.09509835 10.49113395
1799 1 27.20062385 10.09509835 10.49113395
1800 1 26.37636252 10.09509835 8.15977085
1801 1 28.84914650 10.09509835 8.15977085
1802 1 28.02488518 10.09509835 5.82840775
1803 1 30.49766916 10.09509835 5.82840775
1804 1 29.67340783 10.09509835 3.49704465
1805 1 32.14619182 10.09509835 3.49704465
1806 1 31.32193049 10.09509835 1.16568155
1807 1 33.79471448 10.09509835 1.16568155
1808 1 1.64852266 8.07607868 46.62726200
1809 1 4.12130664 8.07607868 46.62726200
1810 1 3.29704531 8.07607868 44.29589890
1811 1 5.76982930 8.07607868 44.29589890
1812 1 4.94556797 8.07607868 41.96453580
1813 1 7.41835196 8.07607868 41.96453580
1814 1 6.59409063 8.07607868 39.63317270
1815 1 9.06687462 8.07607868 39.63317270
1816 1 8.24261329 8.07607868 37.30180960
1817 1 10.71539727 8.07607868 37.30180960
1818 1 9.89113594 8.07607868 34.97044650
1819 1 12.36391993 8.07607868 34.97044650
1820 1 11.53965860 8.07607868 32.63908340
1821 1 14.01244259 8.07607868 32.63908340
1822 1 13.18818126 8.07607868 30.30772030
1823 1 15.66096525 8.07607868 30.30772030
1824 1 14.83670392 8.07607868 27.97635720
1825 1 17.30948790 8.07607868 27.97635720
1826 1 16.48522657 8.07607868 25.64499410
1827 1 18.95801056 8.07607868 25.64499410
1828 1 18.13374923 8.07607868 23.31363100
1829 1 20.60653322 8.07607868 23.31363100
1830 1 19.78227189 8.07607868 20.98226790
1831 1 22.25505587 8.07607868 20.98226790
1832 1 21.43079455 8.07607868 18.65090480
1833 1 23.90357853 8.07607868 18.65090480
1834 1 23.07931720 8.07607868 16.31954170
1835 1 25.55210119 8.07607868 16.31954170
1836 1 24.72783986 8.07607868 13.98817860
1837 1 27.20062385 8.07607868 13.98817860
1838 1 26.37636252 8.07607868 11.65681550
1839 1 28.84914650 8.07607868 11.65681550
1840 1 28.02488518 8.07607868 9.32545240
1841 1 30.49766916 8.07607868 9.32545240
1842 1 29.67340783 8.07607868 6.99408930
1843 1 32.14619182 8.07607868 6.99408930
1844 1 31.32193049 8.07607868 4.66272620
1845 1 33.79471448 8.07607868 4.66272620
1846 1 32.97045315 8.07607868 2.33136310
1847 1 35.44323713 8.07607868 2.33136310
1848 1 34.61897580 8.07607868 0.00000000
1849 1 37.09175979 8.07607868 0.00000000
1850 1 3.29704531 6.05705901 47.79294355
1851 1 5.76982930 6.05705901 47.79294355
1852 1 4.94556797 6.05705901 45.46158045
1853 1 7.41835196 6.05705901 45.46158045
1854 1 6.59409063 6.05705901 43.13021735
1855 1 9.06687462 6.05705901 43.13021735
1856 1 8.24261329 6.05705901 40.79885425
1857 1 10.71539727 6.05705901 40.79885425
1858 1 9.89113594 6.05705901 38.46749115
1859 1 12.36391993 6.05705901 38.46749115
1860 1 11.53965860 6.05705901 36.13612805
1861 1 14.01244259 6.05705901 36.13612805
1862 1 13.18818126 6.05705901 33.80476495
1863 1 15.66096525 6.05705901 33.80476495
1864 1 14.83670392 6.05705901 31.47340185
1865 1 17.30948790 6.05705901 31.47340185
1866 1 16.48522657 6.05705901 29.14203875
1867 1 18.95801056 6.05705901 29.14203875
1868 1 18.13374923 6.05705901 26.81067565
1869 1 20.60653322 6.05705901 26.81067565
1870 1 19.78227189 6.05705901 24.47931255
1871 1 22.25505587 6.05705901 24.47931255
1872 1 21.43079455 6.05705901 22.14794945
1873 1 23.90357853 6.05705901 22.14794945
1874 1 23.07931720 6.05705901 19.81658635
1875 1 25.55210119 6.05705901 19.81658635
1876 1 24.72783986 6.05705901 17.48522325
1877 1 27.20062385 6.05705901 17.48522325
1878 1 26.37636252 6.05705901 15.15386015
1879 1 28.84914650 6.05705901 15.15386015
1880 1 28.02488518 6.05705901 12.82249705
1881 1 30.49766916 6.05705901 12.82249705
1882 1 29.67340783 6.05705901 10.49113395
1883 1 32.14619182 6.05705901 10.49113395
1884 1 31.32193049 6.05705901 8.15977085
1885 1 33.79471448 6.05705901 8.15977085
1886 1 32.97045315 6.05705901 5.82840775
1887 1 35.44323713 6.05705901 5.82840775
1888 1 34.61897580 6.05705901 3.49704465
1889 1 37.09175979 6.05705901 3.49704465
1890 1 36.26749846 6.05705901 1.16568155
1891 1 38.74028245 6.05705901 1.16568155
1892 1 6.59409063 4.03803934 46.62726200
1893 1 9.06687462 4.03803934 46.62726200
1894 1 8.24261329 4.03803934 44.29589890
1895 1 10.71539727 4.03803934 44.29589890
1896 1 9.89113594 4.03803934 41.96453580
1897 1 12.36391993 4.03803934 41.96453580
1898 1 11.53965860 4.03803934 39.63317270
1899 1 14.01244259 4.03803934 39.63317270
1900 1 13.18818126 4.03803934 37.30180960
1901 1 15.66096525 4.03803934 37.30180960
1902 1 14.83670392 4.03803934 34.97044650
1903 1 17.30948790 4.03803934 34.97044650
1904 1 16.48522657 4.03803934 32.63908340
1905 1 18.95801056 4.03803934 32.63908340
1906 1 18.13374923 4.03803934 30.30772030
1907 1 20.60653322 4.03803934 30.30772030
1908 1 19.78227189 4.03803934 27.97635720
1909 1 22.25505587 4.03803934 27.97635720
1910 1 21.43079455 4.03803934 25.64499410
1911 1 23.90357853 4.03803934 25.64499410
1912 1 23.07931720 4.03803934 23.31363100
1913 1 25.55210119 4.03803934 23.31363100
1914 1 24.72783986 4.03803934 20.98226790
1915 1 27.20062385 4.03803934 20.98226790
1916 1 26.37636252 4.03803934 18.65090480
1917 1 28.84914650 4.03803934 18.65090480
1918 1 28.02488518 4.03803934 16.31954170
1919 1 30.49766916 4.03803934 16.31954170
1920 1 29.67340783 4.03803934 13.98817860
1921 1 32.14619182 4.03803934 13.98817860
1922 1 31.32193049 4.03803934 11.65681550
1923 1 33.79471448 4.03803934 11.65681550
1924 1 32.97045315 4.03803934 9.32545240
1925 1 35.44323713 4.03803934 9.32545240
1926 1 34.61897580 4.03803934 6.99408930
1927 1 37.09175979 4.03803934 6.99408930
1928 1 36.26749846 4.03803934 4.66272620
1929 1 38.74028245 4.03803934 4.66272620
1930 1 37.91602112 4.03803934 2.33136310
1931 1 40.38880511 4.03803934 2.33136310
1932 1 39.56454378 4.03803934 -0.00000000
1933 1 42.03732776 4.03803934 0.00000000
1934 1 8.24261329 2.01901967 47.79294355
1935 1 10.71539727 2.01901967 47.79294355
1936 1 9.89113594 2.01901967 45.46158045
1937 1 12.36391993 2.01901967 45.46158045
1938 1 11.53965860 2.01901967 43.13021735
1939 1 14.01244259 2.01901967 43.13021735
1940 1 13.18818126 2.01901967 40.79885425
1941 1 15.66096525 2.01901967 40.79885425
1942 1 14.83670392 2.01901967 38.46749115
1943 1 17.30948790 2.01901967 38.46749115
1944 1 16.48522657 2.01901967 36.13612805
1945 1 18.95801056 2.01901967 36.13612805
1946 1 18.13374923 2.01901967 33.80476495
1947 1 20.60653322 2.01901967 33.80476495
1948 1 19.78227189 2.01901967 31.47340185
1949 1 22.25505587 2.01901967 31.47340185
1950 1 21.43079455 2.01901967 29.14203875
1951 1 23.90357853 2.01901967 29.14203875
1952 1 23.07931720 2.01901967 26.81067565
1953 1 25.55210119 2.01901967 26.81067565
1954 1 24.72783986 2.01901967 24.47931255
1955 1 27.20062385 2.01901967 24.47931255
1956 1 26.37636252 2.01901967 22.14794945
1957 1 28.84914650 2.01901967 22.14794945
1958 1 28.02488518 2.01901967 19.81658635
1959 1 30.49766916 2.01901967 19.81658635
1960 1 29.67340783 2.01901967 17.48522325
1961 1 32.14619182 2.01901967 17.48522325
1962 1 31.32193049 2.01901967 15.15386015
1963 1 33.79471448 2.01901967 15.15386015
1964 1 32.97045315 2.01901967 12.82249705
1965 1 35.44323713 2.01901967 12.82249705
1966 1 34.61897580 2.01901967 10.49113395
1967 1 37.09175979 2.01901967 10.49113395
1968 1 36.26749846 2.01901967 8.15977085
1969 1 38.74028245 2.01901967 8.15977085
1970 1 37.91602112 2.01901967 5.82840775
1971 1 40.38880511 2.01901967 5.82840775
1972 1 39.56454378 2.01901967 3.49704465
1973 1 42.03732776 2.01901967 3.49704465
1974 1 41.21306643 2.01901967 1.16568155
1975 1 43.68585042 2.01901967 1.16568155
1976 1 11.53965860 0.00000000 46.62726200
1977 1 14.01244259 0.00000000 46.62726200
1978 1 13.18818126 0.00000000 44.29589890
1979 1 15.66096525 0.00000000 44.29589890
1980 1 14.83670392 0.00000000 41.96453580
1981 1 17.30948790 0.00000000 41.96453580
1982 1 16.48522657 0.00000000 39.63317270
1983 1 18.95801056 0.00000000 39.63317270
1984 1 18.13374923 0.00000000 37.30180960
1985 1 20.60653322 0.00000000 37.30180960
1986 1 19.78227189 0.00000000 34.97044650
1987 1 22.25505587 0.00000000 34.97044650
1988 1 21.43079455 0.00000000 32.63908340
1989 1 23.90357853 0.00000000 32.63908340
1990 1 23.07931720 0.00000000 30.30772030
1991 1 25.55210119 0.00000000 30.30772030
1992 1 24.72783986 0.00000000 27.97635720
1993 1 27.20062385 0.00000000 27.97635720
1994 1 26.37636252 0.00000000 25.64499410
1995 1 28.84914650 0.00000000 25.64499410
1996 1 28.02488518 0.00000000 23.31363100
1997 1 30.49766916 0.00000000 23.31363100
1998 1 29.67340783 0.00000000 20.98226790
1999 1 32.14619182 0.00000000 20.98226790
2000 1 31.32193049 0.00000000 18.65090480
2001 1 33.79471448 0.00000000 18.65090480
2002 1 32.97045315 0.00000000 16.31954170
2003 1 35.44323713 0.00000000 16.31954170
2004 1 34.61897580 0.00000000 13.98817860
2005 1 37.09175979 0.00000000 13.98817860
2006 1 36.26749846 0.00000000 11.65681550
2007 1 38.74028245 0.00000000 11.65681550
2008 1 37.91602112 0.00000000 9.32545240
2009 1 40.38880511 0.00000000 9.32545240
2010 1 39.56454378 0.00000000 6.99408930
2011 1 42.03732776 0.00000000 6.99408930
2012 1 41.21306643 0.00000000 4.66272620
2013 1 43.68585042 0.00000000 4.66272620
2014 1 42.86158909 0.00000000 2.33136310
2015 1 45.33437308 0.00000000 2.33136310
2016 1 44.51011175 0.00000000 -0.00000000
2017 1 46.98289574 0.00000000 -0.00000000
2018 1 0.82426133 30.28529505 19.81658635
2019 1 0.00000000 30.28529505 17.48522325
2020 2 2.47278399 30.28529505 17.48522325
2021 1 1.64852266 30.28529505 15.15386015
2022 1 4.12130664 30.28529505 15.15386015
2023 1 3.29704531 30.28529505 12.82249705
2024 1 5.76982930 30.28529505 12.82249705
2025 1 4.94556797 30.28529505 10.49113395
2026 1 7.41835196 30.28529505 10.49113395
2027 1 6.59409063 30.28529505 8.15977085
2028 1 9.06687462 30.28529505 8.15977085
2029 1 8.24261329 30.28529505 5.82840775
2030 1 10.71539727 30.28529505 5.82840775
2031 1 9.89113594 30.28529505 3.49704465
2032 1 12.36391993 30.28529505 3.49704465
2033 1 11.53965860 30.28529505 1.16568155
2034 1 14.01244259 30.28529505 1.16568155
2035 2 0.82426133 28.26627538 23.31363100
2036 1 0.00000000 28.26627538 20.98226790
2037 2 2.47278399 28.26627538 20.98226790
2038 1 1.64852266 28.26627538 18.65090480
2039 2 4.12130664 28.26627538 18.65090480
2040 1 3.29704531 28.26627538 16.31954170
2041 2 5.76982930 28.26627538 16.31954170
2042 1 4.94556797 28.26627538 13.98817860
2043 2 7.41835196 28.26627538 13.98817860
2044 1 6.59409063 28.26627538 11.65681550
2045 1 9.06687462 28.26627538 11.65681550
2046 1 8.24261329 28.26627538 9.32545240
2047 1 10.71539727 28.26627538 9.32545240
2048 1 9.89113594 28.26627538 6.99408930
2049 1 12.36391993 28.26627538 6.99408930
2050 1 11.53965860 28.26627538 4.66272620
2051 1 14.01244259 28.26627538 4.66272620
2052 1 13.18818126 28.26627538 2.33136310
2053 1 15.66096525 28.26627538 2.33136310
2054 1 14.83670392 28.26627538 0.00000000
2055 1 17.30948790 28.26627538 0.00000000
2056 1 0.82426133 26.24725571 26.81067565
2057 1 0.00000000 26.24725571 24.47931255
2058 2 2.47278399 26.24725571 24.47931255
2059 2 1.64852266 26.24725571 22.14794945
2060 2 4.12130664 26.24725571 22.14794945
2061 2 3.29704531 26.24725571 19.81658635
2062 2 5.76982930 26.24725571 19.81658635
2063 2 4.94556797 26.24725571 17.48522325
2064 2 7.41835196 26.24725571 17.48522325
2065 2 6.59409063 26.24725571 15.15386015
2066 2 9.06687462 26.24725571 15.15386015
2067 1 8.24261329 26.24725571 12.82249705
2068 1 10.71539727 26.24725571 12.82249705
2069 1 9.89113594 26.24725571 10.49113395
2070 1 12.36391993 26.24725571 10.49113395
2071 1 11.53965860 26.24725571 8.15977085
2072 1 14.01244259 26.24725571 8.15977085
2073 1 13.18818126 26.24725571 5.82840775
2074 1 15.66096525 26.24725571 5.82840775
2075 1 14.83670392 26.24725571 3.49704465
2076 1 17.30948790 26.24725571 3.49704465
2077 1 16.48522657 26.24725571 1.16568155
2078 1 18.95801056 26.24725571 1.16568155
2079 1 0.82426133 24.22823604 30.30772030
2080 1 0.00000000 24.22823604 27.97635720
2081 1 2.47278399 24.22823604 27.97635720
2082 1 1.64852266 24.22823604 25.64499410
2083 2 4.12130664 24.22823604 25.64499410
2084 2 3.29704531 24.22823604 23.31363100
2085 2 5.76982930 24.22823604 23.31363100
2086 2 4.94556797 24.22823604 20.98226790
2087 2 7.41835196 24.22823604 20.98226790
2088 2 6.59409063 24.22823604 18.65090480
2089 2 9.06687462 24.22823604 18.65090480
2090 2 8.24261329 24.22823604 16.31954170
2091 2 10.71539727 24.22823604 16.31954170
2092 1 9.89113594 24.22823604 13.98817860
2093 1 12.36391993 24.22823604 13.98817860
2094 1 11.53965860 24.22823604 11.65681550
2095 1 14.01244259 24.22823604 11.65681550
2096 1 13.18818126 24.22823604 9.32545240
2097 1 15.66096525 24.22823604 9.32545240
2098 1 14.83670392 24.22823604 6.99408930
2099 1 17.30948790 24.22823604 6.99408930
2100 1 16.48522657 24.22823604 4.66272620
2101 1 18.95801056 24.22823604 4.66272620
2102 1 18.13374923 24.22823604 2.33136310
2103 1 20.60653322 24.22823604 2.33136310
2104 1 19.78227189 24.22823604 -0.00000000
2105 1 22.25505587 24.22823604 -0.00000000
2106 1 0.82426133 22.20921637 33.80476495
2107 1 0.00000000 22.20921637 31.47340185
2108 1 2.47278399 22.20921637 31.47340185
2109 1 1.64852266 22.20921637 29.14203875
2110 1 4.12130664 22.20921637 29.14203875
2111 1 3.29704531 22.20921637 26.81067565
2112 2 5.76982930 22.20921637 26.81067565
2113 2 4.94556797 22.20921637 24.47931255
2114 2 7.41835196 22.20921637 24.47931255
2115 2 6.59409063 22.20921637 22.14794945
2116 2 9.06687462 22.20921637 22.14794945
2117 2 8.24261329 22.20921637 19.81658635
2118 2 10.71539727 22.20921637 19.81658635
2119 2 9.89113594 22.20921637 17.48522325
2120 2 12.36391993 22.20921637 17.48522325
2121 1 11.53965860 22.20921637 15.15386015
2122 1 14.01244259 22.20921637 15.15386015
2123 1 13.18818126 22.20921637 12.82249705
2124 1 15.66096525 22.20921637 12.82249705
2125 1 14.83670392 22.20921637 10.49113395
2126 1 17.30948790 22.20921637 10.49113395
2127 1 16.48522657 22.20921637 8.15977085
2128 1 18.95801056 22.20921637 8.15977085
2129 1 18.13374923 22.20921637 5.82840775
2130 1 20.60653322 22.20921637 5.82840775
2131 1 19.78227189 22.20921637 3.49704465
2132 1 22.25505587 22.20921637 3.49704465
2133 1 21.43079455 22.20921637 1.16568155
2134 1 23.90357853 22.20921637 1.16568155
2135 1 0.82426133 20.19019670 37.30180960
2136 1 0.00000000 20.19019670 34.97044650
2137 1 2.47278399 20.19019670 34.97044650
2138 1 1.64852266 20.19019670 32.63908340
2139 1 4.12130664 20.19019670 32.63908340
2140 1 3.29704531 20.19019670 30.30772030
2141 1 5.76982930 20.19019670 30.30772030
2142 1 4.94556797 20.19019670 27.97635720
2143 1 7.41835196 20.19019670 27.97635720
2144 1 6.59409063 20.19019670 25.64499410
2145 2 9.06687462 20.19019670 25.64499410
2146 2 8.24261329 20.19019670 23.31363100
2147 2 10.71539727 20.19019670 23.31363100
2148 2 9.89113594 20.19019670 20.98226790
2149 2 12.36391993 20.19019670 20.98226790
2150 1 11.53965860 20.19019670 18.65090480
2151 1 14.01244259 20.19019670 18.65090480
2152 1 13.18818126 20.19019670 16.31954170
2153 1 15.66096525 20.19019670 16.31954170
2154 1 14.83670392 20.19019670 13.98817860
2155 1 17.30948790 20.19019670 13.98817860
2156 1 16.48522657 20.19019670 11.65681550
2157 1 18.95801056 20.19019670 11.65681550
2158 1 18.13374923 20.19019670 9.32545240
2159 1 20.60653322 20.19019670 9.32545240
2160 1 19.78227189 20.19019670 6.99408930
2161 1 22.25505587 20.19019670 6.99408930
2162 1 21.43079455 20.19019670 4.66272620
2163 1 23.90357853 20.19019670 4.66272620
2164 1 23.07931720 20.19019670 2.33136310
2165 1 25.55210119 20.19019670 2.33136310
2166 1 24.72783986 20.19019670 0.00000000
2167 1 27.20062385 20.19019670 -0.00000000
2168 1 0.82426133 18.17117703 40.79885425
2169 1 -0.00000000 18.17117703 38.46749115
2170 1 2.47278399 18.17117703 38.46749115
2171 1 1.64852266 18.17117703 36.13612805
2172 1 4.12130664 18.17117703 36.13612805
2173 1 3.29704531 18.17117703 33.80476495
2174 1 5.76982930 18.17117703 33.80476495
2175 1 4.94556797 18.17117703 31.47340185
2176 1 7.41835196 18.17117703 31.47340185
2177 1 6.59409063 18.17117703 29.14203875
2178 1 9.06687462 18.17117703 29.14203875
2179 1 8.24261329 18.17117703 26.81067565
2180 1 10.71539727 18.17117703 26.81067565
2181 1 9.89113594 18.17117703 24.47931255
2182 1 12.36391993 18.17117703 24.47931255
2183 1 11.53965860 18.17117703 22.14794945
2184 1 14.01244259 18.17117703 22.14794945
2185 1 13.18818126 18.17117703 19.81658635
2186 1 15.66096525 18.17117703 19.81658635
2187 1 14.83670392 18.17117703 17.48522325
2188 1 17.30948790 18.17117703 17.48522325
2189 1 16.48522657 18.17117703 15.15386015
2190 1 18.95801056 18.17117703 15.15386015
2191 1 18.13374923 18.17117703 12.82249705
2192 1 20.60653322 18.17117703 12.82249705
2193 1 19.78227189 18.17117703 10.49113395
2194 1 22.25505587 18.17117703 10.49113395
2195 1 21.43079455 18.17117703 8.15977085
2196 1 23.90357853 18.17117703 8.15977085
2197 1 23.07931720 18.17117703 5.82840775
2198 1 25.55210119 18.17117703 5.82840775
2199 1 24.72783986 18.17117703 3.49704465
2200 1 27.20062385 18.17117703 3.49704465
2201 1 26.37636252 18.17117703 1.16568155
2202 1 28.84914650 18.17117703 1.16568155
2203 1 0.82426133 16.15215736 44.29589890
2204 1 0.00000000 16.15215736 41.96453580
2205 1 2.47278399 16.15215736 41.96453580
2206 1 1.64852266 16.15215736 39.63317270
2207 1 4.12130664 16.15215736 39.63317270
2208 1 3.29704531 16.15215736 37.30180960
2209 1 5.76982930 16.15215736 37.30180960
2210 1 4.94556797 16.15215736 34.97044650
2211 1 7.41835196 16.15215736 34.97044650
2212 1 6.59409063 16.15215736 32.63908340
2213 1 9.06687462 16.15215736 32.63908340
2214 1 8.24261329 16.15215736 30.30772030
2215 1 10.71539727 16.15215736 30.30772030
2216 1 9.89113594 16.15215736 27.97635720
2217 1 12.36391993 16.15215736 27.97635720
2218 1 11.53965860 16.15215736 25.64499410
2219 1 14.01244259 16.15215736 25.64499410
2220 1 13.18818126 16.15215736 23.31363100
2221 1 15.66096525 16.15215736 23.31363100
2222 1 14.83670392 16.15215736 20.98226790
2223 1 17.30948790 16.15215736 20.98226790
2224 1 16.48522657 16.15215736 18.65090480
2225 1 18.95801056 16.15215736 18.65090480
2226 1 18.13374923 16.15215736 16.31954170
2227 1 20.60653322 16.15215736 16.31954170
2228 1 19.78227189 16.15215736 13.98817860
2229 1 22.25505587 16.15215736 13.98817860
2230 1 21.43079455 16.15215736 11.65681550
2231 1 23.90357853 16.15215736 11.65681550
2232 1 23.07931720 16.15215736 9.32545240
2233 1 25.55210119 16.15215736 9.32545240
2234 1 24.72783986 16.15215736 6.99408930
2235 1 27.20062385 16.15215736 6.99408930
2236 1 26.37636252 16.15215736 4.66272620
2237 1 28.84914650 16.15215736 4.66272620
2238 1 28.02488518 16.15215736 2.33136310
2239 1 30.49766916 16.15215736 2.33136310
2240 1 29.67340783 16.15215736 0.00000000
2241 1 32.14619182 16.15215736 -0.00000000
2242 1 0.82426133 14.13313769 47.79294355
2243 1 0.00000000 14.13313769 45.46158045
2244 1 2.47278399 14.13313769 45.46158045
2245 1 1.64852266 14.13313769 43.13021735
2246 1 4.12130664 14.13313769 43.13021735
2247 1 3.29704531 14.13313769 40.79885425
2248 1 5.76982930 14.13313769 40.79885425
2249 1 4.94556797 14.13313769 38.46749115
2250 1 7.41835196 14.13313769 38.46749115
2251 1 6.59409063 14.13313769 36.13612805
2252 1 9.06687462 14.13313769 36.13612805
2253 1 8.24261329 14.13313769 33.80476495
2254 1 10.71539727 14.13313769 33.80476495
2255 1 9.89113594 14.13313769 31.47340185
2256 1 12.36391993 14.13313769 31.47340185
2257 1 11.53965860 14.13313769 29.14203875
2258 1 14.01244259 14.13313769 29.14203875
2259 1 13.18818126 14.13313769 26.81067565
2260 1 15.66096525 14.13313769 26.81067565
2261 1 14.83670392 14.13313769 24.47931255
2262 1 17.30948790 14.13313769 24.47931255
2263 1 16.48522657 14.13313769 22.14794945
2264 1 18.95801056 14.13313769 22.14794945
2265 1 18.13374923 14.13313769 19.81658635
2266 1 20.60653322 14.13313769 19.81658635
2267 1 19.78227189 14.13313769 17.48522325
2268 1 22.25505587 14.13313769 17.48522325
2269 1 21.43079455 14.13313769 15.15386015
2270 1 23.90357853 14.13313769 15.15386015
2271 1 23.07931720 14.13313769 12.82249705
2272 1 25.55210119 14.13313769 12.82249705
2273 1 24.72783986 14.13313769 10.49113395
2274 1 27.20062385 14.13313769 10.49113395
2275 1 26.37636252 14.13313769 8.15977085
2276 1 28.84914650 14.13313769 8.15977085
2277 1 28.02488518 14.13313769 5.82840775
2278 1 30.49766916 14.13313769 5.82840775
2279 1 29.67340783 14.13313769 3.49704465
2280 1 32.14619182 14.13313769 3.49704465
2281 1 31.32193049 14.13313769 1.16568155
2282 1 33.79471448 14.13313769 1.16568155
2283 1 1.64852266 12.11411802 46.62726200
2284 1 4.12130664 12.11411802 46.62726200
2285 1 3.29704531 12.11411802 44.29589890
2286 1 5.76982930 12.11411802 44.29589890
2287 1 4.94556797 12.11411802 41.96453580
2288 1 7.41835196 12.11411802 41.96453580
2289 1 6.59409063 12.11411802 39.63317270
2290 1 9.06687462 12.11411802 39.63317270
2291 1 8.24261329 12.11411802 37.30180960
2292 1 10.71539727 12.11411802 37.30180960
2293 1 9.89113594 12.11411802 34.97044650
2294 1 12.36391993 12.11411802 34.97044650
2295 1 11.53965860 12.11411802 32.63908340
2296 1 14.01244259 12.11411802 32.63908340
2297 1 13.18818126 12.11411802 30.30772030
2298 1 15.66096525 12.11411802 30.30772030
2299 1 14.83670392 12.11411802 27.97635720
2300 1 17.30948790 12.11411802 27.97635720
2301 1 16.48522657 12.11411802 25.64499410
2302 1 18.95801056 12.11411802 25.64499410
2303 1 18.13374923 12.11411802 23.31363100
2304 1 20.60653322 12.11411802 23.31363100
2305 1 19.78227189 12.11411802 20.98226790
2306 1 22.25505587 12.11411802 20.98226790
2307 1 21.43079455 12.11411802 18.65090480
2308 1 23.90357853 12.11411802 18.65090480
2309 1 23.07931720 12.11411802 16.31954170
2310 1 25.55210119 12.11411802 16.31954170
2311 1 24.72783986 12.11411802 13.98817860
2312 1 27.20062385 12.11411802 13.98817860
2313 1 26.37636252 12.11411802 11.65681550
2314 1 28.84914650 12.11411802 11.65681550
2315 1 28.02488518 12.11411802 9.32545240
2316 1 30.49766916 12.11411802 9.32545240
2317 1 29.67340783 12.11411802 6.99408930
2318 1 32.14619182 12.11411802 6.99408930
2319 1 31.32193049 12.11411802 4.66272620
2320 1 33.79471448 12.11411802 4.66272620
2321 1 32.97045315 12.11411802 2.33136310
2322 1 35.44323713 12.11411802 2.33136310
2323 1 34.61897580 12.11411802 0.00000000
2324 1 37.09175979 12.11411802 -0.00000000
2325 1 3.29704531 10.09509835 47.79294355
2326 1 5.76982930 10.09509835 47.79294355
2327 1 4.94556797 10.09509835 45.46158045
2328 1 7.41835196 10.09509835 45.46158045
2329 1 6.59409063 10.09509835 43.13021735
2330 1 9.06687462 10.09509835 43.13021735
2331 1 8.24261329 10.09509835 40.79885425
2332 1 10.71539727 10.09509835 40.79885425
2333 1 9.89113594 10.09509835 38.46749115
2334 1 12.36391993 10.09509835 38.46749115
2335 1 11.53965860 10.09509835 36.13612805
2336 1 14.01244259 10.09509835 36.13612805
2337 1 13.18818126 10.09509835 33.80476495
2338 1 15.66096525 10.09509835 33.80476495
2339 1 14.83670392 10.09509835 31.47340185
2340 1 17.30948790 10.09509835 31.47340185
2341 1 16.48522657 10.09509835 29.14203875
2342 1 18.95801056 10.09509835 29.14203875
2343 1 18.13374923 10.09509835 26.81067565
2344 1 20.60653322 10.09509835 26.81067565
2345 1 19.78227189 10.09509835 24.47931255
2346 1 22.25505587 10.09509835 24.47931255
2347 1 21.43079455 10.09509835 22.14794945
2348 1 23.90357853 10.09509835 22.14794945
2349 1 23.07931720 10.09509835 19.81658635
2350 1 25.55210119 10.09509835 19.81658635
2351 1 24.72783986 10.09509835 17.48522325
2352 1 27.20062385 10.09509835 17.48522325
2353 1 26.37636252 10.09509835 15.15386015
2354 1 28.84914650 10.09509835 15.15386015
2355 1 28.02488518 10.09509835 12.82249705
2356 1 30.49766916 10.09509835 12.82249705
2357 1 29.67340783 10.09509835 10.49113395
2358 1 32.14619182 10.09509835 10.49113395
2359 1 31.32193049 10.09509835 8.15977085
2360 1 33.79471448 10.09509835 8.15977085
2361 1 32.97045315 10.09509835 5.82840775
2362 1 35.44323713 10.09509835 5.82840775
2363 1 34.61897580 10.09509835 3.49704465
2364 1 37.09175979 10.09509835 3.49704465
2365 1 36.26749846 10.09509835 1.16568155
2366 1 38.74028245 10.09509835 1.16568155
2367 1 6.59409063 8.07607868 46.62726200
2368 1 9.06687462 8.07607868 46.62726200
2369 1 8.24261329 8.07607868 44.29589890
2370 1 10.71539727 8.07607868 44.29589890
2371 1 9.89113594 8.07607868 41.96453580
2372 1 12.36391993 8.07607868 41.96453580
2373 1 11.53965860 8.07607868 39.63317270
2374 1 14.01244259 8.07607868 39.63317270
2375 1 13.18818126 8.07607868 37.30180960
2376 1 15.66096525 8.07607868 37.30180960
2377 1 14.83670392 8.07607868 34.97044650
2378 1 17.30948790 8.07607868 34.97044650
2379 1 16.48522657 8.07607868 32.63908340
2380 1 18.95801056 8.07607868 32.63908340
2381 1 18.13374923 8.07607868 30.30772030
2382 1 20.60653322 8.07607868 30.30772030
2383 1 19.78227189 8.07607868 27.97635720
2384 1 22.25505587 8.07607868 27.97635720
2385 1 21.43079455 8.07607868 25.64499410
2386 1 23.90357853 8.07607868 25.64499410
2387 1 23.07931720 8.07607868 23.31363100
2388 1 25.55210119 8.07607868 23.31363100
2389 1 24.72783986 8.07607868 20.98226790
2390 1 27.20062385 8.07607868 20.98226790
2391 1 26.37636252 8.07607868 18.65090480
2392 1 28.84914650 8.07607868 18.65090480
2393 1 28.02488518 8.07607868 16.31954170
2394 1 30.49766916 8.07607868 16.31954170
2395 1 29.67340783 8.07607868 13.98817860
2396 1 32.14619182 8.07607868 13.98817860
2397 1 31.32193049 8.07607868 11.65681550
2398 1 33.79471448 8.07607868 11.65681550
2399 1 32.97045315 8.07607868 9.32545240
2400 1 35.44323713 8.07607868 9.32545240
2401 1 34.61897580 8.07607868 6.99408930
2402 1 37.09175979 8.07607868 6.99408930
2403 1 36.26749846 8.07607868 4.66272620
2404 1 38.74028245 8.07607868 4.66272620
2405 1 37.91602112 8.07607868 2.33136310
2406 1 40.38880511 8.07607868 2.33136310
2407 1 39.56454378 8.07607868 -0.00000000
2408 1 42.03732776 8.07607868 0.00000000
2409 1 8.24261329 6.05705901 47.79294355
2410 1 10.71539727 6.05705901 47.79294355
2411 1 9.89113594 6.05705901 45.46158045
2412 1 12.36391993 6.05705901 45.46158045
2413 1 11.53965860 6.05705901 43.13021735
2414 1 14.01244259 6.05705901 43.13021735
2415 1 13.18818126 6.05705901 40.79885425
2416 1 15.66096525 6.05705901 40.79885425
2417 1 14.83670392 6.05705901 38.46749115
2418 1 17.30948790 6.05705901 38.46749115
2419 1 16.48522657 6.05705901 36.13612805
2420 1 18.95801056 6.05705901 36.13612805
2421 1 18.13374923 6.05705901 33.80476495
2422 1 20.60653322 6.05705901 33.80476495
2423 1 19.78227189 6.05705901 31.47340185
2424 1 22.25505587 6.05705901 31.47340185
2425 1 21.43079455 6.05705901 29.14203875
2426 1 23.90357853 6.05705901 29.14203875
2427 1 23.07931720 6.05705901 26.81067565
2428 1 25.55210119 6.05705901 26.81067565
2429 1 24.72783986 6.05705901 24.47931255
2430 1 27.20062385 6.05705901 24.47931255
2431 1 26.37636252 6.05705901 22.14794945
2432 1 28.84914650 6.05705901 22.14794945
2433 1 28.02488518 6.05705901 19.81658635
2434 1 30.49766916 6.05705901 19.81658635
2435 1 29.67340783 6.05705901 17.48522325
2436 1 32.14619182 6.05705901 17.48522325
2437 1 31.32193049 6.05705901 15.15386015
2438 1 33.79471448 6.05705901 15.15386015
2439 1 32.97045315 6.05705901 12.82249705
2440 1 35.44323713 6.05705901 12.82249705
2441 1 34.61897580 6.05705901 10.49113395
2442 1 37.09175979 6.05705901 10.49113395
2443 1 36.26749846 6.05705901 8.15977085
2444 1 38.74028245 6.05705901 8.15977085
2445 1 37.91602112 6.05705901 5.82840775
2446 1 40.38880511 6.05705901 5.82840775
2447 1 39.56454378 6.05705901 3.49704465
2448 1 42.03732776 6.05705901 3.49704465
2449 1 41.21306643 6.05705901 1.16568155
2450 1 43.68585042 6.05705901 1.16568155
2451 1 11.53965860 4.03803934 46.62726200
2452 1 14.01244259 4.03803934 46.62726200
2453 1 13.18818126 4.03803934 44.29589890
2454 1 15.66096525 4.03803934 44.29589890
2455 1 14.83670392 4.03803934 41.96453580
2456 1 17.30948790 4.03803934 41.96453580
2457 1 16.48522657 4.03803934 39.63317270
2458 1 18.95801056 4.03803934 39.63317270
2459 1 18.13374923 4.03803934 37.30180960
2460 1 20.60653322 4.03803934 37.30180960
2461 1 19.78227189 4.03803934 34.97044650
2462 1 22.25505587 4.03803934 34.97044650
2463 1 21.43079455 4.03803934 32.63908340
2464 1 23.90357853 4.03803934 32.63908340
2465 1 23.07931720 4.03803934 30.30772030
2466 1 25.55210119 4.03803934 30.30772030
2467 1 24.72783986 4.03803934 27.97635720
2468 1 27.20062385 4.03803934 27.97635720
2469 1 26.37636252 4.03803934 25.64499410
2470 1 28.84914650 4.03803934 25.64499410
2471 1 28.02488518 4.03803934 23.31363100
2472 1 30.49766916 4.03803934 23.31363100
2473 1 29.67340783 4.03803934 20.98226790
2474 1 32.14619182 4.03803934 20.98226790
2475 1 31.32193049 4.03803934 18.65090480
2476 1 33.79471448 4.03803934 18.65090480
2477 1 32.97045315 4.03803934 16.31954170
2478 1 35.44323713 4.03803934 16.31954170
2479 1 34.61897580 4.03803934 13.98817860
2480 1 37.09175979 4.03803934 13.98817860
2481 1 36.26749846 4.03803934 11.65681550
2482 1 38.74028245 4.03803934 11.65681550
2483 1 37.91602112 4.03803934 9.32545240
2484 1 40.38880511 4.03803934 9.32545240
2485 1 39.56454378 4.03803934 6.99408930
2486 1 42.03732776 4.03803934 6.99408930
2487 1 41.21306643 4.03803934 4.66272620
2488 1 43.68585042 4.03803934 4.66272620
2489 1 42.86158909 4.03803934 2.33136310
2490 1 45.33437308 4.03803934 2.33136310
2491 1 44.51011175 4.03803934 0.00000000
2492 1 46.98289574 4.03803934 -0.00000000
2493 1 13.18818126 2.01901967 47.79294355
2494 1 15.66096525 2.01901967 47.79294355
2495 1 14.83670392 2.01901967 45.46158045
2496 1 17.30948790 2.01901967 45.46158045
2497 1 16.48522657 2.01901967 43.13021735
2498 1 18.95801056 2.01901967 43.13021735
2499 1 18.13374923 2.01901967 40.79885425
2500 1 20.60653322 2.01901967 40.79885425
2501 1 19.78227189 2.01901967 38.46749115
2502 1 22.25505587 2.01901967 38.46749115
2503 1 21.43079455 2.01901967 36.13612805
2504 1 23.90357853 2.01901967 36.13612805
2505 1 23.07931720 2.01901967 33.80476495
2506 1 25.55210119 2.01901967 33.80476495
2507 1 24.72783986 2.01901967 31.47340185
2508 1 27.20062385 2.01901967 31.47340185
2509 1 26.37636252 2.01901967 29.14203875
2510 1 28.84914650 2.01901967 29.14203875
2511 1 28.02488518 2.01901967 26.81067565
2512 1 30.49766916 2.01901967 26.81067565
2513 1 29.67340783 2.01901967 24.47931255
2514 1 32.14619182 2.01901967 24.47931255
2515 1 31.32193049 2.01901967 22.14794945
2516 1 33.79471448 2.01901967 22.14794945
2517 1 32.97045315 2.01901967 19.81658635
2518 1 35.44323713 2.01901967 19.81658635
2519 1 34.61897580 2.01901967 17.48522325
2520 1 37.09175979 2.01901967 17.48522325
2521 1 36.26749846 2.01901967 15.15386015
2522 1 38.74028245 2.01901967 15.15386015
2523 1 37.91602112 2.01901967 12.82249705
2524 1 40.38880511 2.01901967 12.82249705
2525 1 39.56454378 2.01901967 10.49113395
2526 1 42.03732776 2.01901967 10.49113395
2527 1 41.21306643 2.01901967 8.15977085
2528 1 43.68585042 2.01901967 8.15977085
2529 1 42.86158909 2.01901967 5.82840775
2530 1 45.33437308 2.01901967 5.82840775
2531 1 44.51011175 2.01901967 3.49704465
2532 1 46.98289574 2.01901967 3.49704465
2533 1 46.15863441 2.01901967 1.16568155
2534 1 48.63141839 2.01901967 1.16568155
2535 1 16.48522657 0.00000000 46.62726200
2536 1 18.95801056 -0.00000000 46.62726200
2537 1 18.13374923 0.00000000 44.29589890
2538 1 20.60653322 -0.00000000 44.29589890
2539 1 19.78227189 0.00000000 41.96453580
2540 1 22.25505587 -0.00000000 41.96453580
2541 1 21.43079455 0.00000000 39.63317270
2542 1 23.90357853 -0.00000000 39.63317270
2543 1 23.07931720 0.00000000 37.30180960
2544 1 25.55210119 -0.00000000 37.30180960
2545 1 24.72783986 0.00000000 34.97044650
2546 1 27.20062385 -0.00000000 34.97044650
2547 1 26.37636252 0.00000000 32.63908340
2548 1 28.84914650 -0.00000000 32.63908340
2549 1 28.02488518 0.00000000 30.30772030
2550 1 30.49766916 -0.00000000 30.30772030
2551 1 29.67340783 0.00000000 27.97635720
2552 1 32.14619182 -0.00000000 27.97635720
2553 1 31.32193049 0.00000000 25.64499410
2554 1 33.79471448 -0.00000000 25.64499410
2555 1 32.97045315 0.00000000 23.31363100
2556 1 35.44323713 -0.00000000 23.31363100
2557 1 34.61897580 0.00000000 20.98226790
2558 1 37.09175979 -0.00000000 20.98226790
2559 1 36.26749846 0.00000000 18.65090480
2560 1 38.74028245 -0.00000000 18.65090480
2561 1 37.91602112 0.00000000 16.31954170
2562 1 40.38880511 -0.00000000 16.31954170
2563 1 39.56454378 0.00000000 13.98817860
2564 1 42.03732776 -0.00000000 13.98817860
2565 1 41.21306643 0.00000000 11.65681550
2566 1 43.68585042 -0.00000000 11.65681550
2567 1 42.86158909 0.00000000 9.32545240
2568 1 45.33437308 -0.00000000 9.32545240
2569 1 44.51011175 0.00000000 6.99408930
2570 1 46.98289574 -0.00000000 6.99408930
2571 1 46.15863441 0.00000000 4.66272620
2572 1 48.63141839 -0.00000000 4.66272620
2573 1 47.80715706 0.00000000 2.33136310
2574 1 50.27994105 -0.00000000 2.33136310
2575 1 49.45567972 0.00000000 0.00000000
2576 1 51.92846371 -0.00000000 -0.00000000
2577 2 0.82426133 30.28529505 26.81067565
2578 1 -0.00000000 30.28529505 24.47931255
2579 2 2.47278399 30.28529505 24.47931255
2580 2 1.64852266 30.28529505 22.14794945
2581 2 4.12130664 30.28529505 22.14794945
2582 2 3.29704531 30.28529505 19.81658635
2583 2 5.76982930 30.28529505 19.81658635
2584 2 4.94556797 30.28529505 17.48522325
2585 2 7.41835196 30.28529505 17.48522325
2586 2 6.59409063 30.28529505 15.15386015
2587 2 9.06687462 30.28529505 15.15386015
2588 1 8.24261329 30.28529505 12.82249705
2589 2 10.71539727 30.28529505 12.82249705
2590 1 9.89113594 30.28529505 10.49113395
2591 1 12.36391993 30.28529505 10.49113395
2592 1 11.53965860 30.28529505 8.15977085
2593 1 14.01244259 30.28529505 8.15977085
2594 1 13.18818126 30.28529505 5.82840775
2595 1 15.66096525 30.28529505 5.82840775
2596 1 14.83670392 30.28529505 3.49704465
2597 1 17.30948790 30.28529505 3.49704465
2598 1 16.48522657 30.28529505 1.16568155
2599 1 18.95801056 30.28529505 1.16568155
2600 1 0.82426133 28.26627538 30.30772030
2601 1 0.00000000 28.26627538 27.97635720
2602 2 2.47278399 28.26627538 27.97635720
2603 2 1.64852266 28.26627538 25.64499410
2604 2 4.12130664 28.26627538 25.64499410
2605 2 3.29704531 28.26627538 23.31363100
2606 2 5.76982930 28.26627538 23.31363100
2607 2 4.94556797 28.26627538 20.98226790
2608 2 7.41835196 28.26627538 20.98226790
2609 2 6.59409063 28.26627538 18.65090480
2610 2 9.06687462 28.26627538 18.65090480
2611 2 8.24261329 28.26627538 16.31954170
2612 2 10.71539727 28.26627538 16.31954170
2613 2 9.89113594 28.26627538 13.98817860
2614 2 12.36391993 28.26627538 13.98817860
2615 1 11.53965860 28.26627538 11.65681550
2616 1 14.01244259 28.26627538 11.65681550
2617 1 13.18818126 28.26627538 9.32545240
2618 1 15.66096525 28.26627538 9.32545240
2619 1 14.83670392 28.26627538 6.99408930
2620 1 17.30948790 28.26627538 6.99408930
2621 1 16.48522657 28.26627538 4.66272620
2622 1 18.95801056 28.26627538 4.66272620
2623 1 18.13374923 28.26627538 2.33136310
2624 1 20.60653322 28.26627538 2.33136310
2625 1 19.78227189 28.26627538 -0.00000000
2626 1 22.25505587 28.26627538 0.00000000
2627 1 0.82426133 26.24725571 33.80476495
2628 1 0.00000000 26.24725571 31.47340185
2629 1 2.47278399 26.24725571 31.47340185
2630 1 1.64852266 26.24725571 29.14203875
2631 2 4.12130664 26.24725571 29.14203875
2632 2 3.29704531 26.24725571 26.81067565
2633 2 5.76982930 26.24725571 26.81067565
2634 2 4.94556797 26.24725571 24.47931255
2635 2 7.41835196 26.24725571 24.47931255
2636 2 6.59409063 26.24725571 22.14794945
2637 2 9.06687462 26.24725571 22.14794945
2638 2 8.24261329 26.24725571 19.81658635
2639 2 10.71539727 26.24725571 19.81658635
2640 2 9.89113594 26.24725571 17.48522325
2641 2 12.36391993 26.24725571 17.48522325
2642 2 11.53965860 26.24725571 15.15386015
2643 2 14.01244259 26.24725571 15.15386015
2644 1 13.18818126 26.24725571 12.82249705
2645 1 15.66096525 26.24725571 12.82249705
2646 1 14.83670392 26.24725571 10.49113395
2647 1 17.30948790 26.24725571 10.49113395
2648 1 16.48522657 26.24725571 8.15977085
2649 1 18.95801056 26.24725571 8.15977085
2650 1 18.13374923 26.24725571 5.82840775
2651 1 20.60653322 26.24725571 5.82840775
2652 1 19.78227189 26.24725571 3.49704465
2653 1 22.25505587 26.24725571 3.49704465
2654 1 21.43079455 26.24725571 1.16568155
2655 1 23.90357853 26.24725571 1.16568155
2656 1 0.82426133 24.22823604 37.30180960
2657 1 0.00000000 24.22823604 34.97044650
2658 1 2.47278399 24.22823604 34.97044650
2659 1 1.64852266 24.22823604 32.63908340
2660 1 4.12130664 24.22823604 32.63908340
2661 1 3.29704531 24.22823604 30.30772030
2662 2 5.76982930 24.22823604 30.30772030
2663 2 4.94556797 24.22823604 27.97635720
2664 2 7.41835196 24.22823604 27.97635720
2665 2 6.59409063 24.22823604 25.64499410
2666 2 9.06687462 24.22823604 25.64499410
2667 2 8.24261329 24.22823604 23.31363100
2668 2 10.71539727 24.22823604 23.31363100
2669 2 9.89113594 24.22823604 20.98226790
2670 2 12.36391993 24.22823604 20.98226790
2671 2 11.53965860 24.22823604 18.65090480
2672 2 14.01244259 24.22823604 18.65090480
2673 2 13.18818126 24.22823604 16.31954170
2674 2 15.66096525 24.22823604 16.31954170
2675 1 14.83670392 24.22823604 13.98817860
2676 1 17.30948790 24.22823604 13.98817860
2677 1 16.48522657 24.22823604 11.65681550
2678 1 18.95801056 24.22823604 11.65681550
2679 1 18.13374923 24.22823604 9.32545240
2680 1 20.60653322 24.22823604 9.32545240
2681 1 19.78227189 24.22823604 6.99408930
2682 1 22.25505587 24.22823604 6.99408930
2683 1 21.43079455 24.22823604 4.66272620
2684 1 23.90357853 24.22823604 4.66272620
2685 1 23.07931720 24.22823604 2.33136310
2686 1 25.55210119 24.22823604 2.33136310
2687 1 24.72783986 24.22823604 0.00000000
2688 1 27.20062385 24.22823604 -0.00000000
2689 1 0.82426133 22.20921637 40.79885425
2690 1 -0.00000000 22.20921637 38.46749115
2691 1 2.47278399 22.20921637 38.46749115
2692 1 1.64852266 22.20921637 36.13612805
2693 1 4.12130664 22.20921637 36.13612805
2694 1 3.29704531 22.20921637 33.80476495
2695 1 5.76982930 22.20921637 33.80476495
2696 1 4.94556797 22.20921637 31.47340185
2697 1 7.41835196 22.20921637 31.47340185
2698 2 6.59409063 22.20921637 29.14203875
2699 2 9.06687462 22.20921637 29.14203875
2700 2 8.24261329 22.20921637 26.81067565
2701 2 10.71539727 22.20921637 26.81067565
2702 2 9.89113594 22.20921637 24.47931255
2703 2 12.36391993 22.20921637 24.47931255
2704 2 11.53965860 22.20921637 22.14794945
2705 2 14.01244259 22.20921637 22.14794945
2706 2 13.18818126 22.20921637 19.81658635
2707 2 15.66096525 22.20921637 19.81658635
2708 2 14.83670392 22.20921637 17.48522325
2709 1 17.30948790 22.20921637 17.48522325
2710 1 16.48522657 22.20921637 15.15386015
2711 1 18.95801056 22.20921637 15.15386015
2712 1 18.13374923 22.20921637 12.82249705
2713 1 20.60653322 22.20921637 12.82249705
2714 1 19.78227189 22.20921637 10.49113395
2715 1 22.25505587 22.20921637 10.49113395
2716 1 21.43079455 22.20921637 8.15977085
2717 1 23.90357853 22.20921637 8.15977085
2718 1 23.07931720 22.20921637 5.82840775
2719 1 25.55210119 22.20921637 5.82840775
2720 1 24.72783986 22.20921637 3.49704465
2721 1 27.20062385 22.20921637 3.49704465
2722 1 26.37636252 22.20921637 1.16568155
2723 1 28.84914650 22.20921637 1.16568155
2724 1 0.82426133 20.19019670 44.29589890
2725 1 -0.00000000 20.19019670 41.96453580
2726 1 2.47278399 20.19019670 41.96453580
2727 1 1.64852266 20.19019670 39.63317270
2728 1 4.12130664 20.19019670 39.63317270
2729 1 3.29704531 20.19019670 37.30180960
2730 1 5.76982930 20.19019670 37.30180960
2731 1 4.94556797 20.19019670 34.97044650
2732 1 7.41835196 20.19019670 34.97044650
2733 1 6.59409063 20.19019670 32.63908340
2734 1 9.06687462 20.19019670 32.63908340
2735 1 8.24261329 20.19019670 30.30772030
2736 1 10.71539727 20.19019670 30.30772030
2737 2 9.89113594 20.19019670 27.97635720
2738 2 12.36391993 20.19019670 27.97635720
2739 2 11.53965860 20.19019670 25.64499410
2740 2 14.01244259 20.19019670 25.64499410
2741 2 13.18818126 20.19019670 23.31363100
2742 2 15.66096525 20.19019670 23.31363100
2743 2 14.83670392 20.19019670 20.98226790
2744 1 17.30948790 20.19019670 20.98226790
2745 1 16.48522657 20.19019670 18.65090480
2746 1 18.95801056 20.19019670 18.65090480
2747 1 18.13374923 20.19019670 16.31954170
2748 1 20.60653322 20.19019670 16.31954170
2749 1 19.78227189 20.19019670 13.98817860
2750 1 22.25505587 20.19019670 13.98817860
2751 1 21.43079455 20.19019670 11.65681550
2752 1 23.90357853 20.19019670 11.65681550
2753 1 23.07931720 20.19019670 9.32545240
2754 1 25.55210119 20.19019670 9.32545240
2755 1 24.72783986 20.19019670 6.99408930
2756 1 27.20062385 20.19019670 6.99408930
2757 1 26.37636252 20.19019670 4.66272620
2758 1 28.84914650 20.19019670 4.66272620
2759 1 28.02488518 20.19019670 2.33136310
2760 1 30.49766916 20.19019670 2.33136310
2761 1 29.67340783 20.19019670 0.00000000
2762 1 32.14619182 20.19019670 0.00000000
2763 1 0.82426133 18.17117703 47.79294355
2764 1 0.00000000 18.17117703 45.46158045
2765 1 2.47278399 18.17117703 45.46158045
2766 1 1.64852266 18.17117703 43.13021735
2767 1 4.12130664 18.17117703 43.13021735
2768 1 3.29704531 18.17117703 40.79885425
2769 1 5.76982930 18.17117703 40.79885425
2770 1 4.94556797 18.17117703 38.46749115
2771 1 7.41835196 18.17117703 38.46749115
2772 1 6.59409063 18.17117703 36.13612805
2773 1 9.06687462 18.17117703 36.13612805
2774 1 8.24261329 18.17117703 33.80476495
2775 1 10.71539727 18.17117703 33.80476495
2776 1 9.89113594 18.17117703 31.47340185
2777 1 12.36391993 18.17117703 31.47340185
2778 1 11.53965860 18.17117703 29.14203875
2779 1 14.01244259 18.17117703 29.14203875
2780 1 13.18818126 18.17117703 26.81067565
2781 1 15.66096525 18.17117703 26.81067565
2782 1 14.83670392 18.17117703 24.47931255
2783 1 17.30948790 18.17117703 24.47931255
2784 1 16.48522657 18.17117703 22.14794945
2785 1 18.95801056 18.17117703 22.14794945
2786 1 18.13374923 18.17117703 19.81658635
2787 1 20.60653322 18.17117703 19.81658635
2788 1 19.78227189 18.17117703 17.48522325
2789 1 22.25505587 18.17117703 17.48522325
2790 1 21.43079455 18.17117703 15.15386015
2791 1 23.90357853 18.17117703 15.15386015
2792 1 23.07931720 18.17117703 12.82249705
2793 1 25.55210119 18.17117703 12.82249705
2794 1 24.72783986 18.17117703 10.49113395
2795 1 27.20062385 18.17117703 10.49113395
2796 1 26.37636252 18.17117703 8.15977085
2797 1 28.84914650 18.17117703 8.15977085
2798 1 28.02488518 18.17117703 5.82840775
2799 1 30.49766916 18.17117703 5.82840775
2800 1 29.67340783 18.17117703 3.49704465
2801 1 32.14619182 18.17117703 3.49704465
2802 1 31.32193049 18.17117703 1.16568155
2803 1 33.79471448 18.17117703 1.16568155
2804 1 1.64852266 16.15215736 46.62726200
2805 1 4.12130664 16.15215736 46.62726200
2806 1 3.29704531 16.15215736 44.29589890
2807 1 5.76982930 16.15215736 44.29589890
2808 1 4.94556797 16.15215736 41.96453580
2809 1 7.41835196 16.15215736 41.96453580
2810 1 6.59409063 16.15215736 39.63317270
2811 1 9.06687462 16.15215736 39.63317270
2812 1 8.24261329 16.15215736 37.30180960
2813 1 10.71539727 16.15215736 37.30180960
2814 1 9.89113594 16.15215736 34.97044650
2815 1 12.36391993 16.15215736 34.97044650
2816 1 11.53965860 16.15215736 32.63908340
2817 1 14.01244259 16.15215736 32.63908340
2818 1 13.18818126 16.15215736 30.30772030
2819 1 15.66096525 16.15215736 30.30772030
2820 1 14.83670392 16.15215736 27.97635720
2821 1 17.30948790 16.15215736 27.97635720
2822 1 16.48522657 16.15215736 25.64499410
2823 1 18.95801056 16.15215736 25.64499410
2824 1 18.13374923 16.15215736 23.31363100
2825 1 20.60653322 16.15215736 23.31363100
2826 1 19.78227189 16.15215736 20.98226790
2827 1 22.25505587 16.15215736 20.98226790
2828 1 21.43079455 16.15215736 18.65090480
2829 1 23.90357853 16.15215736 18.65090480
2830 1 23.07931720 16.15215736 16.31954170
2831 1 25.55210119 16.15215736 16.31954170
2832 1 24.72783986 16.15215736 13.98817860
2833 1 27.20062385 16.15215736 13.98817860
2834 1 26.37636252 16.15215736 11.65681550
2835 1 28.84914650 16.15215736 11.65681550
2836 1 28.02488518 16.15215736 9.32545240
2837 1 30.49766916 16.15215736 9.32545240
2838 1 29.67340783 16.15215736 6.99408930
2839 1 32.14619182 16.15215736 6.99408930
2840 1 31.32193049 16.15215736 4.66272620
2841 1 33.79471448 16.15215736 4.66272620
2842 1 32.97045315 16.15215736 2.33136310
2843 1 35.44323713 16.15215736 2.33136310
2844 1 34.61897580 16.15215736 0.00000000
2845 1 37.09175979 16.15215736 0.00000000
2846 1 3.29704531 14.13313769 47.79294355
2847 1 5.76982930 14.13313769 47.79294355
2848 1 4.94556797 14.13313769 45.46158045
2849 1 7.41835196 14.13313769 45.46158045
2850 1 6.59409063 14.13313769 43.13021735
2851 1 9.06687462 14.13313769 43.13021735
2852 1 8.24261329 14.13313769 40.79885425
2853 1 10.71539727 14.13313769 40.79885425
2854 1 9.89113594 14.13313769 38.46749115
2855 1 12.36391993 14.13313769 38.46749115
2856 1 11.53965860 14.13313769 36.13612805
2857 1 14.01244259 14.13313769 36.13612805
2858 1 13.18818126 14.13313769 33.80476495
2859 1 15.66096525 14.13313769 33.80476495
2860 1 14.83670392 14.13313769 31.47340185
2861 1 17.30948790 14.13313769 31.47340185
2862 1 16.48522657 14.13313769 29.14203875
2863 1 18.95801056 14.13313769 29.14203875
2864 1 18.13374923 14.13313769 26.81067565
2865 1 20.60653322 14.13313769 26.81067565
2866 1 19.78227189 14.13313769 24.47931255
2867 1 22.25505587 14.13313769 24.47931255
2868 1 21.43079455 14.13313769 22.14794945
2869 1 23.90357853 14.13313769 22.14794945
2870 1 23.07931720 14.13313769 19.81658635
2871 1 25.55210119 14.13313769 19.81658635
2872 1 24.72783986 14.13313769 17.48522325
2873 1 27.20062385 14.13313769 17.48522325
2874 1 26.37636252 14.13313769 15.15386015
2875 1 28.84914650 14.13313769 15.15386015
2876 1 28.02488518 14.13313769 12.82249705
2877 1 30.49766916 14.13313769 12.82249705
2878 1 29.67340783 14.13313769 10.49113395
2879 1 32.14619182 14.13313769 10.49113395
2880 1 31.32193049 14.13313769 8.15977085
2881 1 33.79471448 14.13313769 8.15977085
2882 1 32.97045315 14.13313769 5.82840775
2883 1 35.44323713 14.13313769 5.82840775
2884 1 34.61897580 14.13313769 3.49704465
2885 1 37.09175979 14.13313769 3.49704465
2886 1 36.26749846 14.13313769 1.16568155
2887 1 38.74028245 14.13313769 1.16568155
2888 1 6.59409063 12.11411802 46.62726200
2889 1 9.06687462 12.11411802 46.62726200
2890 1 8.24261329 12.11411802 44.29589890
2891 1 10.71539727 12.11411802 44.29589890
2892 1 9.89113594 12.11411802 41.96453580
2893 1 12.36391993 12.11411802 41.96453580
2894 1 11.53965860 12.11411802 39.63317270
2895 1 14.01244259 12.11411802 39.63317270
2896 1 13.18818126 12.11411802 37.30180960
2897 1 15.66096525 12.11411802 37.30180960
2898 1 14.83670392 12.11411802 34.97044650
2899 1 17.30948790 12.11411802 34.97044650
2900 1 16.48522657 12.11411802 32.63908340
2901 1 18.95801056 12.11411802 32.63908340
2902 1 18.13374923 12.11411802 30.30772030
2903 1 20.60653322 12.11411802 30.30772030
2904 1 19.78227189 12.11411802 27.97635720
2905 1 22.25505587 12.11411802 27.97635720
2906 1 21.43079455 12.11411802 25.64499410
2907 1 23.90357853 12.11411802 25.64499410
2908 1 23.07931720 12.11411802 23.31363100
2909 1 25.55210119 12.11411802 23.31363100
2910 1 24.72783986 12.11411802 20.98226790
2911 1 27.20062385 12.11411802 20.98226790
2912 1 26.37636252 12.11411802 18.65090480
2913 1 28.84914650 12.11411802 18.65090480
2914 1 28.02488518 12.11411802 16.31954170
2915 1 30.49766916 12.11411802 16.31954170
2916 1 29.67340783 12.11411802 13.98817860
2917 1 32.14619182 12.11411802 13.98817860
2918 1 31.32193049 12.11411802 11.65681550
2919 1 33.79471448 12.11411802 11.65681550
2920 1 32.97045315 12.11411802 9.32545240
2921 1 35.44323713 12.11411802 9.32545240
2922 1 34.61897580 12.11411802 6.99408930
2923 1 37.09175979 12.11411802 6.99408930
2924 1 36.26749846 12.11411802 4.66272620
2925 1 38.74028245 12.11411802 4.66272620
2926 1 37.91602112 12.11411802 2.33136310
2927 1 40.38880511 12.11411802 2.33136310
2928 1 39.56454378 12.11411802 -0.00000000
2929 1 42.03732776 12.11411802 0.00000000
2930 1 8.24261329 10.09509835 47.79294355
2931 1 10.71539727 10.09509835 47.79294355
2932 1 9.89113594 10.09509835 45.46158045
2933 1 12.36391993 10.09509835 45.46158045
2934 1 11.53965860 10.09509835 43.13021735
2935 1 14.01244259 10.09509835 43.13021735
2936 1 13.18818126 10.09509835 40.79885425
2937 1 15.66096525 10.09509835 40.79885425
2938 1 14.83670392 10.09509835 38.46749115
2939 1 17.30948790 10.09509835 38.46749115
2940 1 16.48522657 10.09509835 36.13612805
2941 1 18.95801056 10.09509835 36.13612805
2942 1 18.13374923 10.09509835 33.80476495
2943 1 20.60653322 10.09509835 33.80476495
2944 1 19.78227189 10.09509835 31.47340185
2945 1 22.25505587 10.09509835 31.47340185
2946 1 21.43079455 10.09509835 29.14203875
2947 1 23.90357853 10.09509835 29.14203875
2948 1 23.07931720 10.09509835 26.81067565
2949 1 25.55210119 10.09509835 26.81067565
2950 1 24.72783986 10.09509835 24.47931255
2951 1 27.20062385 10.09509835 24.47931255
2952 1 26.37636252 10.09509835 22.14794945
2953 1 28.84914650 10.09509835 22.14794945
2954 1 28.02488518 10.09509835 19.81658635
2955 1 30.49766916 10.09509835 19.81658635
2956 1 29.67340783 10.09509835 17.48522325
2957 1 32.14619182 10.09509835 17.48522325
2958 1 31.32193049 10.09509835 15.15386015
2959 1 33.79471448 10.09509835 15.15386015
2960 1 32.97045315 10.09509835 12.82249705
2961 1 35.44323713 10.09509835 12.82249705
2962 1 34.61897580 10.09509835 10.49113395
2963 1 37.09175979 10.09509835 10.49113395
2964 1 36.26749846 10.09509835 8.15977085
2965 1 38.74028245 10.09509835 8.15977085
2966 1 37.91602112 10.09509835 5.82840775
2967 1 40.38880511 10.09509835 5.82840775
2968 1 39.56454378 10.09509835 3.49704465
2969 1 42.03732776 10.09509835 3.49704465
2970 1 41.21306643 10.09509835 1.16568155
2971 1 43.68585042 10.09509835 1.16568155
2972 1 11.53965860 8.07607868 46.62726200
2973 1 14.01244259 8.07607868 46.62726200
2974 1 13.18818126 8.07607868 44.29589890
2975 1 15.66096525 8.07607868 44.29589890
2976 1 14.83670392 8.07607868 41.96453580
2977 1 17.30948790 8.07607868 41.96453580
2978 1 16.48522657 8.07607868 39.63317270
2979 1 18.95801056 8.07607868 39.63317270
2980 1 18.13374923 8.07607868 37.30180960
2981 1 20.60653322 8.07607868 37.30180960
2982 1 19.78227189 8.07607868 34.97044650
2983 1 22.25505587 8.07607868 34.97044650
2984 1 21.43079455 8.07607868 32.63908340
2985 1 23.90357853 8.07607868 32.63908340
2986 1 23.07931720 8.07607868 30.30772030
2987 1 25.55210119 8.07607868 30.30772030
2988 1 24.72783986 8.07607868 27.97635720
2989 1 27.20062385 8.07607868 27.97635720
2990 1 26.37636252 8.07607868 25.64499410
2991 1 28.84914650 8.07607868 25.64499410
2992 1 28.02488518 8.07607868 23.31363100
2993 1 30.49766916 8.07607868 23.31363100
2994 1 29.67340783 8.07607868 20.98226790
2995 1 32.14619182 8.07607868 20.98226790
2996 1 31.32193049 8.07607868 18.65090480
2997 1 33.79471448 8.07607868 18.65090480
2998 1 32.97045315 8.07607868 16.31954170
2999 1 35.44323713 8.07607868 16.31954170
3000 1 34.61897580 8.07607868 13.98817860
3001 1 37.09175979 8.07607868 13.98817860
3002 1 36.26749846 8.07607868 11.65681550
3003 1 38.74028245 8.07607868 11.65681550
3004 1 37.91602112 8.07607868 9.32545240
3005 1 40.38880511 8.07607868 9.32545240
3006 1 39.56454378 8.07607868 6.99408930
3007 1 42.03732776 8.07607868 6.99408930
3008 1 41.21306643 8.07607868 4.66272620
3009 1 43.68585042 8.07607868 4.66272620
3010 1 42.86158909 8.07607868 2.33136310
3011 1 45.33437308 8.07607868 2.33136310
3012 1 44.51011175 8.07607868 -0.00000000
3013 1 46.98289574 8.07607868 -0.00000000
3014 1 13.18818126 6.05705901 47.79294355
3015 1 15.66096525 6.05705901 47.79294355
3016 1 14.83670392 6.05705901 45.46158045
3017 1 17.30948790 6.05705901 45.46158045
3018 1 16.48522657 6.05705901 43.13021735
3019 1 18.95801056 6.05705901 43.13021735
3020 1 18.13374923 6.05705901 40.79885425
3021 1 20.60653322 6.05705901 40.79885425
3022 1 19.78227189 6.05705901 38.46749115
3023 1 22.25505587 6.05705901 38.46749115
3024 1 21.43079455 6.05705901 36.13612805
3025 1 23.90357853 6.05705901 36.13612805
3026 1 23.07931720 6.05705901 33.80476495
3027 1 25.55210119 6.05705901 33.80476495
3028 1 24.72783986 6.05705901 31.47340185
3029 1 27.20062385 6.05705901 31.47340185
3030 1 26.37636252 6.05705901 29.14203875
3031 1 28.84914650 6.05705901 29.14203875
3032 1 28.02488518 6.05705901 26.81067565
3033 1 30.49766916 6.05705901 26.81067565
3034 1 29.67340783 6.05705901 24.47931255
3035 1 32.14619182 6.05705901 24.47931255
3036 1 31.32193049 6.05705901 22.14794945
3037 1 33.79471448 6.05705901 22.14794945
3038 1 32.97045315 6.05705901 19.81658635
3039 1 35.44323713 6.05705901 19.81658635
3040 1 34.61897580 6.05705901 17.48522325
3041 1 37.09175979 6.05705901 17.48522325
3042 1 36.26749846 6.05705901 15.15386015
3043 1 38.74028245 6.05705901 15.15386015
3044 1 37.91602112 6.05705901 12.82249705
3045 1 40.38880511 6.05705901 12.82249705
3046 1 39.56454378 6.05705901 10.49113395
3047 1 42.03732776 6.05705901 10.49113395
3048 1 41.21306643 6.05705901 8.15977085
3049 1 43.68585042 6.05705901 8.15977085
3050 1 42.86158909 6.05705901 5.82840775
3051 1 45.33437308 6.05705901 5.82840775
3052 1 44.51011175 6.05705901 3.49704465
3053 1 46.98289574 6.05705901 3.49704465
3054 1 46.15863441 6.05705901 1.16568155
3055 1 48.63141839 6.05705901 1.16568155
3056 1 16.48522657 4.03803934 46.62726200
3057 1 18.95801056 4.03803934 46.62726200
3058 1 18.13374923 4.03803934 44.29589890
3059 1 20.60653322 4.03803934 44.29589890
3060 1 19.78227189 4.03803934 41.96453580
3061 1 22.25505587 4.03803934 41.96453580
3062 1 21.43079455 4.03803934 39.63317270
3063 1 23.90357853 4.03803934 39.63317270
3064 1 23.07931720 4.03803934 37.30180960
3065 1 25.55210119 4.03803934 37.30180960
3066 1 24.72783986 4.03803934 34.97044650
3067 1 27.20062385 4.03803934 34.97044650
3068 1 26.37636252 4.03803934 32.63908340
3069 1 28.84914650 4.03803934 32.63908340
3070 1 28.02488518 4.03803934 30.30772030
3071 1 30.49766916 4.03803934 30.30772030
3072 1 29.67340783 4.03803934 27.97635720
3073 1 32.14619182 4.03803934 27.97635720
3074 1 31.32193049 4.03803934 25.64499410
3075 1 33.79471448 4.03803934 25.64499410
3076 1 32.97045315 4.03803934 23.31363100
3077 1 35.44323713 4.03803934 23.31363100
3078 1 34.61897580 4.03803934 20.98226790
3079 1 37.09175979 4.03803934 20.98226790
3080 1 36.26749846 4.03803934 18.65090480
3081 1 38.74028245 4.03803934 18.65090480
3082 1 37.91602112 4.03803934 16.31954170
3083 1 40.38880511 4.03803934 16.31954170
3084 1 39.56454378 4.03803934 13.98817860
3085 1 42.03732776 4.03803934 13.98817860
3086 1 41.21306643 4.03803934 11.65681550
3087 1 43.68585042 4.03803934 11.65681550
3088 1 42.86158909 4.03803934 9.32545240
3089 1 45.33437308 4.03803934 9.32545240
3090 1 44.51011175 4.03803934 6.99408930
3091 1 46.98289574 4.03803934 6.99408930
3092 1 46.15863441 4.03803934 4.66272620
3093 1 48.63141839 4.03803934 4.66272620
3094 1 47.80715706 4.03803934 2.33136310
3095 1 50.27994105 4.03803934 2.33136310
3096 1 49.45567972 4.03803934 0.00000000
3097 1 51.92846371 4.03803934 0.00000000
3098 1 18.13374923 2.01901967 47.79294355
3099 1 20.60653322 2.01901967 47.79294355
3100 1 19.78227189 2.01901967 45.46158045
3101 1 22.25505587 2.01901967 45.46158045
3102 1 21.43079455 2.01901967 43.13021735
3103 1 23.90357853 2.01901967 43.13021735
3104 1 23.07931720 2.01901967 40.79885425
3105 1 25.55210119 2.01901967 40.79885425
3106 1 24.72783986 2.01901967 38.46749115
3107 1 27.20062385 2.01901967 38.46749115
3108 1 26.37636252 2.01901967 36.13612805
3109 1 28.84914650 2.01901967 36.13612805
3110 1 28.02488518 2.01901967 33.80476495
3111 1 30.49766916 2.01901967 33.80476495
3112 1 29.67340783 2.01901967 31.47340185
3113 1 32.14619182 2.01901967 31.47340185
3114 1 31.32193049 2.01901967 29.14203875
3115 1 33.79471448 2.01901967 29.14203875
3116 1 32.97045315 2.01901967 26.81067565
3117 1 35.44323713 2.01901967 26.81067565
3118 1 34.61897580 2.01901967 24.47931255
3119 1 37.09175979 2.01901967 24.47931255
3120 1 36.26749846 2.01901967 22.14794945
3121 1 38.74028245 2.01901967 22.14794945
3122 1 37.91602112 2.01901967 19.81658635
3123 1 40.38880511 2.01901967 19.81658635
3124 1 39.56454378 2.01901967 17.48522325
3125 1 42.03732776 2.01901967 17.48522325
3126 1 41.21306643 2.01901967 15.15386015
3127 1 43.68585042 2.01901967 15.15386015
3128 1 42.86158909 2.01901967 12.82249705
3129 1 45.33437308 2.01901967 12.82249705
3130 1 44.51011175 2.01901967 10.49113395
3131 1 46.98289574 2.01901967 10.49113395
3132 1 46.15863441 2.01901967 8.15977085
3133 1 48.63141839 2.01901967 8.15977085
3134 1 47.80715706 2.01901967 5.82840775
3135 1 50.27994105 2.01901967 5.82840775
3136 1 49.45567972 2.01901967 3.49704465
3137 1 51.92846371 2.01901967 3.49704465
3138 1 51.10420238 2.01901967 1.16568155
3139 1 53.57698636 2.01901967 1.16568155
3140 1 21.43079455 -0.00000000 46.62726200
3141 1 23.90357853 -0.00000000 46.62726200
3142 1 23.07931720 -0.00000000 44.29589890
3143 1 25.55210119 -0.00000000 44.29589890
3144 1 24.72783986 -0.00000000 41.96453580
3145 1 27.20062385 -0.00000000 41.96453580
3146 1 26.37636252 -0.00000000 39.63317270
3147 1 28.84914650 -0.00000000 39.63317270
3148 1 28.02488518 -0.00000000 37.30180960
3149 1 30.49766916 -0.00000000 37.30180960
3150 1 29.67340783 -0.00000000 34.97044650
3151 1 32.14619182 -0.00000000 34.97044650
3152 1 31.32193049 -0.00000000 32.63908340
3153 1 33.79471448 -0.00000000 32.63908340
3154 1 32.97045315 -0.00000000 30.30772030
3155 1 35.44323713 -0.00000000 30.30772030
3156 1 34.61897580 -0.00000000 27.97635720
3157 1 37.09175979 -0.00000000 27.97635720
3158 1 36.26749846 -0.00000000 25.64499410
3159 1 38.74028245 -0.00000000 25.64499410
3160 1 37.91602112 -0.00000000 23.31363100
3161 1 40.38880511 -0.00000000 23.31363100
3162 1 39.56454378 -0.00000000 20.98226790
3163 1 42.03732776 -0.00000000 20.98226790
3164 1 41.21306643 -0.00000000 18.65090480
3165 1 43.68585042 -0.00000000 18.65090480
3166 1 42.86158909 -0.00000000 16.31954170
3167 1 45.33437308 -0.00000000 16.31954170
3168 1 44.51011175 -0.00000000 13.98817860
3169 1 46.98289574 -0.00000000 13.98817860
3170 1 46.15863441 -0.00000000 11.65681550
3171 1 48.63141839 -0.00000000 11.65681550
3172 1 47.80715706 -0.00000000 9.32545240
3173 1 50.27994105 -0.00000000 9.32545240
3174 1 49.45567972 -0.00000000 6.99408930
3175 1 51.92846371 -0.00000000 6.99408930
3176 1 51.10420238 -0.00000000 4.66272620
3177 1 53.57698636 -0.00000000 4.66272620
3178 1 52.75272504 -0.00000000 2.33136310
3179 1 55.22550902 -0.00000000 2.33136310
3180 1 54.40124769 -0.00000000 -0.00000000
3181 1 56.87403168 -0.00000000 0.00000000
3182 1 0.82426133 30.28529505 33.80476495
3183 1 -0.00000000 30.28529505 31.47340185
3184 2 2.47278399 30.28529505 31.47340185
3185 2 1.64852266 30.28529505 29.14203875
3186 2 4.12130664 30.28529505 29.14203875
3187 2 3.29704531 30.28529505 26.81067565
3188 2 5.76982930 30.28529505 26.81067565
3189 2 4.94556797 30.28529505 24.47931255
3190 2 7.41835196 30.28529505 24.47931255
3191 2 6.59409063 30.28529505 22.14794945
3192 2 9.06687462 30.28529505 22.14794945
3193 2 8.24261329 30.28529505 19.81658635
3194 2 10.71539727 30.28529505 19.81658635
3195 2 9.89113594 30.28529505 17.48522325
3196 2 12.36391993 30.28529505 17.48522325
3197 2 11.53965860 30.28529505 15.15386015
3198 2 14.01244259 30.28529505 15.15386015
3199 2 13.18818126 30.28529505 12.82249705
3200 1 15.66096525 30.28529505 12.82249705
3201 1 14.83670392 30.28529505 10.49113395
3202 1 17.30948790 30.28529505 10.49113395
3203 1 16.48522657 30.28529505 8.15977085
3204 1 18.95801056 30.28529505 8.15977085
3205 1 18.13374923 30.28529505 5.82840775
3206 1 20.60653322 30.28529505 5.82840775
3207 1 19.78227189 30.28529505 3.49704465
3208 1 22.25505587 30.28529505 3.49704465
3209 1 21.43079455 30.28529505 1.16568155
3210 1 23.90357853 30.28529505 1.16568155
3211 1 0.82426133 28.26627538 37.30180960
3212 1 -0.00000000 28.26627538 34.97044650
3213 1 2.47278399 28.26627538 34.97044650
3214 1 1.64852266 28.26627538 32.63908340
3215 2 4.12130664 28.26627538 32.63908340
3216 2 3.29704531 28.26627538 30.30772030
3217 2 5.76982930 28.26627538 30.30772030
3218 2 4.94556797 28.26627538 27.97635720
3219 2 7.41835196 28.26627538 27.97635720
3220 2 6.59409063 28.26627538 25.64499410
3221 2 9.06687462 28.26627538 25.64499410
3222 2 8.24261329 28.26627538 23.31363100
3223 2 10.71539727 28.26627538 23.31363100
3224 2 9.89113594 28.26627538 20.98226790
3225 2 12.36391993 28.26627538 20.98226790
3226 2 11.53965860 28.26627538 18.65090480
3227 2 14.01244259 28.26627538 18.65090480
3228 2 13.18818126 28.26627538 16.31954170
3229 2 15.66096525 28.26627538 16.31954170
3230 2 14.83670392 28.26627538 13.98817860
3231 1 17.30948790 28.26627538 13.98817860
3232 1 16.48522657 28.26627538 11.65681550
3233 1 18.95801056 28.26627538 11.65681550
3234 1 18.13374923 28.26627538 9.32545240
3235 1 20.60653322 28.26627538 9.32545240
3236 1 19.78227189 28.26627538 6.99408930
3237 1 22.25505587 28.26627538 6.99408930
3238 1 21.43079455 28.26627538 4.66272620
3239 1 23.90357853 28.26627538 4.66272620
3240 1 23.07931720 28.26627538 2.33136310
3241 1 25.55210119 28.26627538 2.33136310
3242 1 24.72783986 28.26627538 -0.00000000
3243 1 27.20062385 28.26627538 -0.00000000
3244 1 0.82426133 26.24725571 40.79885425
3245 1 -0.00000000 26.24725571 38.46749115
3246 1 2.47278399 26.24725571 38.46749115
3247 1 1.64852266 26.24725571 36.13612805
3248 1 4.12130664 26.24725571 36.13612805
3249 1 3.29704531 26.24725571 33.80476495
3250 1 5.76982930 26.24725571 33.80476495
3251 2 4.94556797 26.24725571 31.47340185
3252 2 7.41835196 26.24725571 31.47340185
3253 2 6.59409063 26.24725571 29.14203875
3254 2 9.06687462 26.24725571 29.14203875
3255 2 8.24261329 26.24725571 26.81067565
3256 2 10.71539727 26.24725571 26.81067565
3257 2 9.89113594 26.24725571 24.47931255
3258 2 12.36391993 26.24725571 24.47931255
3259 2 11.53965860 26.24725571 22.14794945
3260 2 14.01244259 26.24725571 22.14794945
3261 2 13.18818126 26.24725571 19.81658635
3262 2 15.66096525 26.24725571 19.81658635
3263 2 14.83670392 26.24725571 17.48522325
3264 2 17.30948790 26.24725571 17.48522325
3265 2 16.48522657 26.24725571 15.15386015
3266 1 18.95801056 26.24725571 15.15386015
3267 1 18.13374923 26.24725571 12.82249705
3268 1 20.60653322 26.24725571 12.82249705
3269 1 19.78227189 26.24725571 10.49113395
3270 1 22.25505587 26.24725571 10.49113395
3271 1 21.43079455 26.24725571 8.15977085
3272 1 23.90357853 26.24725571 8.15977085
3273 1 23.07931720 26.24725571 5.82840775
3274 1 25.55210119 26.24725571 5.82840775
3275 1 24.72783986 26.24725571 3.49704465
3276 1 27.20062385 26.24725571 3.49704465
3277 1 26.37636252 26.24725571 1.16568155
3278 1 28.84914650 26.24725571 1.16568155
3279 1 0.82426133 24.22823604 44.29589890
3280 1 -0.00000000 24.22823604 41.96453580
3281 1 2.47278399 24.22823604 41.96453580
3282 1 1.64852266 24.22823604 39.63317270
3283 1 4.12130664 24.22823604 39.63317270
3284 1 3.29704531 24.22823604 37.30180960
3285 1 5.76982930 24.22823604 37.30180960
3286 1 4.94556797 24.22823604 34.97044650
3287 1 7.41835196 24.22823604 34.97044650
3288 1 6.59409063 24.22823604 32.63908340
3289 2 9.06687462 24.22823604 32.63908340
3290 2 8.24261329 24.22823604 30.30772030
3291 2 10.71539727 24.22823604 30.30772030
3292 2 9.89113594 24.22823604 27.97635720
3293 2 12.36391993 24.22823604 27.97635720
3294 2 11.53965860 24.22823604 25.64499410
3295 2 14.01244259 24.22823604 25.64499410
3296 2 13.18818126 24.22823604 23.31363100
3297 2 15.66096525 24.22823604 23.31363100
3298 2 14.83670392 24.22823604 20.98226790
3299 2 17.30948790 24.22823604 20.98226790
3300 2 16.48522657 24.22823604 18.65090480
3301 2 18.95801056 24.22823604 18.65090480
3302 1 18.13374923 24.22823604 16.31954170
3303 1 20.60653322 24.22823604 16.31954170
3304 1 19.78227189 24.22823604 13.98817860
3305 1 22.25505587 24.22823604 13.98817860
3306 1 21.43079455 24.22823604 11.65681550
3307 1 23.90357853 24.22823604 11.65681550
3308 1 23.07931720 24.22823604 9.32545240
3309 1 25.55210119 24.22823604 9.32545240
3310 1 24.72783986 24.22823604 6.99408930
3311 1 27.20062385 24.22823604 6.99408930
3312 1 26.37636252 24.22823604 4.66272620
3313 1 28.84914650 24.22823604 4.66272620
3314 1 28.02488518 24.22823604 2.33136310
3315 1 30.49766916 24.22823604 2.33136310
3316 1 29.67340783 24.22823604 0.00000000
3317 1 32.14619182 24.22823604 -0.00000000
3318 1 0.82426133 22.20921637 47.79294355
3319 1 -0.00000000 22.20921637 45.46158045
3320 1 2.47278399 22.20921637 45.46158045
3321 1 1.64852266 22.20921637 43.13021735
3322 1 4.12130664 22.20921637 43.13021735
3323 1 3.29704531 22.20921637 40.79885425
3324 1 5.76982930 22.20921637 40.79885425
3325 1 4.94556797 22.20921637 38.46749115
3326 1 7.41835196 22.20921637 38.46749115
3327 1 6.59409063 22.20921637 36.13612805
3328 1 9.06687462 22.20921637 36.13612805
3329 1 8.24261329 22.20921637 33.80476495
3330 1 10.71539727 22.20921637 33.80476495
3331 2 9.89113594 22.20921637 31.47340185
3332 2 12.36391993 22.20921637 31.47340185
3333 2 11.53965860 22.20921637 29.14203875
3334 2 14.01244259 22.20921637 29.14203875
3335 2 13.18818126 22.20921637 26.81067565
3336 2 15.66096525 22.20921637 26.81067565
3337 2 14.83670392 22.20921637 24.47931255
3338 2 17.30948790 22.20921637 24.47931255
3339 2 16.48522657 22.20921637 22.14794945
3340 2 18.95801056 22.20921637 22.14794945
3341 2 18.13374923 22.20921637 19.81658635
3342 1 20.60653322 22.20921637 19.81658635
3343 1 19.78227189 22.20921637 17.48522325
3344 1 22.25505587 22.20921637 17.48522325
3345 1 21.43079455 22.20921637 15.15386015
3346 1 23.90357853 22.20921637 15.15386015
3347 1 23.07931720 22.20921637 12.82249705
3348 1 25.55210119 22.20921637 12.82249705
3349 1 24.72783986 22.20921637 10.49113395
3350 1 27.20062385 22.20921637 10.49113395
3351 1 26.37636252 22.20921637 8.15977085
3352 1 28.84914650 22.20921637 8.15977085
3353 1 28.02488518 22.20921637 5.82840775
3354 1 30.49766916 22.20921637 5.82840775
3355 1 29.67340783 22.20921637 3.49704465
3356 1 32.14619182 22.20921637 3.49704465
3357 1 31.32193049 22.20921637 1.16568155
3358 1 33.79471448 22.20921637 1.16568155
3359 1 1.64852266 20.19019670 46.62726200
3360 1 4.12130664 20.19019670 46.62726200
3361 1 3.29704531 20.19019670 44.29589890
3362 1 5.76982930 20.19019670 44.29589890
3363 1 4.94556797 20.19019670 41.96453580
3364 1 7.41835196 20.19019670 41.96453580
3365 1 6.59409063 20.19019670 39.63317270
3366 1 9.06687462 20.19019670 39.63317270
3367 1 8.24261329 20.19019670 37.30180960
3368 1 10.71539727 20.19019670 37.30180960
3369 1 9.89113594 20.19019670 34.97044650
3370 1 12.36391993 20.19019670 34.97044650
3371 1 11.53965860 20.19019670 32.63908340
3372 1 14.01244259 20.19019670 32.63908340
3373 1 13.18818126 20.19019670 30.30772030
3374 1 15.66096525 20.19019670 30.30772030
3375 2 14.83670392 20.19019670 27.97635720
3376 1 17.30948790 20.19019670 27.97635720
3377 2 16.48522657 20.19019670 25.64499410
3378 1 18.95801056 20.19019670 25.64499410
3379 1 18.13374923 20.19019670 23.31363100
3380 1 20.60653322 20.19019670 23.31363100
3381 1 19.78227189 20.19019670 20.98226790
3382 1 22.25505587 20.19019670 20.98226790
3383 1 21.43079455 20.19019670 18.65090480
3384 1 23.90357853 20.19019670 18.65090480
3385 1 23.07931720 20.19019670 16.31954170
3386 1 25.55210119 20.19019670 16.31954170
3387 1 24.72783986 20.19019670 13.98817860
3388 1 27.20062385 20.19019670 13.98817860
3389 1 26.37636252 20.19019670 11.65681550
3390 1 28.84914650 20.19019670 11.65681550
3391 1 28.02488518 20.19019670 9.32545240
3392 1 30.49766916 20.19019670 9.32545240
3393 1 29.67340783 20.19019670 6.99408930
3394 1 32.14619182 20.19019670 6.99408930
3395 1 31.32193049 20.19019670 4.66272620
3396 1 33.79471448 20.19019670 4.66272620
3397 1 32.97045315 20.19019670 2.33136310
3398 1 35.44323713 20.19019670 2.33136310
3399 1 34.61897580 20.19019670 0.00000000
3400 1 37.09175979 20.19019670 -0.00000000
3401 1 3.29704531 18.17117703 47.79294355
3402 1 5.76982930 18.17117703 47.79294355
3403 1 4.94556797 18.17117703 45.46158045
3404 1 7.41835196 18.17117703 45.46158045
3405 1 6.59409063 18.17117703 43.13021735
3406 1 9.06687462 18.17117703 43.13021735
3407 1 8.24261329 18.17117703 40.79885425
3408 1 10.71539727 18.17117703 40.79885425
3409 1 9.89113594 18.17117703 38.46749115
3410 1 12.36391993 18.17117703 38.46749115
3411 1 11.53965860 18.17117703 36.13612805
3412 1 14.01244259 18.17117703 36.13612805
3413 1 13.18818126 18.17117703 33.80476495
3414 1 15.66096525 18.17117703 33.80476495
3415 1 14.83670392 18.17117703 31.47340185
3416 1 17.30948790 18.17117703 31.47340185
3417 1 16.48522657 18.17117703 29.14203875
3418 1 18.95801056 18.17117703 29.14203875
3419 1 18.13374923 18.17117703 26.81067565
3420 1 20.60653322 18.17117703 26.81067565
3421 1 19.78227189 18.17117703 24.47931255
3422 1 22.25505587 18.17117703 24.47931255
3423 1 21.43079455 18.17117703 22.14794945
3424 1 23.90357853 18.17117703 22.14794945
3425 1 23.07931720 18.17117703 19.81658635
3426 1 25.55210119 18.17117703 19.81658635
3427 1 24.72783986 18.17117703 17.48522325
3428 1 27.20062385 18.17117703 17.48522325
3429 1 26.37636252 18.17117703 15.15386015
3430 1 28.84914650 18.17117703 15.15386015
3431 1 28.02488518 18.17117703 12.82249705
3432 1 30.49766916 18.17117703 12.82249705
3433 1 29.67340783 18.17117703 10.49113395
3434 1 32.14619182 18.17117703 10.49113395
3435 1 31.32193049 18.17117703 8.15977085
3436 1 33.79471448 18.17117703 8.15977085
3437 1 32.97045315 18.17117703 5.82840775
3438 1 35.44323713 18.17117703 5.82840775
3439 1 34.61897580 18.17117703 3.49704465
3440 1 37.09175979 18.17117703 3.49704465
3441 1 36.26749846 18.17117703 1.16568155
3442 1 38.74028245 18.17117703 1.16568155
3443 1 6.59409063 16.15215736 46.62726200
3444 1 9.06687462 16.15215736 46.62726200
3445 1 8.24261329 16.15215736 44.29589890
3446 1 10.71539727 16.15215736 44.29589890
3447 1 9.89113594 16.15215736 41.96453580
3448 1 12.36391993 16.15215736 41.96453580
3449 1 11.53965860 16.15215736 39.63317270
3450 1 14.01244259 16.15215736 39.63317270
3451 1 13.18818126 16.15215736 37.30180960
3452 1 15.66096525 16.15215736 37.30180960
3453 1 14.83670392 16.15215736 34.97044650
3454 1 17.30948790 16.15215736 34.97044650
3455 1 16.48522657 16.15215736 32.63908340
3456 1 18.95801056 16.15215736 32.63908340
3457 1 18.13374923 16.15215736 30.30772030
3458 1 20.60653322 16.15215736 30.30772030
3459 1 19.78227189 16.15215736 27.97635720
3460 1 22.25505587 16.15215736 27.97635720
3461 1 21.43079455 16.15215736 25.64499410
3462 1 23.90357853 16.15215736 25.64499410
3463 1 23.07931720 16.15215736 23.31363100
3464 1 25.55210119 16.15215736 23.31363100
3465 1 24.72783986 16.15215736 20.98226790
3466 1 27.20062385 16.15215736 20.98226790
3467 1 26.37636252 16.15215736 18.65090480
3468 1 28.84914650 16.15215736 18.65090480
3469 1 28.02488518 16.15215736 16.31954170
3470 1 30.49766916 16.15215736 16.31954170
3471 1 29.67340783 16.15215736 13.98817860
3472 1 32.14619182 16.15215736 13.98817860
3473 1 31.32193049 16.15215736 11.65681550
3474 1 33.79471448 16.15215736 11.65681550
3475 1 32.97045315 16.15215736 9.32545240
3476 1 35.44323713 16.15215736 9.32545240
3477 1 34.61897580 16.15215736 6.99408930
3478 1 37.09175979 16.15215736 6.99408930
3479 1 36.26749846 16.15215736 4.66272620
3480 1 38.74028245 16.15215736 4.66272620
3481 1 37.91602112 16.15215736 2.33136310
3482 1 40.38880511 16.15215736 2.33136310
3483 1 39.56454378 16.15215736 -0.00000000
3484 1 42.03732776 16.15215736 -0.00000000
3485 1 8.24261329 14.13313769 47.79294355
3486 1 10.71539727 14.13313769 47.79294355
3487 1 9.89113594 14.13313769 45.46158045
3488 1 12.36391993 14.13313769 45.46158045
3489 1 11.53965860 14.13313769 43.13021735
3490 1 14.01244259 14.13313769 43.13021735
3491 1 13.18818126 14.13313769 40.79885425
3492 1 15.66096525 14.13313769 40.79885425
3493 1 14.83670392 14.13313769 38.46749115
3494 1 17.30948790 14.13313769 38.46749115
3495 1 16.48522657 14.13313769 36.13612805
3496 1 18.95801056 14.13313769 36.13612805
3497 1 18.13374923 14.13313769 33.80476495
3498 1 20.60653322 14.13313769 33.80476495
3499 1 19.78227189 14.13313769 31.47340185
3500 1 22.25505587 14.13313769 31.47340185
3501 1 21.43079455 14.13313769 29.14203875
3502 1 23.90357853 14.13313769 29.14203875
3503 1 23.07931720 14.13313769 26.81067565
3504 1 25.55210119 14.13313769 26.81067565
3505 1 24.72783986 14.13313769 24.47931255
3506 1 27.20062385 14.13313769 24.47931255
3507 1 26.37636252 14.13313769 22.14794945
3508 1 28.84914650 14.13313769 22.14794945
3509 1 28.02488518 14.13313769 19.81658635
3510 1 30.49766916 14.13313769 19.81658635
3511 1 29.67340783 14.13313769 17.48522325
3512 1 32.14619182 14.13313769 17.48522325
3513 1 31.32193049 14.13313769 15.15386015
3514 1 33.79471448 14.13313769 15.15386015
3515 1 32.97045315 14.13313769 12.82249705
3516 1 35.44323713 14.13313769 12.82249705
3517 1 34.61897580 14.13313769 10.49113395
3518 1 37.09175979 14.13313769 10.49113395
3519 1 36.26749846 14.13313769 8.15977085
3520 1 38.74028245 14.13313769 8.15977085
3521 1 37.91602112 14.13313769 5.82840775
3522 1 40.38880511 14.13313769 5.82840775
3523 1 39.56454378 14.13313769 3.49704465
3524 1 42.03732776 14.13313769 3.49704465
3525 1 41.21306643 14.13313769 1.16568155
3526 1 43.68585042 14.13313769 1.16568155
3527 1 11.53965860 12.11411802 46.62726200
3528 1 14.01244259 12.11411802 46.62726200
3529 1 13.18818126 12.11411802 44.29589890
3530 1 15.66096525 12.11411802 44.29589890
3531 1 14.83670392 12.11411802 41.96453580
3532 1 17.30948790 12.11411802 41.96453580
3533 1 16.48522657 12.11411802 39.63317270
3534 1 18.95801056 12.11411802 39.63317270
3535 1 18.13374923 12.11411802 37.30180960
3536 1 20.60653322 12.11411802 37.30180960
3537 1 19.78227189 12.11411802 34.97044650
3538 1 22.25505587 12.11411802 34.97044650
3539 1 21.43079455 12.11411802 32.63908340
3540 1 23.90357853 12.11411802 32.63908340
3541 1 23.07931720 12.11411802 30.30772030
3542 1 25.55210119 12.11411802 30.30772030
3543 1 24.72783986 12.11411802 27.97635720
3544 1 27.20062385 12.11411802 27.97635720
3545 1 26.37636252 12.11411802 25.64499410
3546 1 28.84914650 12.11411802 25.64499410
3547 1 28.02488518 12.11411802 23.31363100
3548 1 30.49766916 12.11411802 23.31363100
3549 1 29.67340783 12.11411802 20.98226790
3550 1 32.14619182 12.11411802 20.98226790
3551 1 31.32193049 12.11411802 18.65090480
3552 1 33.79471448 12.11411802 18.65090480
3553 1 32.97045315 12.11411802 16.31954170
3554 1 35.44323713 12.11411802 16.31954170
3555 1 34.61897580 12.11411802 13.98817860
3556 1 37.09175979 12.11411802 13.98817860
3557 1 36.26749846 12.11411802 11.65681550
3558 1 38.74028245 12.11411802 11.65681550
3559 1 37.91602112 12.11411802 9.32545240
3560 1 40.38880511 12.11411802 9.32545240
3561 1 39.56454378 12.11411802 6.99408930
3562 1 42.03732776 12.11411802 6.99408930
3563 1 41.21306643 12.11411802 4.66272620
3564 1 43.68585042 12.11411802 4.66272620
3565 1 42.86158909 12.11411802 2.33136310
3566 1 45.33437308 12.11411802 2.33136310
3567 1 44.51011175 12.11411802 -0.00000000
3568 1 46.98289574 12.11411802 -0.00000000
3569 1 13.18818126 10.09509835 47.79294355
3570 1 15.66096525 10.09509835 47.79294355
3571 1 14.83670392 10.09509835 45.46158045
3572 1 17.30948790 10.09509835 45.46158045
3573 1 16.48522657 10.09509835 43.13021735
3574 1 18.95801056 10.09509835 43.13021735
3575 1 18.13374923 10.09509835 40.79885425
3576 1 20.60653322 10.09509835 40.79885425
3577 1 19.78227189 10.09509835 38.46749115
3578 1 22.25505587 10.09509835 38.46749115
3579 1 21.43079455 10.09509835 36.13612805
3580 1 23.90357853 10.09509835 36.13612805
3581 1 23.07931720 10.09509835 33.80476495
3582 1 25.55210119 10.09509835 33.80476495
3583 1 24.72783986 10.09509835 31.47340185
3584 1 27.20062385 10.09509835 31.47340185
3585 1 26.37636252 10.09509835 29.14203875
3586 1 28.84914650 10.09509835 29.14203875
3587 1 28.02488518 10.09509835 26.81067565
3588 1 30.49766916 10.09509835 26.81067565
3589 1 29.67340783 10.09509835 24.47931255
3590 1 32.14619182 10.09509835 24.47931255
3591 1 31.32193049 10.09509835 22.14794945
3592 1 33.79471448 10.09509835 22.14794945
3593 1 32.97045315 10.09509835 19.81658635
3594 1 35.44323713 10.09509835 19.81658635
3595 1 34.61897580 10.09509835 17.48522325
3596 1 37.09175979 10.09509835 17.48522325
3597 1 36.26749846 10.09509835 15.15386015
3598 1 38.74028245 10.09509835 15.15386015
3599 1 37.91602112 10.09509835 12.82249705
3600 1 40.38880511 10.09509835 12.82249705
3601 1 39.56454378 10.09509835 10.49113395
3602 1 42.03732776 10.09509835 10.49113395
3603 1 41.21306643 10.09509835 8.15977085
3604 1 43.68585042 10.09509835 8.15977085
3605 1 42.86158909 10.09509835 5.82840775
3606 1 45.33437308 10.09509835 5.82840775
3607 1 44.51011175 10.09509835 3.49704465
3608 1 46.98289574 10.09509835 3.49704465
3609 1 46.15863441 10.09509835 1.16568155
3610 1 48.63141839 10.09509835 1.16568155
3611 1 16.48522657 8.07607868 46.62726200
3612 1 18.95801056 8.07607868 46.62726200
3613 1 18.13374923 8.07607868 44.29589890
3614 1 20.60653322 8.07607868 44.29589890
3615 1 19.78227189 8.07607868 41.96453580
3616 1 22.25505587 8.07607868 41.96453580
3617 1 21.43079455 8.07607868 39.63317270
3618 1 23.90357853 8.07607868 39.63317270
3619 1 23.07931720 8.07607868 37.30180960
3620 1 25.55210119 8.07607868 37.30180960
3621 1 24.72783986 8.07607868 34.97044650
3622 1 27.20062385 8.07607868 34.97044650
3623 1 26.37636252 8.07607868 32.63908340
3624 1 28.84914650 8.07607868 32.63908340
3625 1 28.02488518 8.07607868 30.30772030
3626 1 30.49766916 8.07607868 30.30772030
3627 1 29.67340783 8.07607868 27.97635720
3628 1 32.14619182 8.07607868 27.97635720
3629 1 31.32193049 8.07607868 25.64499410
3630 1 33.79471448 8.07607868 25.64499410
3631 1 32.97045315 8.07607868 23.31363100
3632 1 35.44323713 8.07607868 23.31363100
3633 1 34.61897580 8.07607868 20.98226790
3634 1 37.09175979 8.07607868 20.98226790
3635 1 36.26749846 8.07607868 18.65090480
3636 1 38.74028245 8.07607868 18.65090480
3637 1 37.91602112 8.07607868 16.31954170
3638 1 40.38880511 8.07607868 16.31954170
3639 1 39.56454378 8.07607868 13.98817860
3640 1 42.03732776 8.07607868 13.98817860
3641 1 41.21306643 8.07607868 11.65681550
3642 1 43.68585042 8.07607868 11.65681550
3643 1 42.86158909 8.07607868 9.32545240
3644 1 45.33437308 8.07607868 9.32545240
3645 1 44.51011175 8.07607868 6.99408930
3646 1 46.98289574 8.07607868 6.99408930
3647 1 46.15863441 8.07607868 4.66272620
3648 1 48.63141839 8.07607868 4.66272620
3649 1 47.80715706 8.07607868 2.33136310
3650 1 50.27994105 8.07607868 2.33136310
3651 1 49.45567972 8.07607868 0.00000000
3652 1 51.92846371 8.07607868 -0.00000000
3653 1 18.13374923 6.05705901 47.79294355
3654 1 20.60653322 6.05705901 47.79294355
3655 1 19.78227189 6.05705901 45.46158045
3656 1 22.25505587 6.05705901 45.46158045
3657 1 21.43079455 6.05705901 43.13021735
3658 1 23.90357853 6.05705901 43.13021735
3659 1 23.07931720 6.05705901 40.79885425
3660 1 25.55210119 6.05705901 40.79885425
3661 1 24.72783986 6.05705901 38.46749115
3662 1 27.20062385 6.05705901 38.46749115
3663 1 26.37636252 6.05705901 36.13612805
3664 1 28.84914650 6.05705901 36.13612805
3665 1 28.02488518 6.05705901 33.80476495
3666 1 30.49766916 6.05705901 33.80476495
3667 1 29.67340783 6.05705901 31.47340185
3668 1 32.14619182 6.05705901 31.47340185
3669 1 31.32193049 6.05705901 29.14203875
3670 1 33.79471448 6.05705901 29.14203875
3671 1 32.97045315 6.05705901 26.81067565
3672 1 35.44323713 6.05705901 26.81067565
3673 1 34.61897580 6.05705901 24.47931255
3674 1 37.09175979 6.05705901 24.47931255
3675 1 36.26749846 6.05705901 22.14794945
3676 1 38.74028245 6.05705901 22.14794945
3677 1 37.91602112 6.05705901 19.81658635
3678 1 40.38880511 6.05705901 19.81658635
3679 1 39.56454378 6.05705901 17.48522325
3680 1 42.03732776 6.05705901 17.48522325
3681 1 41.21306643 6.05705901 15.15386015
3682 1 43.68585042 6.05705901 15.15386015
3683 1 42.86158909 6.05705901 12.82249705
3684 1 45.33437308 6.05705901 12.82249705
3685 1 44.51011175 6.05705901 10.49113395
3686 1 46.98289574 6.05705901 10.49113395
3687 1 46.15863441 6.05705901 8.15977085
3688 1 48.63141839 6.05705901 8.15977085
3689 1 47.80715706 6.05705901 5.82840775
3690 1 50.27994105 6.05705901 5.82840775
3691 1 49.45567972 6.05705901 3.49704465
3692 1 51.92846371 6.05705901 3.49704465
3693 1 51.10420238 6.05705901 1.16568155
3694 1 53.57698636 6.05705901 1.16568155
3695 1 21.43079455 4.03803934 46.62726200
3696 1 23.90357853 4.03803934 46.62726200
3697 1 23.07931720 4.03803934 44.29589890
3698 1 25.55210119 4.03803934 44.29589890
3699 1 24.72783986 4.03803934 41.96453580
3700 1 27.20062385 4.03803934 41.96453580
3701 1 26.37636252 4.03803934 39.63317270
3702 1 28.84914650 4.03803934 39.63317270
3703 1 28.02488518 4.03803934 37.30180960
3704 1 30.49766916 4.03803934 37.30180960
3705 1 29.67340783 4.03803934 34.97044650
3706 1 32.14619182 4.03803934 34.97044650
3707 1 31.32193049 4.03803934 32.63908340
3708 1 33.79471448 4.03803934 32.63908340
3709 1 32.97045315 4.03803934 30.30772030
3710 1 35.44323713 4.03803934 30.30772030
3711 1 34.61897580 4.03803934 27.97635720
3712 1 37.09175979 4.03803934 27.97635720
3713 1 36.26749846 4.03803934 25.64499410
3714 1 38.74028245 4.03803934 25.64499410
3715 1 37.91602112 4.03803934 23.31363100
3716 1 40.38880511 4.03803934 23.31363100
3717 1 39.56454378 4.03803934 20.98226790
3718 1 42.03732776 4.03803934 20.98226790
3719 1 41.21306643 4.03803934 18.65090480
3720 1 43.68585042 4.03803934 18.65090480
3721 1 42.86158909 4.03803934 16.31954170
3722 1 45.33437308 4.03803934 16.31954170
3723 1 44.51011175 4.03803934 13.98817860
3724 1 46.98289574 4.03803934 13.98817860
3725 1 46.15863441 4.03803934 11.65681550
3726 1 48.63141839 4.03803934 11.65681550
3727 1 47.80715706 4.03803934 9.32545240
3728 1 50.27994105 4.03803934 9.32545240
3729 1 49.45567972 4.03803934 6.99408930
3730 1 51.92846371 4.03803934 6.99408930
3731 1 51.10420238 4.03803934 4.66272620
3732 1 53.57698636 4.03803934 4.66272620
3733 1 52.75272504 4.03803934 2.33136310
3734 1 55.22550902 4.03803934 2.33136310
3735 1 54.40124769 4.03803934 -0.00000000
3736 1 56.87403168 4.03803934 -0.00000000
3737 1 23.07931720 2.01901967 47.79294355
3738 1 25.55210119 2.01901967 47.79294355
3739 1 24.72783986 2.01901967 45.46158045
3740 1 27.20062385 2.01901967 45.46158045
3741 1 26.37636252 2.01901967 43.13021735
3742 1 28.84914650 2.01901967 43.13021735
3743 1 28.02488518 2.01901967 40.79885425
3744 1 30.49766916 2.01901967 40.79885425
3745 1 29.67340783 2.01901967 38.46749115
3746 1 32.14619182 2.01901967 38.46749115
3747 1 31.32193049 2.01901967 36.13612805
3748 1 33.79471448 2.01901967 36.13612805
3749 1 32.97045315 2.01901967 33.80476495
3750 1 35.44323713 2.01901967 33.80476495
3751 1 34.61897580 2.01901967 31.47340185
3752 1 37.09175979 2.01901967 31.47340185
3753 1 36.26749846 2.01901967 29.14203875
3754 1 38.74028245 2.01901967 29.14203875
3755 1 37.91602112 2.01901967 26.81067565
3756 1 40.38880511 2.01901967 26.81067565
3757 1 39.56454378 2.01901967 24.47931255
3758 1 42.03732776 2.01901967 24.47931255
3759 1 41.21306643 2.01901967 22.14794945
3760 1 43.68585042 2.01901967 22.14794945
3761 1 42.86158909 2.01901967 19.81658635
3762 1 45.33437308 2.01901967 19.81658635
3763 1 44.51011175 2.01901967 17.48522325
3764 1 46.98289574 2.01901967 17.48522325
3765 1 46.15863441 2.01901967 15.15386015
3766 1 48.63141839 2.01901967 15.15386015
3767 1 47.80715706 2.01901967 12.82249705
3768 1 50.27994105 2.01901967 12.82249705
3769 1 49.45567972 2.01901967 10.49113395
3770 1 51.92846371 2.01901967 10.49113395
3771 1 51.10420238 2.01901967 8.15977085
3772 1 53.57698636 2.01901967 8.15977085
3773 1 52.75272504 2.01901967 5.82840775
3774 1 55.22550902 2.01901967 5.82840775
3775 1 54.40124769 2.01901967 3.49704465
3776 1 56.87403168 2.01901967 3.49704465
3777 1 56.04977035 2.01901967 1.16568155
3778 1 58.52255434 2.01901967 1.16568155
3779 1 26.37636252 0.00000000 46.62726200
3780 1 28.84914650 0.00000000 46.62726200
3781 1 28.02488518 0.00000000 44.29589890
3782 1 30.49766916 0.00000000 44.29589890
3783 1 29.67340783 0.00000000 41.96453580
3784 1 32.14619182 0.00000000 41.96453580
3785 1 31.32193049 0.00000000 39.63317270
3786 1 33.79471448 0.00000000 39.63317270
3787 1 32.97045315 0.00000000 37.30180960
3788 1 35.44323713 0.00000000 37.30180960
3789 1 34.61897580 0.00000000 34.97044650
3790 1 37.09175979 0.00000000 34.97044650
3791 1 36.26749846 0.00000000 32.63908340
3792 1 38.74028245 0.00000000 32.63908340
3793 1 37.91602112 0.00000000 30.30772030
3794 1 40.38880511 0.00000000 30.30772030
3795 1 39.56454378 0.00000000 27.97635720
3796 1 42.03732776 0.00000000 27.97635720
3797 1 41.21306643 0.00000000 25.64499410
3798 1 43.68585042 0.00000000 25.64499410
3799 1 42.86158909 0.00000000 23.31363100
3800 1 45.33437308 0.00000000 23.31363100
3801 1 44.51011175 0.00000000 20.98226790
3802 1 46.98289574 0.00000000 20.98226790
3803 1 46.15863441 0.00000000 18.65090480
3804 1 48.63141839 0.00000000 18.65090480
3805 1 47.80715706 0.00000000 16.31954170
3806 1 50.27994105 0.00000000 16.31954170
3807 1 49.45567972 0.00000000 13.98817860
3808 1 51.92846371 0.00000000 13.98817860
3809 1 51.10420238 0.00000000 11.65681550
3810 1 53.57698636 0.00000000 11.65681550
3811 1 52.75272504 0.00000000 9.32545240
3812 1 55.22550902 0.00000000 9.32545240
3813 1 54.40124769 0.00000000 6.99408930
3814 1 56.87403168 0.00000000 6.99408930
3815 1 56.04977035 0.00000000 4.66272620
3816 1 58.52255434 0.00000000 4.66272620
3817 1 57.69829301 0.00000000 2.33136310
3818 1 60.17107699 0.00000000 2.33136310
3819 1 59.34681567 0.00000000 0.00000000
3820 1 61.81959965 0.00000000 0.00000000
3821 1 0.82426133 30.28529505 40.79885425
3822 1 -0.00000000 30.28529505 38.46749115
3823 1 2.47278399 30.28529505 38.46749115
3824 1 1.64852266 30.28529505 36.13612805
3825 1 4.12130664 30.28529505 36.13612805
3826 1 3.29704531 30.28529505 33.80476495
3827 2 5.76982930 30.28529505 33.80476495
3828 2 4.94556797 30.28529505 31.47340185
3829 2 7.41835196 30.28529505 31.47340185
3830 2 6.59409063 30.28529505 29.14203875
3831 2 9.06687462 30.28529505 29.14203875
3832 2 8.24261329 30.28529505 26.81067565
3833 2 10.71539727 30.28529505 26.81067565
3834 2 9.89113594 30.28529505 24.47931255
3835 2 12.36391993 30.28529505 24.47931255
3836 2 11.53965860 30.28529505 22.14794945
3837 2 14.01244259 30.28529505 22.14794945
3838 2 13.18818126 30.28529505 19.81658635
3839 2 15.66096525 30.28529505 19.81658635
3840 2 14.83670392 30.28529505 17.48522325
3841 2 17.30948790 30.28529505 17.48522325
3842 2 16.48522657 30.28529505 15.15386015
3843 2 18.95801056 30.28529505 15.15386015
3844 1 18.13374923 30.28529505 12.82249705
3845 1 20.60653322 30.28529505 12.82249705
3846 1 19.78227189 30.28529505 10.49113395
3847 1 22.25505587 30.28529505 10.49113395
3848 1 21.43079455 30.28529505 8.15977085
3849 1 23.90357853 30.28529505 8.15977085
3850 1 23.07931720 30.28529505 5.82840775
3851 1 25.55210119 30.28529505 5.82840775
3852 1 24.72783986 30.28529505 3.49704465
3853 1 27.20062385 30.28529505 3.49704465
3854 1 26.37636252 30.28529505 1.16568155
3855 1 28.84914650 30.28529505 1.16568155
3856 1 0.82426133 28.26627538 44.29589890
3857 1 0.00000000 28.26627538 41.96453580
3858 1 2.47278399 28.26627538 41.96453580
3859 1 1.64852266 28.26627538 39.63317270
3860 1 4.12130664 28.26627538 39.63317270
3861 1 3.29704531 28.26627538 37.30180960
3862 1 5.76982930 28.26627538 37.30180960
3863 1 4.94556797 28.26627538 34.97044650
3864 2 7.41835196 28.26627538 34.97044650
3865 2 6.59409063 28.26627538 32.63908340
3866 2 9.06687462 28.26627538 32.63908340
3867 2 8.24261329 28.26627538 30.30772030
3868 2 10.71539727 28.26627538 30.30772030
3869 2 9.89113594 28.26627538 27.97635720
3870 2 12.36391993 28.26627538 27.97635720
3871 2 11.53965860 28.26627538 25.64499410
3872 2 14.01244259 28.26627538 25.64499410
3873 2 13.18818126 28.26627538 23.31363100
3874 2 15.66096525 28.26627538 23.31363100
3875 2 14.83670392 28.26627538 20.98226790
3876 2 17.30948790 28.26627538 20.98226790
3877 2 16.48522657 28.26627538 18.65090480
3878 2 18.95801056 28.26627538 18.65090480
3879 2 18.13374923 28.26627538 16.31954170
3880 1 20.60653322 28.26627538 16.31954170
3881 1 19.78227189 28.26627538 13.98817860
3882 1 22.25505587 28.26627538 13.98817860
3883 1 21.43079455 28.26627538 11.65681550
3884 1 23.90357853 28.26627538 11.65681550
3885 1 23.07931720 28.26627538 9.32545240
3886 1 25.55210119 28.26627538 9.32545240
3887 1 24.72783986 28.26627538 6.99408930
3888 1 27.20062385 28.26627538 6.99408930
3889 1 26.37636252 28.26627538 4.66272620
3890 1 28.84914650 28.26627538 4.66272620
3891 1 28.02488518 28.26627538 2.33136310
3892 1 30.49766916 28.26627538 2.33136310
3893 1 29.67340783 28.26627538 0.00000000
3894 1 32.14619182 28.26627538 -0.00000000
3895 1 0.82426133 26.24725571 47.79294355
3896 1 0.00000000 26.24725571 45.46158045
3897 1 2.47278399 26.24725571 45.46158045
3898 1 1.64852266 26.24725571 43.13021735
3899 1 4.12130664 26.24725571 43.13021735
3900 1 3.29704531 26.24725571 40.79885425
3901 1 5.76982930 26.24725571 40.79885425
3902 1 4.94556797 26.24725571 38.46749115
3903 1 7.41835196 26.24725571 38.46749115
3904 1 6.59409063 26.24725571 36.13612805
3905 1 9.06687462 26.24725571 36.13612805
3906 2 8.24261329 26.24725571 33.80476495
3907 2 10.71539727 26.24725571 33.80476495
3908 2 9.89113594 26.24725571 31.47340185
3909 2 12.36391993 26.24725571 31.47340185
3910 2 11.53965860 26.24725571 29.14203875
3911 2 14.01244259 26.24725571 29.14203875
3912 2 13.18818126 26.24725571 26.81067565
3913 2 15.66096525 26.24725571 26.81067565
3914 2 14.83670392 26.24725571 24.47931255
3915 2 17.30948790 26.24725571 24.47931255
3916 2 16.48522657 26.24725571 22.14794945
3917 2 18.95801056 26.24725571 22.14794945
3918 2 18.13374923 26.24725571 19.81658635
3919 2 20.60653322 26.24725571 19.81658635
3920 2 19.78227189 26.24725571 17.48522325
3921 1 22.25505587 26.24725571 17.48522325
3922 1 21.43079455 26.24725571 15.15386015
3923 1 23.90357853 26.24725571 15.15386015
3924 1 23.07931720 26.24725571 12.82249705
3925 1 25.55210119 26.24725571 12.82249705
3926 1 24.72783986 26.24725571 10.49113395
3927 1 27.20062385 26.24725571 10.49113395
3928 1 26.37636252 26.24725571 8.15977085
3929 1 28.84914650 26.24725571 8.15977085
3930 1 28.02488518 26.24725571 5.82840775
3931 1 30.49766916 26.24725571 5.82840775
3932 1 29.67340783 26.24725571 3.49704465
3933 1 32.14619182 26.24725571 3.49704465
3934 1 31.32193049 26.24725571 1.16568155
3935 1 33.79471448 26.24725571 1.16568155
3936 1 1.64852266 24.22823604 46.62726200
3937 1 4.12130664 24.22823604 46.62726200
3938 1 3.29704531 24.22823604 44.29589890
3939 1 5.76982930 24.22823604 44.29589890
3940 1 4.94556797 24.22823604 41.96453580
3941 1 7.41835196 24.22823604 41.96453580
3942 1 6.59409063 24.22823604 39.63317270
3943 1 9.06687462 24.22823604 39.63317270
3944 1 8.24261329 24.22823604 37.30180960
3945 1 10.71539727 24.22823604 37.30180960
3946 1 9.89113594 24.22823604 34.97044650
3947 1 12.36391993 24.22823604 34.97044650
3948 2 11.53965860 24.22823604 32.63908340
3949 2 14.01244259 24.22823604 32.63908340
3950 2 13.18818126 24.22823604 30.30772030
3951 2 15.66096525 24.22823604 30.30772030
3952 2 14.83670392 24.22823604 27.97635720
3953 2 17.30948790 24.22823604 27.97635720
3954 2 16.48522657 24.22823604 25.64499410
3955 2 18.95801056 24.22823604 25.64499410
3956 2 18.13374923 24.22823604 23.31363100
3957 2 20.60653322 24.22823604 23.31363100
3958 2 19.78227189 24.22823604 20.98226790
3959 1 22.25505587 24.22823604 20.98226790
3960 1 21.43079455 24.22823604 18.65090480
3961 1 23.90357853 24.22823604 18.65090480
3962 1 23.07931720 24.22823604 16.31954170
3963 1 25.55210119 24.22823604 16.31954170
3964 1 24.72783986 24.22823604 13.98817860
3965 1 27.20062385 24.22823604 13.98817860
3966 1 26.37636252 24.22823604 11.65681550
3967 1 28.84914650 24.22823604 11.65681550
3968 1 28.02488518 24.22823604 9.32545240
3969 1 30.49766916 24.22823604 9.32545240
3970 1 29.67340783 24.22823604 6.99408930
3971 1 32.14619182 24.22823604 6.99408930
3972 1 31.32193049 24.22823604 4.66272620
3973 1 33.79471448 24.22823604 4.66272620
3974 1 32.97045315 24.22823604 2.33136310
3975 1 35.44323713 24.22823604 2.33136310
3976 1 34.61897580 24.22823604 0.00000000
3977 1 37.09175979 24.22823604 -0.00000000
3978 1 3.29704531 22.20921637 47.79294355
3979 1 5.76982930 22.20921637 47.79294355
3980 1 4.94556797 22.20921637 45.46158045
3981 1 7.41835196 22.20921637 45.46158045
3982 1 6.59409063 22.20921637 43.13021735
3983 1 9.06687462 22.20921637 43.13021735
3984 1 8.24261329 22.20921637 40.79885425
3985 1 10.71539727 22.20921637 40.79885425
3986 1 9.89113594 22.20921637 38.46749115
3987 1 12.36391993 22.20921637 38.46749115
3988 1 11.53965860 22.20921637 36.13612805
3989 1 14.01244259 22.20921637 36.13612805
3990 1 13.18818126 22.20921637 33.80476495
3991 1 15.66096525 22.20921637 33.80476495
3992 2 14.83670392 22.20921637 31.47340185
3993 1 17.30948790 22.20921637 31.47340185
3994 2 16.48522657 22.20921637 29.14203875
3995 1 18.95801056 22.20921637 29.14203875
3996 2 18.13374923 22.20921637 26.81067565
3997 1 20.60653322 22.20921637 26.81067565
3998 2 19.78227189 22.20921637 24.47931255
3999 1 22.25505587 22.20921637 24.47931255
4000 1 21.43079455 22.20921637 22.14794945
4001 1 23.90357853 22.20921637 22.14794945
4002 1 23.07931720 22.20921637 19.81658635
4003 1 25.55210119 22.20921637 19.81658635
4004 1 24.72783986 22.20921637 17.48522325
4005 1 27.20062385 22.20921637 17.48522325
4006 1 26.37636252 22.20921637 15.15386015
4007 1 28.84914650 22.20921637 15.15386015
4008 1 28.02488518 22.20921637 12.82249705
4009 1 30.49766916 22.20921637 12.82249705
4010 1 29.67340783 22.20921637 10.49113395
4011 1 32.14619182 22.20921637 10.49113395
4012 1 31.32193049 22.20921637 8.15977085
4013 1 33.79471448 22.20921637 8.15977085
4014 1 32.97045315 22.20921637 5.82840775
4015 1 35.44323713 22.20921637 5.82840775
4016 1 34.61897580 22.20921637 3.49704465
4017 1 37.09175979 22.20921637 3.49704465
4018 1 36.26749846 22.20921637 1.16568155
4019 1 38.74028245 22.20921637 1.16568155
4020 1 6.59409063 20.19019670 46.62726200
4021 1 9.06687462 20.19019670 46.62726200
4022 1 8.24261329 20.19019670 44.29589890
4023 1 10.71539727 20.19019670 44.29589890
4024 1 9.89113594 20.19019670 41.96453580
4025 1 12.36391993 20.19019670 41.96453580
4026 1 11.53965860 20.19019670 39.63317270
4027 1 14.01244259 20.19019670 39.63317270
4028 1 13.18818126 20.19019670 37.30180960
4029 1 15.66096525 20.19019670 37.30180960
4030 1 14.83670392 20.19019670 34.97044650
4031 1 17.30948790 20.19019670 34.97044650
4032 1 16.48522657 20.19019670 32.63908340
4033 1 18.95801056 20.19019670 32.63908340
4034 1 18.13374923 20.19019670 30.30772030
4035 1 20.60653322 20.19019670 30.30772030
4036 1 19.78227189 20.19019670 27.97635720
4037 1 22.25505587 20.19019670 27.97635720
4038 1 21.43079455 20.19019670 25.64499410
4039 1 23.90357853 20.19019670 25.64499410
4040 1 23.07931720 20.19019670 23.31363100
4041 1 25.55210119 20.19019670 23.31363100
4042 1 24.72783986 20.19019670 20.98226790
4043 1 27.20062385 20.19019670 20.98226790
4044 1 26.37636252 20.19019670 18.65090480
4045 1 28.84914650 20.19019670 18.65090480
4046 1 28.02488518 20.19019670 16.31954170
4047 1 30.49766916 20.19019670 16.31954170
4048 1 29.67340783 20.19019670 13.98817860
4049 1 32.14619182 20.19019670 13.98817860
4050 1 31.32193049 20.19019670 11.65681550
4051 1 33.79471448 20.19019670 11.65681550
4052 1 32.97045315 20.19019670 9.32545240
4053 1 35.44323713 20.19019670 9.32545240
4054 1 34.61897580 20.19019670 6.99408930
4055 1 37.09175979 20.19019670 6.99408930
4056 1 36.26749846 20.19019670 4.66272620
4057 1 38.74028245 20.19019670 4.66272620
4058 1 37.91602112 20.19019670 2.33136310
4059 1 40.38880511 20.19019670 2.33136310
4060 1 39.56454378 20.19019670 -0.00000000
4061 1 42.03732776 20.19019670 -0.00000000
4062 1 8.24261329 18.17117703 47.79294355
4063 1 10.71539727 18.17117703 47.79294355
4064 1 9.89113594 18.17117703 45.46158045
4065 1 12.36391993 18.17117703 45.46158045
4066 1 11.53965860 18.17117703 43.13021735
4067 1 14.01244259 18.17117703 43.13021735
4068 1 13.18818126 18.17117703 40.79885425
4069 1 15.66096525 18.17117703 40.79885425
4070 1 14.83670392 18.17117703 38.46749115
4071 1 17.30948790 18.17117703 38.46749115
4072 1 16.48522657 18.17117703 36.13612805
4073 1 18.95801056 18.17117703 36.13612805
4074 1 18.13374923 18.17117703 33.80476495
4075 1 20.60653322 18.17117703 33.80476495
4076 1 19.78227189 18.17117703 31.47340185
4077 1 22.25505587 18.17117703 31.47340185
4078 1 21.43079455 18.17117703 29.14203875
4079 1 23.90357853 18.17117703 29.14203875
4080 1 23.07931720 18.17117703 26.81067565
4081 1 25.55210119 18.17117703 26.81067565
4082 1 24.72783986 18.17117703 24.47931255
4083 1 27.20062385 18.17117703 24.47931255
4084 1 26.37636252 18.17117703 22.14794945
4085 1 28.84914650 18.17117703 22.14794945
4086 1 28.02488518 18.17117703 19.81658635
4087 1 30.49766916 18.17117703 19.81658635
4088 1 29.67340783 18.17117703 17.48522325
4089 1 32.14619182 18.17117703 17.48522325
4090 1 31.32193049 18.17117703 15.15386015
4091 1 33.79471448 18.17117703 15.15386015
4092 1 32.97045315 18.17117703 12.82249705
4093 1 35.44323713 18.17117703 12.82249705
4094 1 34.61897580 18.17117703 10.49113395
4095 1 37.09175979 18.17117703 10.49113395
4096 1 36.26749846 18.17117703 8.15977085
4097 1 38.74028245 18.17117703 8.15977085
4098 1 37.91602112 18.17117703 5.82840775
4099 1 40.38880511 18.17117703 5.82840775
4100 1 39.56454378 18.17117703 3.49704465
4101 1 42.03732776 18.17117703 3.49704465
4102 1 41.21306643 18.17117703 1.16568155
4103 1 43.68585042 18.17117703 1.16568155
4104 1 11.53965860 16.15215736 46.62726200
4105 1 14.01244259 16.15215736 46.62726200
4106 1 13.18818126 16.15215736 44.29589890
4107 1 15.66096525 16.15215736 44.29589890
4108 1 14.83670392 16.15215736 41.96453580
4109 1 17.30948790 16.15215736 41.96453580
4110 1 16.48522657 16.15215736 39.63317270
4111 1 18.95801056 16.15215736 39.63317270
4112 1 18.13374923 16.15215736 37.30180960
4113 1 20.60653322 16.15215736 37.30180960
4114 1 19.78227189 16.15215736 34.97044650
4115 1 22.25505587 16.15215736 34.97044650
4116 1 21.43079455 16.15215736 32.63908340
4117 1 23.90357853 16.15215736 32.63908340
4118 1 23.07931720 16.15215736 30.30772030
4119 1 25.55210119 16.15215736 30.30772030
4120 1 24.72783986 16.15215736 27.97635720
4121 1 27.20062385 16.15215736 27.97635720
4122 1 26.37636252 16.15215736 25.64499410
4123 1 28.84914650 16.15215736 25.64499410
4124 1 28.02488518 16.15215736 23.31363100
4125 1 30.49766916 16.15215736 23.31363100
4126 1 29.67340783 16.15215736 20.98226790
4127 1 32.14619182 16.15215736 20.98226790
4128 1 31.32193049 16.15215736 18.65090480
4129 1 33.79471448 16.15215736 18.65090480
4130 1 32.97045315 16.15215736 16.31954170
4131 1 35.44323713 16.15215736 16.31954170
4132 1 34.61897580 16.15215736 13.98817860
4133 1 37.09175979 16.15215736 13.98817860
4134 1 36.26749846 16.15215736 11.65681550
4135 1 38.74028245 16.15215736 11.65681550
4136 1 37.91602112 16.15215736 9.32545240
4137 1 40.38880511 16.15215736 9.32545240
4138 1 39.56454378 16.15215736 6.99408930
4139 1 42.03732776 16.15215736 6.99408930
4140 1 41.21306643 16.15215736 4.66272620
4141 1 43.68585042 16.15215736 4.66272620
4142 1 42.86158909 16.15215736 2.33136310
4143 1 45.33437308 16.15215736 2.33136310
4144 1 44.51011175 16.15215736 -0.00000000
4145 1 46.98289574 16.15215736 -0.00000000
4146 1 13.18818126 14.13313769 47.79294355
4147 1 15.66096525 14.13313769 47.79294355
4148 1 14.83670392 14.13313769 45.46158045
4149 1 17.30948790 14.13313769 45.46158045
4150 1 16.48522657 14.13313769 43.13021735
4151 1 18.95801056 14.13313769 43.13021735
4152 1 18.13374923 14.13313769 40.79885425
4153 1 20.60653322 14.13313769 40.79885425
4154 1 19.78227189 14.13313769 38.46749115
4155 1 22.25505587 14.13313769 38.46749115
4156 1 21.43079455 14.13313769 36.13612805
4157 1 23.90357853 14.13313769 36.13612805
4158 1 23.07931720 14.13313769 33.80476495
4159 1 25.55210119 14.13313769 33.80476495
4160 1 24.72783986 14.13313769 31.47340185
4161 1 27.20062385 14.13313769 31.47340185
4162 1 26.37636252 14.13313769 29.14203875
4163 1 28.84914650 14.13313769 29.14203875
4164 1 28.02488518 14.13313769 26.81067565
4165 1 30.49766916 14.13313769 26.81067565
4166 1 29.67340783 14.13313769 24.47931255
4167 1 32.14619182 14.13313769 24.47931255
4168 1 31.32193049 14.13313769 22.14794945
4169 1 33.79471448 14.13313769 22.14794945
4170 1 32.97045315 14.13313769 19.81658635
4171 1 35.44323713 14.13313769 19.81658635
4172 1 34.61897580 14.13313769 17.48522325
4173 1 37.09175979 14.13313769 17.48522325
4174 1 36.26749846 14.13313769 15.15386015
4175 1 38.74028245 14.13313769 15.15386015
4176 1 37.91602112 14.13313769 12.82249705
4177 1 40.38880511 14.13313769 12.82249705
4178 1 39.56454378 14.13313769 10.49113395
4179 1 42.03732776 14.13313769 10.49113395
4180 1 41.21306643 14.13313769 8.15977085
4181 1 43.68585042 14.13313769 8.15977085
4182 1 42.86158909 14.13313769 5.82840775
4183 1 45.33437308 14.13313769 5.82840775
4184 1 44.51011175 14.13313769 3.49704465
4185 1 46.98289574 14.13313769 3.49704465
4186 1 46.15863441 14.13313769 1.16568155
4187 1 48.63141839 14.13313769 1.16568155
4188 1 16.48522657 12.11411802 46.62726200
4189 1 18.95801056 12.11411802 46.62726200
4190 1 18.13374923 12.11411802 44.29589890
4191 1 20.60653322 12.11411802 44.29589890
4192 1 19.78227189 12.11411802 41.96453580
4193 1 22.25505587 12.11411802 41.96453580
4194 1 21.43079455 12.11411802 39.63317270
4195 1 23.90357853 12.11411802 39.63317270
4196 1 23.07931720 12.11411802 37.30180960
4197 1 25.55210119 12.11411802 37.30180960
4198 1 24.72783986 12.11411802 34.97044650
4199 1 27.20062385 12.11411802 34.97044650
4200 1 26.37636252 12.11411802 32.63908340
4201 1 28.84914650 12.11411802 32.63908340
4202 1 28.02488518 12.11411802 30.30772030
4203 1 30.49766916 12.11411802 30.30772030
4204 1 29.67340783 12.11411802 27.97635720
4205 1 32.14619182 12.11411802 27.97635720
4206 1 31.32193049 12.11411802 25.64499410
4207 1 33.79471448 12.11411802 25.64499410
4208 1 32.97045315 12.11411802 23.31363100
4209 1 35.44323713 12.11411802 23.31363100
4210 1 34.61897580 12.11411802 20.98226790
4211 1 37.09175979 12.11411802 20.98226790
4212 1 36.26749846 12.11411802 18.65090480
4213 1 38.74028245 12.11411802 18.65090480
4214 1 37.91602112 12.11411802 16.31954170
4215 1 40.38880511 12.11411802 16.31954170
4216 1 39.56454378 12.11411802 13.98817860
4217 1 42.03732776 12.11411802 13.98817860
4218 1 41.21306643 12.11411802 11.65681550
4219 1 43.68585042 12.11411802 11.65681550
4220 1 42.86158909 12.11411802 9.32545240
4221 1 45.33437308 12.11411802 9.32545240
4222 1 44.51011175 12.11411802 6.99408930
4223 1 46.98289574 12.11411802 6.99408930
4224 1 46.15863441 12.11411802 4.66272620
4225 1 48.63141839 12.11411802 4.66272620
4226 1 47.80715706 12.11411802 2.33136310
4227 1 50.27994105 12.11411802 2.33136310
4228 1 49.45567972 12.11411802 -0.00000000
4229 1 51.92846371 12.11411802 -0.00000000
4230 1 18.13374923 10.09509835 47.79294355
4231 1 20.60653322 10.09509835 47.79294355
4232 1 19.78227189 10.09509835 45.46158045
4233 1 22.25505587 10.09509835 45.46158045
4234 1 21.43079455 10.09509835 43.13021735
4235 1 23.90357853 10.09509835 43.13021735
4236 1 23.07931720 10.09509835 40.79885425
4237 1 25.55210119 10.09509835 40.79885425
4238 1 24.72783986 10.09509835 38.46749115
4239 1 27.20062385 10.09509835 38.46749115
4240 1 26.37636252 10.09509835 36.13612805
4241 1 28.84914650 10.09509835 36.13612805
4242 1 28.02488518 10.09509835 33.80476495
4243 1 30.49766916 10.09509835 33.80476495
4244 1 29.67340783 10.09509835 31.47340185
4245 1 32.14619182 10.09509835 31.47340185
4246 1 31.32193049 10.09509835 29.14203875
4247 1 33.79471448 10.09509835 29.14203875
4248 1 32.97045315 10.09509835 26.81067565
4249 1 35.44323713 10.09509835 26.81067565
4250 1 34.61897580 10.09509835 24.47931255
4251 1 37.09175979 10.09509835 24.47931255
4252 1 36.26749846 10.09509835 22.14794945
4253 1 38.74028245 10.09509835 22.14794945
4254 1 37.91602112 10.09509835 19.81658635
4255 1 40.38880511 10.09509835 19.81658635
4256 1 39.56454378 10.09509835 17.48522325
4257 1 42.03732776 10.09509835 17.48522325
4258 1 41.21306643 10.09509835 15.15386015
4259 1 43.68585042 10.09509835 15.15386015
4260 1 42.86158909 10.09509835 12.82249705
4261 1 45.33437308 10.09509835 12.82249705
4262 1 44.51011175 10.09509835 10.49113395
4263 1 46.98289574 10.09509835 10.49113395
4264 1 46.15863441 10.09509835 8.15977085
4265 1 48.63141839 10.09509835 8.15977085
4266 1 47.80715706 10.09509835 5.82840775
4267 1 50.27994105 10.09509835 5.82840775
4268 1 49.45567972 10.09509835 3.49704465
4269 1 51.92846371 10.09509835 3.49704465
4270 1 51.10420238 10.09509835 1.16568155
4271 1 53.57698636 10.09509835 1.16568155
4272 1 21.43079455 8.07607868 46.62726200
4273 1 23.90357853 8.07607868 46.62726200
4274 1 23.07931720 8.07607868 44.29589890
4275 1 25.55210119 8.07607868 44.29589890
4276 1 24.72783986 8.07607868 41.96453580
4277 1 27.20062385 8.07607868 41.96453580
4278 1 26.37636252 8.07607868 39.63317270
4279 1 28.84914650 8.07607868 39.63317270
4280 1 28.02488518 8.07607868 37.30180960
4281 1 30.49766916 8.07607868 37.30180960
4282 1 29.67340783 8.07607868 34.97044650
4283 1 32.14619182 8.07607868 34.97044650
4284 1 31.32193049 8.07607868 32.63908340
4285 1 33.79471448 8.07607868 32.63908340
4286 1 32.97045315 8.07607868 30.30772030
4287 1 35.44323713 8.07607868 30.30772030
4288 1 34.61897580 8.07607868 27.97635720
4289 1 37.09175979 8.07607868 27.97635720
4290 1 36.26749846 8.07607868 25.64499410
4291 1 38.74028245 8.07607868 25.64499410
4292 1 37.91602112 8.07607868 23.31363100
4293 1 40.38880511 8.07607868 23.31363100
4294 1 39.56454378 8.07607868 20.98226790
4295 1 42.03732776 8.07607868 20.98226790
4296 1 41.21306643 8.07607868 18.65090480
4297 1 43.68585042 8.07607868 18.65090480
4298 1 42.86158909 8.07607868 16.31954170
4299 1 45.33437308 8.07607868 16.31954170
4300 1 44.51011175 8.07607868 13.98817860
4301 1 46.98289574 8.07607868 13.98817860
4302 1 46.15863441 8.07607868 11.65681550
4303 1 48.63141839 8.07607868 11.65681550
4304 1 47.80715706 8.07607868 9.32545240
4305 1 50.27994105 8.07607868 9.32545240
4306 1 49.45567972 8.07607868 6.99408930
4307 1 51.92846371 8.07607868 6.99408930
4308 1 51.10420238 8.07607868 4.66272620
4309 1 53.57698636 8.07607868 4.66272620
4310 1 52.75272504 8.07607868 2.33136310
4311 1 55.22550902 8.07607868 2.33136310
4312 1 54.40124769 8.07607868 -0.00000000
4313 1 56.87403168 8.07607868 -0.00000000
4314 1 23.07931720 6.05705901 47.79294355
4315 1 25.55210119 6.05705901 47.79294355
4316 1 24.72783986 6.05705901 45.46158045
4317 1 27.20062385 6.05705901 45.46158045
4318 1 26.37636252 6.05705901 43.13021735
4319 1 28.84914650 6.05705901 43.13021735
4320 1 28.02488518 6.05705901 40.79885425
4321 1 30.49766916 6.05705901 40.79885425
4322 1 29.67340783 6.05705901 38.46749115
4323 1 32.14619182 6.05705901 38.46749115
4324 1 31.32193049 6.05705901 36.13612805
4325 1 33.79471448 6.05705901 36.13612805
4326 1 32.97045315 6.05705901 33.80476495
4327 1 35.44323713 6.05705901 33.80476495
4328 1 34.61897580 6.05705901 31.47340185
4329 1 37.09175979 6.05705901 31.47340185
4330 1 36.26749846 6.05705901 29.14203875
4331 1 38.74028245 6.05705901 29.14203875
4332 1 37.91602112 6.05705901 26.81067565
4333 1 40.38880511 6.05705901 26.81067565
4334 1 39.56454378 6.05705901 24.47931255
4335 1 42.03732776 6.05705901 24.47931255
4336 1 41.21306643 6.05705901 22.14794945
4337 1 43.68585042 6.05705901 22.14794945
4338 1 42.86158909 6.05705901 19.81658635
4339 1 45.33437308 6.05705901 19.81658635
4340 1 44.51011175 6.05705901 17.48522325
4341 1 46.98289574 6.05705901 17.48522325
4342 1 46.15863441 6.05705901 15.15386015
4343 1 48.63141839 6.05705901 15.15386015
4344 1 47.80715706 6.05705901 12.82249705
4345 1 50.27994105 6.05705901 12.82249705
4346 1 49.45567972 6.05705901 10.49113395
4347 1 51.92846371 6.05705901 10.49113395
4348 1 51.10420238 6.05705901 8.15977085
4349 1 53.57698636 6.05705901 8.15977085
4350 1 52.75272504 6.05705901 5.82840775
4351 1 55.22550902 6.05705901 5.82840775
4352 1 54.40124769 6.05705901 3.49704465
4353 1 56.87403168 6.05705901 3.49704465
4354 1 56.04977035 6.05705901 1.16568155
4355 1 58.52255434 6.05705901 1.16568155
4356 1 26.37636252 4.03803934 46.62726200
4357 1 28.84914650 4.03803934 46.62726200
4358 1 28.02488518 4.03803934 44.29589890
4359 1 30.49766916 4.03803934 44.29589890
4360 1 29.67340783 4.03803934 41.96453580
4361 1 32.14619182 4.03803934 41.96453580
4362 1 31.32193049 4.03803934 39.63317270
4363 1 33.79471448 4.03803934 39.63317270
4364 1 32.97045315 4.03803934 37.30180960
4365 1 35.44323713 4.03803934 37.30180960
4366 1 34.61897580 4.03803934 34.97044650
4367 1 37.09175979 4.03803934 34.97044650
4368 1 36.26749846 4.03803934 32.63908340
4369 1 38.74028245 4.03803934 32.63908340
4370 1 37.91602112 4.03803934 30.30772030
4371 1 40.38880511 4.03803934 30.30772030
4372 1 39.56454378 4.03803934 27.97635720
4373 1 42.03732776 4.03803934 27.97635720
4374 1 41.21306643 4.03803934 25.64499410
4375 1 43.68585042 4.03803934 25.64499410
4376 1 42.86158909 4.03803934 23.31363100
4377 1 45.33437308 4.03803934 23.31363100
4378 1 44.51011175 4.03803934 20.98226790
4379 1 46.98289574 4.03803934 20.98226790
4380 1 46.15863441 4.03803934 18.65090480
4381 1 48.63141839 4.03803934 18.65090480
4382 1 47.80715706 4.03803934 16.31954170
4383 1 50.27994105 4.03803934 16.31954170
4384 1 49.45567972 4.03803934 13.98817860
4385 1 51.92846371 4.03803934 13.98817860
4386 1 51.10420238 4.03803934 11.65681550
4387 1 53.57698636 4.03803934 11.65681550
4388 1 52.75272504 4.03803934 9.32545240
4389 1 55.22550902 4.03803934 9.32545240
4390 1 54.40124769 4.03803934 6.99408930
4391 1 56.87403168 4.03803934 6.99408930
4392 1 56.04977035 4.03803934 4.66272620
4393 1 58.52255434 4.03803934 4.66272620
4394 1 57.69829301 4.03803934 2.33136310
4395 1 60.17107699 4.03803934 2.33136310
4396 1 59.34681567 4.03803934 0.00000000
4397 1 61.81959965 4.03803934 0.00000000
4398 1 28.02488518 2.01901967 47.79294355
4399 1 30.49766916 2.01901967 47.79294355
4400 1 29.67340783 2.01901967 45.46158045
4401 1 32.14619182 2.01901967 45.46158045
4402 1 31.32193049 2.01901967 43.13021735
4403 1 33.79471448 2.01901967 43.13021735
4404 1 32.97045315 2.01901967 40.79885425
4405 1 35.44323713 2.01901967 40.79885425
4406 1 34.61897580 2.01901967 38.46749115
4407 1 37.09175979 2.01901967 38.46749115
4408 1 36.26749846 2.01901967 36.13612805
4409 1 38.74028245 2.01901967 36.13612805
4410 1 37.91602112 2.01901967 33.80476495
4411 1 40.38880511 2.01901967 33.80476495
4412 1 39.56454378 2.01901967 31.47340185
4413 1 42.03732776 2.01901967 31.47340185
4414 1 41.21306643 2.01901967 29.14203875
4415 1 43.68585042 2.01901967 29.14203875
4416 1 42.86158909 2.01901967 26.81067565
4417 1 45.33437308 2.01901967 26.81067565
4418 1 44.51011175 2.01901967 24.47931255
4419 1 46.98289574 2.01901967 24.47931255
4420 1 46.15863441 2.01901967 22.14794945
4421 1 48.63141839 2.01901967 22.14794945
4422 1 47.80715706 2.01901967 19.81658635
4423 1 50.27994105 2.01901967 19.81658635
4424 1 49.45567972 2.01901967 17.48522325
4425 1 51.92846371 2.01901967 17.48522325
4426 1 51.10420238 2.01901967 15.15386015
4427 1 53.57698636 2.01901967 15.15386015
4428 1 52.75272504 2.01901967 12.82249705
4429 1 55.22550902 2.01901967 12.82249705
4430 1 54.40124769 2.01901967 10.49113395
4431 1 56.87403168 2.01901967 10.49113395
4432 1 56.04977035 2.01901967 8.15977085
4433 1 58.52255434 2.01901967 8.15977085
4434 1 57.69829301 2.01901967 5.82840775
4435 1 60.17107699 2.01901967 5.82840775
4436 1 59.34681567 2.01901967 3.49704465
4437 1 61.81959965 2.01901967 3.49704465
4438 1 60.99533832 2.01901967 1.16568155
4439 1 63.46812231 2.01901967 1.16568155
4440 1 31.32193049 0.00000000 46.62726200
4441 1 33.79471448 0.00000000 46.62726200
4442 1 32.97045315 0.00000000 44.29589890
4443 1 35.44323713 0.00000000 44.29589890
4444 1 34.61897580 0.00000000 41.96453580
4445 1 37.09175979 0.00000000 41.96453580
4446 1 36.26749846 0.00000000 39.63317270
4447 1 38.74028245 0.00000000 39.63317270
4448 1 37.91602112 0.00000000 37.30180960
4449 1 40.38880511 0.00000000 37.30180960
4450 1 39.56454378 0.00000000 34.97044650
4451 1 42.03732776 0.00000000 34.97044650
4452 1 41.21306643 0.00000000 32.63908340
4453 1 43.68585042 0.00000000 32.63908340
4454 1 42.86158909 0.00000000 30.30772030
4455 1 45.33437308 0.00000000 30.30772030
4456 1 44.51011175 0.00000000 27.97635720
4457 1 46.98289574 0.00000000 27.97635720
4458 1 46.15863441 0.00000000 25.64499410
4459 1 48.63141839 0.00000000 25.64499410
4460 1 47.80715706 0.00000000 23.31363100
4461 1 50.27994105 0.00000000 23.31363100
4462 1 49.45567972 0.00000000 20.98226790
4463 1 51.92846371 0.00000000 20.98226790
4464 1 51.10420238 0.00000000 18.65090480
4465 1 53.57698636 0.00000000 18.65090480
4466 1 52.75272504 0.00000000 16.31954170
4467 1 55.22550902 0.00000000 16.31954170
4468 1 54.40124769 0.00000000 13.98817860
4469 1 56.87403168 0.00000000 13.98817860
4470 1 56.04977035 0.00000000 11.65681550
4471 1 58.52255434 0.00000000 11.65681550
4472 1 57.69829301 0.00000000 9.32545240
4473 1 60.17107699 0.00000000 9.32545240
4474 1 59.34681567 0.00000000 6.99408930
4475 1 61.81959965 0.00000000 6.99408930
4476 1 60.99533832 0.00000000 4.66272620
4477 1 63.46812231 0.00000000 4.66272620
4478 1 62.64386098 0.00000000 2.33136310
4479 1 0.82426133 30.28529505 47.79294355
4480 1 0.00000000 30.28529505 45.46158045
4481 1 2.47278399 30.28529505 45.46158045
4482 1 1.64852266 30.28529505 43.13021735
4483 1 4.12130664 30.28529505 43.13021735
4484 1 3.29704531 30.28529505 40.79885425
4485 1 5.76982930 30.28529505 40.79885425
4486 1 4.94556797 30.28529505 38.46749115
4487 1 7.41835196 30.28529505 38.46749115
4488 1 6.59409063 30.28529505 36.13612805
4489 1 9.06687462 30.28529505 36.13612805
4490 2 8.24261329 30.28529505 33.80476495
4491 2 10.71539727 30.28529505 33.80476495
4492 2 9.89113594 30.28529505 31.47340185
4493 2 12.36391993 30.28529505 31.47340185
4494 2 11.53965860 30.28529505 29.14203875
4495 2 14.01244259 30.28529505 29.14203875
4496 2 13.18818126 30.28529505 26.81067565
4497 2 15.66096525 30.28529505 26.81067565
4498 2 14.83670392 30.28529505 24.47931255
4499 2 17.30948790 30.28529505 24.47931255
4500 2 16.48522657 30.28529505 22.14794945
4501 2 18.95801056 30.28529505 22.14794945
4502 2 18.13374923 30.28529505 19.81658635
4503 2 20.60653322 30.28529505 19.81658635
4504 2 19.78227189 30.28529505 17.48522325
4505 1 22.25505587 30.28529505 17.48522325
4506 1 21.43079455 30.28529505 15.15386015
4507 1 23.90357853 30.28529505 15.15386015
4508 1 23.07931720 30.28529505 12.82249705
4509 1 25.55210119 30.28529505 12.82249705
4510 1 24.72783986 30.28529505 10.49113395
4511 1 27.20062385 30.28529505 10.49113395
4512 1 26.37636252 30.28529505 8.15977085
4513 1 28.84914650 30.28529505 8.15977085
4514 1 28.02488518 30.28529505 5.82840775
4515 1 30.49766916 30.28529505 5.82840775
4516 1 29.67340783 30.28529505 3.49704465
4517 1 32.14619182 30.28529505 3.49704465
4518 1 31.32193049 30.28529505 1.16568155
4519 1 33.79471448 30.28529505 1.16568155
4520 1 1.64852266 28.26627538 46.62726200
4521 1 4.12130664 28.26627538 46.62726200
4522 1 3.29704531 28.26627538 44.29589890
4523 1 5.76982930 28.26627538 44.29589890
4524 1 4.94556797 28.26627538 41.96453580
4525 1 7.41835196 28.26627538 41.96453580
4526 1 6.59409063 28.26627538 39.63317270
4527 1 9.06687462 28.26627538 39.63317270
4528 1 8.24261329 28.26627538 37.30180960
4529 1 10.71539727 28.26627538 37.30180960
4530 2 9.89113594 28.26627538 34.97044650
4531 2 12.36391993 28.26627538 34.97044650
4532 2 11.53965860 28.26627538 32.63908340
4533 2 14.01244259 28.26627538 32.63908340
4534 2 13.18818126 28.26627538 30.30772030
4535 2 15.66096525 28.26627538 30.30772030
4536 2 14.83670392 28.26627538 27.97635720
4537 2 17.30948790 28.26627538 27.97635720
4538 2 16.48522657 28.26627538 25.64499410
4539 2 18.95801056 28.26627538 25.64499410
4540 2 18.13374923 28.26627538 23.31363100
4541 2 20.60653322 28.26627538 23.31363100
4542 2 19.78227189 28.26627538 20.98226790
4543 2 22.25505587 28.26627538 20.98226790
4544 2 21.43079455 28.26627538 18.65090480
4545 1 23.90357853 28.26627538 18.65090480
4546 1 23.07931720 28.26627538 16.31954170
4547 1 25.55210119 28.26627538 16.31954170
4548 1 24.72783986 28.26627538 13.98817860
4549 1 27.20062385 28.26627538 13.98817860
4550 1 26.37636252 28.26627538 11.65681550
4551 1 28.84914650 28.26627538 11.65681550
4552 1 28.02488518 28.26627538 9.32545240
4553 1 30.49766916 28.26627538 9.32545240
4554 1 29.67340783 28.26627538 6.99408930
4555 1 32.14619182 28.26627538 6.99408930
4556 1 31.32193049 28.26627538 4.66272620
4557 1 33.79471448 28.26627538 4.66272620
4558 1 32.97045315 28.26627538 2.33136310
4559 1 35.44323713 28.26627538 2.33136310
4560 1 34.61897580 28.26627538 0.00000000
4561 1 37.09175979 28.26627538 -0.00000000
4562 1 3.29704531 26.24725571 47.79294355
4563 1 5.76982930 26.24725571 47.79294355
4564 1 4.94556797 26.24725571 45.46158045
4565 1 7.41835196 26.24725571 45.46158045
4566 1 6.59409063 26.24725571 43.13021735
4567 1 9.06687462 26.24725571 43.13021735
4568 1 8.24261329 26.24725571 40.79885425
4569 1 10.71539727 26.24725571 40.79885425
4570 1 9.89113594 26.24725571 38.46749115
4571 1 12.36391993 26.24725571 38.46749115
4572 1 11.53965860 26.24725571 36.13612805
4573 1 14.01244259 26.24725571 36.13612805
4574 2 13.18818126 26.24725571 33.80476495
4575 2 15.66096525 26.24725571 33.80476495
4576 2 14.83670392 26.24725571 31.47340185
4577 2 17.30948790 26.24725571 31.47340185
4578 2 16.48522657 26.24725571 29.14203875
4579 2 18.95801056 26.24725571 29.14203875
4580 2 18.13374923 26.24725571 26.81067565
4581 2 20.60653322 26.24725571 26.81067565
4582 2 19.78227189 26.24725571 24.47931255
4583 2 22.25505587 26.24725571 24.47931255
4584 2 21.43079455 26.24725571 22.14794945
4585 1 23.90357853 26.24725571 22.14794945
4586 1 23.07931720 26.24725571 19.81658635
4587 1 25.55210119 26.24725571 19.81658635
4588 1 24.72783986 26.24725571 17.48522325
4589 1 27.20062385 26.24725571 17.48522325
4590 1 26.37636252 26.24725571 15.15386015
4591 1 28.84914650 26.24725571 15.15386015
4592 1 28.02488518 26.24725571 12.82249705
4593 1 30.49766916 26.24725571 12.82249705
4594 1 29.67340783 26.24725571 10.49113395
4595 1 32.14619182 26.24725571 10.49113395
4596 1 31.32193049 26.24725571 8.15977085
4597 1 33.79471448 26.24725571 8.15977085
4598 1 32.97045315 26.24725571 5.82840775
4599 1 35.44323713 26.24725571 5.82840775
4600 1 34.61897580 26.24725571 3.49704465
4601 1 37.09175979 26.24725571 3.49704465
4602 1 36.26749846 26.24725571 1.16568155
4603 1 38.74028245 26.24725571 1.16568155
4604 1 6.59409063 24.22823604 46.62726200
4605 1 9.06687462 24.22823604 46.62726200
4606 1 8.24261329 24.22823604 44.29589890
4607 1 10.71539727 24.22823604 44.29589890
4608 1 9.89113594 24.22823604 41.96453580
4609 1 12.36391993 24.22823604 41.96453580
4610 1 11.53965860 24.22823604 39.63317270
4611 1 14.01244259 24.22823604 39.63317270
4612 1 13.18818126 24.22823604 37.30180960
4613 1 15.66096525 24.22823604 37.30180960
4614 1 14.83670392 24.22823604 34.97044650
4615 1 17.30948790 24.22823604 34.97044650
4616 2 16.48522657 24.22823604 32.63908340
4617 1 18.95801056 24.22823604 32.63908340
4618 2 18.13374923 24.22823604 30.30772030
4619 1 20.60653322 24.22823604 30.30772030
4620 2 19.78227189 24.22823604 27.97635720
4621 1 22.25505587 24.22823604 27.97635720
4622 2 21.43079455 24.22823604 25.64499410
4623 1 23.90357853 24.22823604 25.64499410
4624 1 23.07931720 24.22823604 23.31363100
4625 1 25.55210119 24.22823604 23.31363100
4626 1 24.72783986 24.22823604 20.98226790
4627 1 27.20062385 24.22823604 20.98226790
4628 1 26.37636252 24.22823604 18.65090480
4629 1 28.84914650 24.22823604 18.65090480
4630 1 28.02488518 24.22823604 16.31954170
4631 1 30.49766916 24.22823604 16.31954170
4632 1 29.67340783 24.22823604 13.98817860
4633 1 32.14619182 24.22823604 13.98817860
4634 1 31.32193049 24.22823604 11.65681550
4635 1 33.79471448 24.22823604 11.65681550
4636 1 32.97045315 24.22823604 9.32545240
4637 1 35.44323713 24.22823604 9.32545240
4638 1 34.61897580 24.22823604 6.99408930
4639 1 37.09175979 24.22823604 6.99408930
4640 1 36.26749846 24.22823604 4.66272620
4641 1 38.74028245 24.22823604 4.66272620
4642 1 37.91602112 24.22823604 2.33136310
4643 1 40.38880511 24.22823604 2.33136310
4644 1 39.56454378 24.22823604 -0.00000000
4645 1 42.03732776 24.22823604 -0.00000000
4646 1 8.24261329 22.20921637 47.79294355
4647 1 10.71539727 22.20921637 47.79294355
4648 1 9.89113594 22.20921637 45.46158045
4649 1 12.36391993 22.20921637 45.46158045
4650 1 11.53965860 22.20921637 43.13021735
4651 1 14.01244259 22.20921637 43.13021735
4652 1 13.18818126 22.20921637 40.79885425
4653 1 15.66096525 22.20921637 40.79885425
4654 1 14.83670392 22.20921637 38.46749115
4655 1 17.30948790 22.20921637 38.46749115
4656 1 16.48522657 22.20921637 36.13612805
4657 1 18.95801056 22.20921637 36.13612805
4658 1 18.13374923 22.20921637 33.80476495
4659 1 20.60653322 22.20921637 33.80476495
4660 1 19.78227189 22.20921637 31.47340185
4661 1 22.25505587 22.20921637 31.47340185
4662 1 21.43079455 22.20921637 29.14203875
4663 1 23.90357853 22.20921637 29.14203875
4664 1 23.07931720 22.20921637 26.81067565
4665 1 25.55210119 22.20921637 26.81067565
4666 1 24.72783986 22.20921637 24.47931255
4667 1 27.20062385 22.20921637 24.47931255
4668 1 26.37636252 22.20921637 22.14794945
4669 1 28.84914650 22.20921637 22.14794945
4670 1 28.02488518 22.20921637 19.81658635
4671 1 30.49766916 22.20921637 19.81658635
4672 1 29.67340783 22.20921637 17.48522325
4673 1 32.14619182 22.20921637 17.48522325
4674 1 31.32193049 22.20921637 15.15386015
4675 1 33.79471448 22.20921637 15.15386015
4676 1 32.97045315 22.20921637 12.82249705
4677 1 35.44323713 22.20921637 12.82249705
4678 1 34.61897580 22.20921637 10.49113395
4679 1 37.09175979 22.20921637 10.49113395
4680 1 36.26749846 22.20921637 8.15977085
4681 1 38.74028245 22.20921637 8.15977085
4682 1 37.91602112 22.20921637 5.82840775
4683 1 40.38880511 22.20921637 5.82840775
4684 1 39.56454378 22.20921637 3.49704465
4685 1 42.03732776 22.20921637 3.49704465
4686 1 41.21306643 22.20921637 1.16568155
4687 1 43.68585042 22.20921637 1.16568155
4688 1 11.53965860 20.19019670 46.62726200
4689 1 14.01244259 20.19019670 46.62726200
4690 1 13.18818126 20.19019670 44.29589890
4691 1 15.66096525 20.19019670 44.29589890
4692 1 14.83670392 20.19019670 41.96453580
4693 1 17.30948790 20.19019670 41.96453580
4694 1 16.48522657 20.19019670 39.63317270
4695 1 18.95801056 20.19019670 39.63317270
4696 1 18.13374923 20.19019670 37.30180960
4697 1 20.60653322 20.19019670 37.30180960
4698 1 19.78227189 20.19019670 34.97044650
4699 1 22.25505587 20.19019670 34.97044650
4700 1 21.43079455 20.19019670 32.63908340
4701 1 23.90357853 20.19019670 32.63908340
4702 1 23.07931720 20.19019670 30.30772030
4703 1 25.55210119 20.19019670 30.30772030
4704 1 24.72783986 20.19019670 27.97635720
4705 1 27.20062385 20.19019670 27.97635720
4706 1 26.37636252 20.19019670 25.64499410
4707 1 28.84914650 20.19019670 25.64499410
4708 1 28.02488518 20.19019670 23.31363100
4709 1 30.49766916 20.19019670 23.31363100
4710 1 29.67340783 20.19019670 20.98226790
4711 1 32.14619182 20.19019670 20.98226790
4712 1 31.32193049 20.19019670 18.65090480
4713 1 33.79471448 20.19019670 18.65090480
4714 1 32.97045315 20.19019670 16.31954170
4715 1 35.44323713 20.19019670 16.31954170
4716 1 34.61897580 20.19019670 13.98817860
4717 1 37.09175979 20.19019670 13.98817860
4718 1 36.26749846 20.19019670 11.65681550
4719 1 38.74028245 20.19019670 11.65681550
4720 1 37.91602112 20.19019670 9.32545240
4721 1 40.38880511 20.19019670 9.32545240
4722 1 39.56454378 20.19019670 6.99408930
4723 1 42.03732776 20.19019670 6.99408930
4724 1 41.21306643 20.19019670 4.66272620
4725 1 43.68585042 20.19019670 4.66272620
4726 1 42.86158909 20.19019670 2.33136310
4727 1 45.33437308 20.19019670 2.33136310
4728 1 44.51011175 20.19019670 0.00000000
4729 1 46.98289574 20.19019670 -0.00000000
4730 1 13.18818126 18.17117703 47.79294355
4731 1 15.66096525 18.17117703 47.79294355
4732 1 14.83670392 18.17117703 45.46158045
4733 1 17.30948790 18.17117703 45.46158045
4734 1 16.48522657 18.17117703 43.13021735
4735 1 18.95801056 18.17117703 43.13021735
4736 1 18.13374923 18.17117703 40.79885425
4737 1 20.60653322 18.17117703 40.79885425
4738 1 19.78227189 18.17117703 38.46749115
4739 1 22.25505587 18.17117703 38.46749115
4740 1 21.43079455 18.17117703 36.13612805
4741 1 23.90357853 18.17117703 36.13612805
4742 1 23.07931720 18.17117703 33.80476495
4743 1 25.55210119 18.17117703 33.80476495
4744 1 24.72783986 18.17117703 31.47340185
4745 1 27.20062385 18.17117703 31.47340185
4746 1 26.37636252 18.17117703 29.14203875
4747 1 28.84914650 18.17117703 29.14203875
4748 1 28.02488518 18.17117703 26.81067565
4749 1 30.49766916 18.17117703 26.81067565
4750 1 29.67340783 18.17117703 24.47931255
4751 1 32.14619182 18.17117703 24.47931255
4752 1 31.32193049 18.17117703 22.14794945
4753 1 33.79471448 18.17117703 22.14794945
4754 1 32.97045315 18.17117703 19.81658635
4755 1 35.44323713 18.17117703 19.81658635
4756 1 34.61897580 18.17117703 17.48522325
4757 1 37.09175979 18.17117703 17.48522325
4758 1 36.26749846 18.17117703 15.15386015
4759 1 38.74028245 18.17117703 15.15386015
4760 1 37.91602112 18.17117703 12.82249705
4761 1 40.38880511 18.17117703 12.82249705
4762 1 39.56454378 18.17117703 10.49113395
4763 1 42.03732776 18.17117703 10.49113395
4764 1 41.21306643 18.17117703 8.15977085
4765 1 43.68585042 18.17117703 8.15977085
4766 1 42.86158909 18.17117703 5.82840775
4767 1 45.33437308 18.17117703 5.82840775
4768 1 44.51011175 18.17117703 3.49704465
4769 1 46.98289574 18.17117703 3.49704465
4770 1 46.15863441 18.17117703 1.16568155
4771 1 48.63141839 18.17117703 1.16568155
4772 1 16.48522657 16.15215736 46.62726200
4773 1 18.95801056 16.15215736 46.62726200
4774 1 18.13374923 16.15215736 44.29589890
4775 1 20.60653322 16.15215736 44.29589890
4776 1 19.78227189 16.15215736 41.96453580
4777 1 22.25505587 16.15215736 41.96453580
4778 1 21.43079455 16.15215736 39.63317270
4779 1 23.90357853 16.15215736 39.63317270
4780 1 23.07931720 16.15215736 37.30180960
4781 1 25.55210119 16.15215736 37.30180960
4782 1 24.72783986 16.15215736 34.97044650
4783 1 27.20062385 16.15215736 34.97044650
4784 1 26.37636252 16.15215736 32.63908340
4785 1 28.84914650 16.15215736 32.63908340
4786 1 28.02488518 16.15215736 30.30772030
4787 1 30.49766916 16.15215736 30.30772030
4788 1 29.67340783 16.15215736 27.97635720
4789 1 32.14619182 16.15215736 27.97635720
4790 1 31.32193049 16.15215736 25.64499410
4791 1 33.79471448 16.15215736 25.64499410
4792 1 32.97045315 16.15215736 23.31363100
4793 1 35.44323713 16.15215736 23.31363100
4794 1 34.61897580 16.15215736 20.98226790
4795 1 37.09175979 16.15215736 20.98226790
4796 1 36.26749846 16.15215736 18.65090480
4797 1 38.74028245 16.15215736 18.65090480
4798 1 37.91602112 16.15215736 16.31954170
4799 1 40.38880511 16.15215736 16.31954170
4800 1 39.56454378 16.15215736 13.98817860
4801 1 42.03732776 16.15215736 13.98817860
4802 1 41.21306643 16.15215736 11.65681550
4803 1 43.68585042 16.15215736 11.65681550
4804 1 42.86158909 16.15215736 9.32545240
4805 1 45.33437308 16.15215736 9.32545240
4806 1 44.51011175 16.15215736 6.99408930
4807 1 46.98289574 16.15215736 6.99408930
4808 1 46.15863441 16.15215736 4.66272620
4809 1 48.63141839 16.15215736 4.66272620
4810 1 47.80715706 16.15215736 2.33136310
4811 1 50.27994105 16.15215736 2.33136310
4812 1 49.45567972 16.15215736 0.00000000
4813 1 51.92846371 16.15215736 -0.00000000
4814 1 18.13374923 14.13313769 47.79294355
4815 1 20.60653322 14.13313769 47.79294355
4816 1 19.78227189 14.13313769 45.46158045
4817 1 22.25505587 14.13313769 45.46158045
4818 1 21.43079455 14.13313769 43.13021735
4819 1 23.90357853 14.13313769 43.13021735
4820 1 23.07931720 14.13313769 40.79885425
4821 1 25.55210119 14.13313769 40.79885425
4822 1 24.72783986 14.13313769 38.46749115
4823 1 27.20062385 14.13313769 38.46749115
4824 1 26.37636252 14.13313769 36.13612805
4825 1 28.84914650 14.13313769 36.13612805
4826 1 28.02488518 14.13313769 33.80476495
4827 1 30.49766916 14.13313769 33.80476495
4828 1 29.67340783 14.13313769 31.47340185
4829 1 32.14619182 14.13313769 31.47340185
4830 1 31.32193049 14.13313769 29.14203875
4831 1 33.79471448 14.13313769 29.14203875
4832 1 32.97045315 14.13313769 26.81067565
4833 1 35.44323713 14.13313769 26.81067565
4834 1 34.61897580 14.13313769 24.47931255
4835 1 37.09175979 14.13313769 24.47931255
4836 1 36.26749846 14.13313769 22.14794945
4837 1 38.74028245 14.13313769 22.14794945
4838 1 37.91602112 14.13313769 19.81658635
4839 1 40.38880511 14.13313769 19.81658635
4840 1 39.56454378 14.13313769 17.48522325
4841 1 42.03732776 14.13313769 17.48522325
4842 1 41.21306643 14.13313769 15.15386015
4843 1 43.68585042 14.13313769 15.15386015
4844 1 42.86158909 14.13313769 12.82249705
4845 1 45.33437308 14.13313769 12.82249705
4846 1 44.51011175 14.13313769 10.49113395
4847 1 46.98289574 14.13313769 10.49113395
4848 1 46.15863441 14.13313769 8.15977085
4849 1 48.63141839 14.13313769 8.15977085
4850 1 47.80715706 14.13313769 5.82840775
4851 1 50.27994105 14.13313769 5.82840775
4852 1 49.45567972 14.13313769 3.49704465
4853 1 51.92846371 14.13313769 3.49704465
4854 1 51.10420238 14.13313769 1.16568155
4855 1 53.57698636 14.13313769 1.16568155
4856 1 21.43079455 12.11411802 46.62726200
4857 1 23.90357853 12.11411802 46.62726200
4858 1 23.07931720 12.11411802 44.29589890
4859 1 25.55210119 12.11411802 44.29589890
4860 1 24.72783986 12.11411802 41.96453580
4861 1 27.20062385 12.11411802 41.96453580
4862 1 26.37636252 12.11411802 39.63317270
4863 1 28.84914650 12.11411802 39.63317270
4864 1 28.02488518 12.11411802 37.30180960
4865 1 30.49766916 12.11411802 37.30180960
4866 1 29.67340783 12.11411802 34.97044650
4867 1 32.14619182 12.11411802 34.97044650
4868 1 31.32193049 12.11411802 32.63908340
4869 1 33.79471448 12.11411802 32.63908340
4870 1 32.97045315 12.11411802 30.30772030
4871 1 35.44323713 12.11411802 30.30772030
4872 1 34.61897580 12.11411802 27.97635720
4873 1 37.09175979 12.11411802 27.97635720
4874 1 36.26749846 12.11411802 25.64499410
4875 1 38.74028245 12.11411802 25.64499410
4876 1 37.91602112 12.11411802 23.31363100
4877 1 40.38880511 12.11411802 23.31363100
4878 1 39.56454378 12.11411802 20.98226790
4879 1 42.03732776 12.11411802 20.98226790
4880 1 41.21306643 12.11411802 18.65090480
4881 1 43.68585042 12.11411802 18.65090480
4882 1 42.86158909 12.11411802 16.31954170
4883 1 45.33437308 12.11411802 16.31954170
4884 1 44.51011175 12.11411802 13.98817860
4885 1 46.98289574 12.11411802 13.98817860
4886 1 46.15863441 12.11411802 11.65681550
4887 1 48.63141839 12.11411802 11.65681550
4888 1 47.80715706 12.11411802 9.32545240
4889 1 50.27994105 12.11411802 9.32545240
4890 1 49.45567972 12.11411802 6.99408930
4891 1 51.92846371 12.11411802 6.99408930
4892 1 51.10420238 12.11411802 4.66272620
4893 1 53.57698636 12.11411802 4.66272620
4894 1 52.75272504 12.11411802 2.33136310
4895 1 55.22550902 12.11411802 2.33136310
4896 1 54.40124769 12.11411802 -0.00000000
4897 1 56.87403168 12.11411802 -0.00000000
4898 1 23.07931720 10.09509835 47.79294355
4899 1 25.55210119 10.09509835 47.79294355
4900 1 24.72783986 10.09509835 45.46158045
4901 1 27.20062385 10.09509835 45.46158045
4902 1 26.37636252 10.09509835 43.13021735
4903 1 28.84914650 10.09509835 43.13021735
4904 1 28.02488518 10.09509835 40.79885425
4905 1 30.49766916 10.09509835 40.79885425
4906 1 29.67340783 10.09509835 38.46749115
4907 1 32.14619182 10.09509835 38.46749115
4908 1 31.32193049 10.09509835 36.13612805
4909 1 33.79471448 10.09509835 36.13612805
4910 1 32.97045315 10.09509835 33.80476495
4911 1 35.44323713 10.09509835 33.80476495
4912 1 34.61897580 10.09509835 31.47340185
4913 1 37.09175979 10.09509835 31.47340185
4914 1 36.26749846 10.09509835 29.14203875
4915 1 38.74028245 10.09509835 29.14203875
4916 1 37.91602112 10.09509835 26.81067565
4917 1 40.38880511 10.09509835 26.81067565
4918 1 39.56454378 10.09509835 24.47931255
4919 1 42.03732776 10.09509835 24.47931255
4920 1 41.21306643 10.09509835 22.14794945
4921 1 43.68585042 10.09509835 22.14794945
4922 1 42.86158909 10.09509835 19.81658635
4923 1 45.33437308 10.09509835 19.81658635
4924 1 44.51011175 10.09509835 17.48522325
4925 1 46.98289574 10.09509835 17.48522325
4926 1 46.15863441 10.09509835 15.15386015
4927 1 48.63141839 10.09509835 15.15386015
4928 1 47.80715706 10.09509835 12.82249705
4929 1 50.27994105 10.09509835 12.82249705
4930 1 49.45567972 10.09509835 10.49113395
4931 1 51.92846371 10.09509835 10.49113395
4932 1 51.10420238 10.09509835 8.15977085
4933 1 53.57698636 10.09509835 8.15977085
4934 1 52.75272504 10.09509835 5.82840775
4935 1 55.22550902 10.09509835 5.82840775
4936 1 54.40124769 10.09509835 3.49704465
4937 1 56.87403168 10.09509835 3.49704465
4938 1 56.04977035 10.09509835 1.16568155
4939 1 58.52255434 10.09509835 1.16568155
4940 1 26.37636252 8.07607868 46.62726200
4941 1 28.84914650 8.07607868 46.62726200
4942 1 28.02488518 8.07607868 44.29589890
4943 1 30.49766916 8.07607868 44.29589890
4944 1 29.67340783 8.07607868 41.96453580
4945 1 32.14619182 8.07607868 41.96453580
4946 1 31.32193049 8.07607868 39.63317270
4947 1 33.79471448 8.07607868 39.63317270
4948 1 32.97045315 8.07607868 37.30180960
4949 1 35.44323713 8.07607868 37.30180960
4950 1 34.61897580 8.07607868 34.97044650
4951 1 37.09175979 8.07607868 34.97044650
4952 1 36.26749846 8.07607868 32.63908340
4953 1 38.74028245 8.07607868 32.63908340
4954 1 37.91602112 8.07607868 30.30772030
4955 1 40.38880511 8.07607868 30.30772030
4956 1 39.56454378 8.07607868 27.97635720
4957 1 42.03732776 8.07607868 27.97635720
4958 1 41.21306643 8.07607868 25.64499410
4959 1 43.68585042 8.07607868 25.64499410
4960 1 42.86158909 8.07607868 23.31363100
4961 1 45.33437308 8.07607868 23.31363100
4962 1 44.51011175 8.07607868 20.98226790
4963 1 46.98289574 8.07607868 20.98226790
4964 1 46.15863441 8.07607868 18.65090480
4965 1 48.63141839 8.07607868 18.65090480
4966 1 47.80715706 8.07607868 16.31954170
4967 1 50.27994105 8.07607868 16.31954170
4968 1 49.45567972 8.07607868 13.98817860
4969 1 51.92846371 8.07607868 13.98817860
4970 1 51.10420238 8.07607868 11.65681550
4971 1 53.57698636 8.07607868 11.65681550
4972 1 52.75272504 8.07607868 9.32545240
4973 1 55.22550902 8.07607868 9.32545240
4974 1 54.40124769 8.07607868 6.99408930
4975 1 56.87403168 8.07607868 6.99408930
4976 1 56.04977035 8.07607868 4.66272620
4977 1 58.52255434 8.07607868 4.66272620
4978 1 57.69829301 8.07607868 2.33136310
4979 1 60.17107699 8.07607868 2.33136310
4980 1 59.34681567 8.07607868 0.00000000
4981 1 61.81959965 8.07607868 0.00000000
4982 1 28.02488518 6.05705901 47.79294355
4983 1 30.49766916 6.05705901 47.79294355
4984 1 29.67340783 6.05705901 45.46158045
4985 1 32.14619182 6.05705901 45.46158045
4986 1 31.32193049 6.05705901 43.13021735
4987 1 33.79471448 6.05705901 43.13021735
4988 1 32.97045315 6.05705901 40.79885425
4989 1 35.44323713 6.05705901 40.79885425
4990 1 34.61897580 6.05705901 38.46749115
4991 1 37.09175979 6.05705901 38.46749115
4992 1 36.26749846 6.05705901 36.13612805
4993 1 38.74028245 6.05705901 36.13612805
4994 1 37.91602112 6.05705901 33.80476495
4995 1 40.38880511 6.05705901 33.80476495
4996 1 39.56454378 6.05705901 31.47340185
4997 1 42.03732776 6.05705901 31.47340185
4998 1 41.21306643 6.05705901 29.14203875
4999 1 43.68585042 6.05705901 29.14203875
5000 1 42.86158909 6.05705901 26.81067565
5001 1 45.33437308 6.05705901 26.81067565
5002 1 44.51011175 6.05705901 24.47931255
5003 1 46.98289574 6.05705901 24.47931255
5004 1 46.15863441 6.05705901 22.14794945
5005 1 48.63141839 6.05705901 22.14794945
5006 1 47.80715706 6.05705901 19.81658635
5007 1 50.27994105 6.05705901 19.81658635
5008 1 49.45567972 6.05705901 17.48522325
5009 1 51.92846371 6.05705901 17.48522325
5010 1 51.10420238 6.05705901 15.15386015
5011 1 53.57698636 6.05705901 15.15386015
5012 1 52.75272504 6.05705901 12.82249705
5013 1 55.22550902 6.05705901 12.82249705
5014 1 54.40124769 6.05705901 10.49113395
5015 1 56.87403168 6.05705901 10.49113395
5016 1 56.04977035 6.05705901 8.15977085
5017 1 58.52255434 6.05705901 8.15977085
5018 1 57.69829301 6.05705901 5.82840775
5019 1 60.17107699 6.05705901 5.82840775
5020 1 59.34681567 6.05705901 3.49704465
5021 1 61.81959965 6.05705901 3.49704465
5022 1 60.99533832 6.05705901 1.16568155
5023 1 63.46812231 6.05705901 1.16568155
5024 1 31.32193049 4.03803934 46.62726200
5025 1 33.79471448 4.03803934 46.62726200
5026 1 32.97045315 4.03803934 44.29589890
5027 1 35.44323713 4.03803934 44.29589890
5028 1 34.61897580 4.03803934 41.96453580
5029 1 37.09175979 4.03803934 41.96453580
5030 1 36.26749846 4.03803934 39.63317270
5031 1 38.74028245 4.03803934 39.63317270
5032 1 37.91602112 4.03803934 37.30180960
5033 1 40.38880511 4.03803934 37.30180960
5034 1 39.56454378 4.03803934 34.97044650
5035 1 42.03732776 4.03803934 34.97044650
5036 1 41.21306643 4.03803934 32.63908340
5037 1 43.68585042 4.03803934 32.63908340
5038 1 42.86158909 4.03803934 30.30772030
5039 1 45.33437308 4.03803934 30.30772030
5040 1 44.51011175 4.03803934 27.97635720
5041 1 46.98289574 4.03803934 27.97635720
5042 1 46.15863441 4.03803934 25.64499410
5043 1 48.63141839 4.03803934 25.64499410
5044 1 47.80715706 4.03803934 23.31363100
5045 1 50.27994105 4.03803934 23.31363100
5046 1 49.45567972 4.03803934 20.98226790
5047 1 51.92846371 4.03803934 20.98226790
5048 1 51.10420238 4.03803934 18.65090480
5049 1 53.57698636 4.03803934 18.65090480
5050 1 52.75272504 4.03803934 16.31954170
5051 1 55.22550902 4.03803934 16.31954170
5052 1 54.40124769 4.03803934 13.98817860
5053 1 56.87403168 4.03803934 13.98817860
5054 1 56.04977035 4.03803934 11.65681550
5055 1 58.52255434 4.03803934 11.65681550
5056 1 57.69829301 4.03803934 9.32545240
5057 1 60.17107699 4.03803934 9.32545240
5058 1 59.34681567 4.03803934 6.99408930
5059 1 61.81959965 4.03803934 6.99408930
5060 1 60.99533832 4.03803934 4.66272620
5061 1 63.46812231 4.03803934 4.66272620
5062 1 62.64386098 4.03803934 2.33136310
5063 1 32.97045315 2.01901967 47.79294355
5064 1 35.44323713 2.01901967 47.79294355
5065 1 34.61897580 2.01901967 45.46158045
5066 1 37.09175979 2.01901967 45.46158045
5067 1 36.26749846 2.01901967 43.13021735
5068 1 38.74028245 2.01901967 43.13021735
5069 1 37.91602112 2.01901967 40.79885425
5070 1 40.38880511 2.01901967 40.79885425
5071 1 39.56454378 2.01901967 38.46749115
5072 1 42.03732776 2.01901967 38.46749115
5073 1 41.21306643 2.01901967 36.13612805
5074 1 43.68585042 2.01901967 36.13612805
5075 1 42.86158909 2.01901967 33.80476495
5076 1 45.33437308 2.01901967 33.80476495
5077 1 44.51011175 2.01901967 31.47340185
5078 1 46.98289574 2.01901967 31.47340185
5079 1 46.15863441 2.01901967 29.14203875
5080 1 48.63141839 2.01901967 29.14203875
5081 1 47.80715706 2.01901967 26.81067565
5082 1 50.27994105 2.01901967 26.81067565
5083 1 49.45567972 2.01901967 24.47931255
5084 1 51.92846371 2.01901967 24.47931255
5085 1 51.10420238 2.01901967 22.14794945
5086 1 53.57698636 2.01901967 22.14794945
5087 1 52.75272504 2.01901967 19.81658635
5088 1 55.22550902 2.01901967 19.81658635
5089 1 54.40124769 2.01901967 17.48522325
5090 1 56.87403168 2.01901967 17.48522325
5091 1 56.04977035 2.01901967 15.15386015
5092 1 58.52255434 2.01901967 15.15386015
5093 1 57.69829301 2.01901967 12.82249705
5094 1 60.17107699 2.01901967 12.82249705
5095 1 59.34681567 2.01901967 10.49113395
5096 1 61.81959965 2.01901967 10.49113395
5097 1 60.99533832 2.01901967 8.15977085
5098 1 63.46812231 2.01901967 8.15977085
5099 1 62.64386098 2.01901967 5.82840775
5100 1 36.26749846 -0.00000000 46.62726200
5101 1 38.74028245 0.00000000 46.62726200
5102 1 37.91602112 -0.00000000 44.29589890
5103 1 40.38880511 0.00000000 44.29589890
5104 1 39.56454378 -0.00000000 41.96453580
5105 1 42.03732776 0.00000000 41.96453580
5106 1 41.21306643 -0.00000000 39.63317270
5107 1 43.68585042 0.00000000 39.63317270
5108 1 42.86158909 -0.00000000 37.30180960
5109 1 45.33437308 0.00000000 37.30180960
5110 1 44.51011175 -0.00000000 34.97044650
5111 1 46.98289574 0.00000000 34.97044650
5112 1 46.15863441 -0.00000000 32.63908340
5113 1 48.63141839 0.00000000 32.63908340
5114 1 47.80715706 -0.00000000 30.30772030
5115 1 50.27994105 0.00000000 30.30772030
5116 1 49.45567972 -0.00000000 27.97635720
5117 1 51.92846371 0.00000000 27.97635720
5118 1 51.10420238 -0.00000000 25.64499410
5119 1 53.57698636 0.00000000 25.64499410
5120 1 52.75272504 -0.00000000 23.31363100
5121 1 55.22550902 0.00000000 23.31363100
5122 1 54.40124769 -0.00000000 20.98226790
5123 1 56.87403168 0.00000000 20.98226790
5124 1 56.04977035 -0.00000000 18.65090480
5125 1 58.52255434 0.00000000 18.65090480
5126 1 57.69829301 -0.00000000 16.31954170
5127 1 60.17107699 0.00000000 16.31954170
5128 1 59.34681567 -0.00000000 13.98817860
5129 1 61.81959965 0.00000000 13.98817860
5130 1 60.99533832 -0.00000000 11.65681550
5131 1 63.46812231 0.00000000 11.65681550
5132 1 62.64386098 -0.00000000 9.32545240
5133 1 3.29704531 30.28529505 47.79294355
5134 1 5.76982930 30.28529505 47.79294355
5135 1 4.94556797 30.28529505 45.46158045
5136 1 7.41835196 30.28529505 45.46158045
5137 1 6.59409063 30.28529505 43.13021735
5138 1 9.06687462 30.28529505 43.13021735
5139 1 8.24261329 30.28529505 40.79885425
5140 1 10.71539727 30.28529505 40.79885425
5141 1 9.89113594 30.28529505 38.46749115
5142 1 12.36391993 30.28529505 38.46749115
5143 2 11.53965860 30.28529505 36.13612805
5144 2 14.01244259 30.28529505 36.13612805
5145 2 13.18818126 30.28529505 33.80476495
5146 2 15.66096525 30.28529505 33.80476495
5147 2 14.83670392 30.28529505 31.47340185
5148 2 17.30948790 30.28529505 31.47340185
5149 2 16.48522657 30.28529505 29.14203875
5150 2 18.95801056 30.28529505 29.14203875
5151 2 18.13374923 30.28529505 26.81067565
5152 2 20.60653322 30.28529505 26.81067565
5153 2 19.78227189 30.28529505 24.47931255
5154 2 22.25505587 30.28529505 24.47931255
5155 2 21.43079455 30.28529505 22.14794945
5156 1 23.90357853 30.28529505 22.14794945
5157 1 23.07931720 30.28529505 19.81658635
5158 1 25.55210119 30.28529505 19.81658635
5159 1 24.72783986 30.28529505 17.48522325
5160 1 27.20062385 30.28529505 17.48522325
5161 1 26.37636252 30.28529505 15.15386015
5162 1 28.84914650 30.28529505 15.15386015
5163 1 28.02488518 30.28529505 12.82249705
5164 1 30.49766916 30.28529505 12.82249705
5165 1 29.67340783 30.28529505 10.49113395
5166 1 32.14619182 30.28529505 10.49113395
5167 1 31.32193049 30.28529505 8.15977085
5168 1 33.79471448 30.28529505 8.15977085
5169 1 32.97045315 30.28529505 5.82840775
5170 1 35.44323713 30.28529505 5.82840775
5171 1 34.61897580 30.28529505 3.49704465
5172 1 37.09175979 30.28529505 3.49704465
5173 1 36.26749846 30.28529505 1.16568155
5174 1 38.74028245 30.28529505 1.16568155
5175 1 6.59409063 28.26627538 46.62726200
5176 1 9.06687462 28.26627538 46.62726200
5177 1 8.24261329 28.26627538 44.29589890
5178 1 10.71539727 28.26627538 44.29589890
5179 1 9.89113594 28.26627538 41.96453580
5180 1 12.36391993 28.26627538 41.96453580
5181 1 11.53965860 28.26627538 39.63317270
5182 1 14.01244259 28.26627538 39.63317270
5183 1 13.18818126 28.26627538 37.30180960
5184 1 15.66096525 28.26627538 37.30180960
5185 2 14.83670392 28.26627538 34.97044650
5186 1 17.30948790 28.26627538 34.97044650
5187 2 16.48522657 28.26627538 32.63908340
5188 2 18.95801056 28.26627538 32.63908340
5189 2 18.13374923 28.26627538 30.30772030
5190 2 20.60653322 28.26627538 30.30772030
5191 2 19.78227189 28.26627538 27.97635720
5192 2 22.25505587 28.26627538 27.97635720
5193 2 21.43079455 28.26627538 25.64499410
5194 1 23.90357853 28.26627538 25.64499410
5195 2 23.07931720 28.26627538 23.31363100
5196 1 25.55210119 28.26627538 23.31363100
5197 1 24.72783986 28.26627538 20.98226790
5198 1 27.20062385 28.26627538 20.98226790
5199 1 26.37636252 28.26627538 18.65090480
5200 1 28.84914650 28.26627538 18.65090480
5201 1 28.02488518 28.26627538 16.31954170
5202 1 30.49766916 28.26627538 16.31954170
5203 1 29.67340783 28.26627538 13.98817860
5204 1 32.14619182 28.26627538 13.98817860
5205 1 31.32193049 28.26627538 11.65681550
5206 1 33.79471448 28.26627538 11.65681550
5207 1 32.97045315 28.26627538 9.32545240
5208 1 35.44323713 28.26627538 9.32545240
5209 1 34.61897580 28.26627538 6.99408930
5210 1 37.09175979 28.26627538 6.99408930
5211 1 36.26749846 28.26627538 4.66272620
5212 1 38.74028245 28.26627538 4.66272620
5213 1 37.91602112 28.26627538 2.33136310
5214 1 40.38880511 28.26627538 2.33136310
5215 1 39.56454378 28.26627538 -0.00000000
5216 1 42.03732776 28.26627538 -0.00000000
5217 1 8.24261329 26.24725571 47.79294355
5218 1 10.71539727 26.24725571 47.79294355
5219 1 9.89113594 26.24725571 45.46158045
5220 1 12.36391993 26.24725571 45.46158045
5221 1 11.53965860 26.24725571 43.13021735
5222 1 14.01244259 26.24725571 43.13021735
5223 1 13.18818126 26.24725571 40.79885425
5224 1 15.66096525 26.24725571 40.79885425
5225 1 14.83670392 26.24725571 38.46749115
5226 1 17.30948790 26.24725571 38.46749115
5227 1 16.48522657 26.24725571 36.13612805
5228 1 18.95801056 26.24725571 36.13612805
5229 1 18.13374923 26.24725571 33.80476495
5230 1 20.60653322 26.24725571 33.80476495
5231 2 19.78227189 26.24725571 31.47340185
5232 1 22.25505587 26.24725571 31.47340185
5233 2 21.43079455 26.24725571 29.14203875
5234 1 23.90357853 26.24725571 29.14203875
5235 1 23.07931720 26.24725571 26.81067565
5236 1 25.55210119 26.24725571 26.81067565
5237 1 24.72783986 26.24725571 24.47931255
5238 1 27.20062385 26.24725571 24.47931255
5239 1 26.37636252 26.24725571 22.14794945
5240 1 28.84914650 26.24725571 22.14794945
5241 1 28.02488518 26.24725571 19.81658635
5242 1 30.49766916 26.24725571 19.81658635
5243 1 29.67340783 26.24725571 17.48522325
5244 1 32.14619182 26.24725571 17.48522325
5245 1 31.32193049 26.24725571 15.15386015
5246 1 33.79471448 26.24725571 15.15386015
5247 1 32.97045315 26.24725571 12.82249705
5248 1 35.44323713 26.24725571 12.82249705
5249 1 34.61897580 26.24725571 10.49113395
5250 1 37.09175979 26.24725571 10.49113395
5251 1 36.26749846 26.24725571 8.15977085
5252 1 38.74028245 26.24725571 8.15977085
5253 1 37.91602112 26.24725571 5.82840775
5254 1 40.38880511 26.24725571 5.82840775
5255 1 39.56454378 26.24725571 3.49704465
5256 1 42.03732776 26.24725571 3.49704465
5257 1 41.21306643 26.24725571 1.16568155
5258 1 43.68585042 26.24725571 1.16568155
5259 1 11.53965860 24.22823604 46.62726200
5260 1 14.01244259 24.22823604 46.62726200
5261 1 13.18818126 24.22823604 44.29589890
5262 1 15.66096525 24.22823604 44.29589890
5263 1 14.83670392 24.22823604 41.96453580
5264 1 17.30948790 24.22823604 41.96453580
5265 1 16.48522657 24.22823604 39.63317270
5266 1 18.95801056 24.22823604 39.63317270
5267 1 18.13374923 24.22823604 37.30180960
5268 1 20.60653322 24.22823604 37.30180960
5269 1 19.78227189 24.22823604 34.97044650
5270 1 22.25505587 24.22823604 34.97044650
5271 1 21.43079455 24.22823604 32.63908340
5272 1 23.90357853 24.22823604 32.63908340
5273 1 23.07931720 24.22823604 30.30772030
5274 1 25.55210119 24.22823604 30.30772030
5275 1 24.72783986 24.22823604 27.97635720
5276 1 27.20062385 24.22823604 27.97635720
5277 1 26.37636252 24.22823604 25.64499410
5278 1 28.84914650 24.22823604 25.64499410
5279 1 28.02488518 24.22823604 23.31363100
5280 1 30.49766916 24.22823604 23.31363100
5281 1 29.67340783 24.22823604 20.98226790
5282 1 32.14619182 24.22823604 20.98226790
5283 1 31.32193049 24.22823604 18.65090480
5284 1 33.79471448 24.22823604 18.65090480
5285 1 32.97045315 24.22823604 16.31954170
5286 1 35.44323713 24.22823604 16.31954170
5287 1 34.61897580 24.22823604 13.98817860
5288 1 37.09175979 24.22823604 13.98817860
5289 1 36.26749846 24.22823604 11.65681550
5290 1 38.74028245 24.22823604 11.65681550
5291 1 37.91602112 24.22823604 9.32545240
5292 1 40.38880511 24.22823604 9.32545240
5293 1 39.56454378 24.22823604 6.99408930
5294 1 42.03732776 24.22823604 6.99408930
5295 1 41.21306643 24.22823604 4.66272620
5296 1 43.68585042 24.22823604 4.66272620
5297 1 42.86158909 24.22823604 2.33136310
5298 1 45.33437308 24.22823604 2.33136310
5299 1 44.51011175 24.22823604 -0.00000000
5300 1 46.98289574 24.22823604 -0.00000000
5301 1 13.18818126 22.20921637 47.79294355
5302 1 15.66096525 22.20921637 47.79294355
5303 1 14.83670392 22.20921637 45.46158045
5304 1 17.30948790 22.20921637 45.46158045
5305 1 16.48522657 22.20921637 43.13021735
5306 1 18.95801056 22.20921637 43.13021735
5307 1 18.13374923 22.20921637 40.79885425
5308 1 20.60653322 22.20921637 40.79885425
5309 1 19.78227189 22.20921637 38.46749115
5310 1 22.25505587 22.20921637 38.46749115
5311 1 21.43079455 22.20921637 36.13612805
5312 1 23.90357853 22.20921637 36.13612805
5313 1 23.07931720 22.20921637 33.80476495
5314 1 25.55210119 22.20921637 33.80476495
5315 1 24.72783986 22.20921637 31.47340185
5316 1 27.20062385 22.20921637 31.47340185
5317 1 26.37636252 22.20921637 29.14203875
5318 1 28.84914650 22.20921637 29.14203875
5319 1 28.02488518 22.20921637 26.81067565
5320 1 30.49766916 22.20921637 26.81067565
5321 1 29.67340783 22.20921637 24.47931255
5322 1 32.14619182 22.20921637 24.47931255
5323 1 31.32193049 22.20921637 22.14794945
5324 1 33.79471448 22.20921637 22.14794945
5325 1 32.97045315 22.20921637 19.81658635
5326 1 35.44323713 22.20921637 19.81658635
5327 1 34.61897580 22.20921637 17.48522325
5328 1 37.09175979 22.20921637 17.48522325
5329 1 36.26749846 22.20921637 15.15386015
5330 1 38.74028245 22.20921637 15.15386015
5331 1 37.91602112 22.20921637 12.82249705
5332 1 40.38880511 22.20921637 12.82249705
5333 1 39.56454378 22.20921637 10.49113395
5334 1 42.03732776 22.20921637 10.49113395
5335 1 41.21306643 22.20921637 8.15977085
5336 1 43.68585042 22.20921637 8.15977085
5337 1 42.86158909 22.20921637 5.82840775
5338 1 45.33437308 22.20921637 5.82840775
5339 1 44.51011175 22.20921637 3.49704465
5340 1 46.98289574 22.20921637 3.49704465
5341 1 46.15863441 22.20921637 1.16568155
5342 1 48.63141839 22.20921637 1.16568155
5343 1 16.48522657 20.19019670 46.62726200
5344 1 18.95801056 20.19019670 46.62726200
5345 1 18.13374923 20.19019670 44.29589890
5346 1 20.60653322 20.19019670 44.29589890
5347 1 19.78227189 20.19019670 41.96453580
5348 1 22.25505587 20.19019670 41.96453580
5349 1 21.43079455 20.19019670 39.63317270
5350 1 23.90357853 20.19019670 39.63317270
5351 1 23.07931720 20.19019670 37.30180960
5352 1 25.55210119 20.19019670 37.30180960
5353 1 24.72783986 20.19019670 34.97044650
5354 1 27.20062385 20.19019670 34.97044650
5355 1 26.37636252 20.19019670 32.63908340
5356 1 28.84914650 20.19019670 32.63908340
5357 1 28.02488518 20.19019670 30.30772030
5358 1 30.49766916 20.19019670 30.30772030
5359 1 29.67340783 20.19019670 27.97635720
5360 1 32.14619182 20.19019670 27.97635720
5361 1 31.32193049 20.19019670 25.64499410
5362 1 33.79471448 20.19019670 25.64499410
5363 1 32.97045315 20.19019670 23.31363100
5364 1 35.44323713 20.19019670 23.31363100
5365 1 34.61897580 20.19019670 20.98226790
5366 1 37.09175979 20.19019670 20.98226790
5367 1 36.26749846 20.19019670 18.65090480
5368 1 38.74028245 20.19019670 18.65090480
5369 1 37.91602112 20.19019670 16.31954170
5370 1 40.38880511 20.19019670 16.31954170
5371 1 39.56454378 20.19019670 13.98817860
5372 1 42.03732776 20.19019670 13.98817860
5373 1 41.21306643 20.19019670 11.65681550
5374 1 43.68585042 20.19019670 11.65681550
5375 1 42.86158909 20.19019670 9.32545240
5376 1 45.33437308 20.19019670 9.32545240
5377 1 44.51011175 20.19019670 6.99408930
5378 1 46.98289574 20.19019670 6.99408930
5379 1 46.15863441 20.19019670 4.66272620
5380 1 48.63141839 20.19019670 4.66272620
5381 1 47.80715706 20.19019670 2.33136310
5382 1 50.27994105 20.19019670 2.33136310
5383 1 49.45567972 20.19019670 -0.00000000
5384 1 51.92846371 20.19019670 -0.00000000
5385 1 18.13374923 18.17117703 47.79294355
5386 1 20.60653322 18.17117703 47.79294355
5387 1 19.78227189 18.17117703 45.46158045
5388 1 22.25505587 18.17117703 45.46158045
5389 1 21.43079455 18.17117703 43.13021735
5390 1 23.90357853 18.17117703 43.13021735
5391 1 23.07931720 18.17117703 40.79885425
5392 1 25.55210119 18.17117703 40.79885425
5393 1 24.72783986 18.17117703 38.46749115
5394 1 27.20062385 18.17117703 38.46749115
5395 1 26.37636252 18.17117703 36.13612805
5396 1 28.84914650 18.17117703 36.13612805
5397 1 28.02488518 18.17117703 33.80476495
5398 1 30.49766916 18.17117703 33.80476495
5399 1 29.67340783 18.17117703 31.47340185
5400 1 32.14619182 18.17117703 31.47340185
5401 1 31.32193049 18.17117703 29.14203875
5402 1 33.79471448 18.17117703 29.14203875
5403 1 32.97045315 18.17117703 26.81067565
5404 1 35.44323713 18.17117703 26.81067565
5405 1 34.61897580 18.17117703 24.47931255
5406 1 37.09175979 18.17117703 24.47931255
5407 1 36.26749846 18.17117703 22.14794945
5408 1 38.74028245 18.17117703 22.14794945
5409 1 37.91602112 18.17117703 19.81658635
5410 1 40.38880511 18.17117703 19.81658635
5411 1 39.56454378 18.17117703 17.48522325
5412 1 42.03732776 18.17117703 17.48522325
5413 1 41.21306643 18.17117703 15.15386015
5414 1 43.68585042 18.17117703 15.15386015
5415 1 42.86158909 18.17117703 12.82249705
5416 1 45.33437308 18.17117703 12.82249705
5417 1 44.51011175 18.17117703 10.49113395
5418 1 46.98289574 18.17117703 10.49113395
5419 1 46.15863441 18.17117703 8.15977085
5420 1 48.63141839 18.17117703 8.15977085
5421 1 47.80715706 18.17117703 5.82840775
5422 1 50.27994105 18.17117703 5.82840775
5423 1 49.45567972 18.17117703 3.49704465
5424 1 51.92846371 18.17117703 3.49704465
5425 1 51.10420238 18.17117703 1.16568155
5426 1 53.57698636 18.17117703 1.16568155
5427 1 21.43079455 16.15215736 46.62726200
5428 1 23.90357853 16.15215736 46.62726200
5429 1 23.07931720 16.15215736 44.29589890
5430 1 25.55210119 16.15215736 44.29589890
5431 1 24.72783986 16.15215736 41.96453580
5432 1 27.20062385 16.15215736 41.96453580
5433 1 26.37636252 16.15215736 39.63317270
5434 1 28.84914650 16.15215736 39.63317270
5435 1 28.02488518 16.15215736 37.30180960
5436 1 30.49766916 16.15215736 37.30180960
5437 1 29.67340783 16.15215736 34.97044650
5438 1 32.14619182 16.15215736 34.97044650
5439 1 31.32193049 16.15215736 32.63908340
5440 1 33.79471448 16.15215736 32.63908340
5441 1 32.97045315 16.15215736 30.30772030
5442 1 35.44323713 16.15215736 30.30772030
5443 1 34.61897580 16.15215736 27.97635720
5444 1 37.09175979 16.15215736 27.97635720
5445 1 36.26749846 16.15215736 25.64499410
5446 1 38.74028245 16.15215736 25.64499410
5447 1 37.91602112 16.15215736 23.31363100
5448 1 40.38880511 16.15215736 23.31363100
5449 1 39.56454378 16.15215736 20.98226790
5450 1 42.03732776 16.15215736 20.98226790
5451 1 41.21306643 16.15215736 18.65090480
5452 1 43.68585042 16.15215736 18.65090480
5453 1 42.86158909 16.15215736 16.31954170
5454 1 45.33437308 16.15215736 16.31954170
5455 1 44.51011175 16.15215736 13.98817860
5456 1 46.98289574 16.15215736 13.98817860
5457 1 46.15863441 16.15215736 11.65681550
5458 1 48.63141839 16.15215736 11.65681550
5459 1 47.80715706 16.15215736 9.32545240
5460 1 50.27994105 16.15215736 9.32545240
5461 1 49.45567972 16.15215736 6.99408930
5462 1 51.92846371 16.15215736 6.99408930
5463 1 51.10420238 16.15215736 4.66272620
5464 1 53.57698636 16.15215736 4.66272620
5465 1 52.75272504 16.15215736 2.33136310
5466 1 55.22550902 16.15215736 2.33136310
5467 1 54.40124769 16.15215736 -0.00000000
5468 1 56.87403168 16.15215736 -0.00000000
5469 1 23.07931720 14.13313769 47.79294355
5470 1 25.55210119 14.13313769 47.79294355
5471 1 24.72783986 14.13313769 45.46158045
5472 1 27.20062385 14.13313769 45.46158045
5473 1 26.37636252 14.13313769 43.13021735
5474 1 28.84914650 14.13313769 43.13021735
5475 1 28.02488518 14.13313769 40.79885425
5476 1 30.49766916 14.13313769 40.79885425
5477 1 29.67340783 14.13313769 38.46749115
5478 1 32.14619182 14.13313769 38.46749115
5479 1 31.32193049 14.13313769 36.13612805
5480 1 33.79471448 14.13313769 36.13612805
5481 1 32.97045315 14.13313769 33.80476495
5482 1 35.44323713 14.13313769 33.80476495
5483 1 34.61897580 14.13313769 31.47340185
5484 1 37.09175979 14.13313769 31.47340185
5485 1 36.26749846 14.13313769 29.14203875
5486 1 38.74028245 14.13313769 29.14203875
5487 1 37.91602112 14.13313769 26.81067565
5488 1 40.38880511 14.13313769 26.81067565
5489 1 39.56454378 14.13313769 24.47931255
5490 1 42.03732776 14.13313769 24.47931255
5491 1 41.21306643 14.13313769 22.14794945
5492 1 43.68585042 14.13313769 22.14794945
5493 1 42.86158909 14.13313769 19.81658635
5494 1 45.33437308 14.13313769 19.81658635
5495 1 44.51011175 14.13313769 17.48522325
5496 1 46.98289574 14.13313769 17.48522325
5497 1 46.15863441 14.13313769 15.15386015
5498 1 48.63141839 14.13313769 15.15386015
5499 1 47.80715706 14.13313769 12.82249705
5500 1 50.27994105 14.13313769 12.82249705
5501 1 49.45567972 14.13313769 10.49113395
5502 1 51.92846371 14.13313769 10.49113395
5503 1 51.10420238 14.13313769 8.15977085
5504 1 53.57698636 14.13313769 8.15977085
5505 1 52.75272504 14.13313769 5.82840775
5506 1 55.22550902 14.13313769 5.82840775
5507 1 54.40124769 14.13313769 3.49704465
5508 1 56.87403168 14.13313769 3.49704465
5509 1 56.04977035 14.13313769 1.16568155
5510 1 58.52255434 14.13313769 1.16568155
5511 1 26.37636252 12.11411802 46.62726200
5512 1 28.84914650 12.11411802 46.62726200
5513 1 28.02488518 12.11411802 44.29589890
5514 1 30.49766916 12.11411802 44.29589890
5515 1 29.67340783 12.11411802 41.96453580
5516 1 32.14619182 12.11411802 41.96453580
5517 1 31.32193049 12.11411802 39.63317270
5518 1 33.79471448 12.11411802 39.63317270
5519 1 32.97045315 12.11411802 37.30180960
5520 1 35.44323713 12.11411802 37.30180960
5521 1 34.61897580 12.11411802 34.97044650
5522 1 37.09175979 12.11411802 34.97044650
5523 1 36.26749846 12.11411802 32.63908340
5524 1 38.74028245 12.11411802 32.63908340
5525 1 37.91602112 12.11411802 30.30772030
5526 1 40.38880511 12.11411802 30.30772030
5527 1 39.56454378 12.11411802 27.97635720
5528 1 42.03732776 12.11411802 27.97635720
5529 1 41.21306643 12.11411802 25.64499410
5530 1 43.68585042 12.11411802 25.64499410
5531 1 42.86158909 12.11411802 23.31363100
5532 1 45.33437308 12.11411802 23.31363100
5533 1 44.51011175 12.11411802 20.98226790
5534 1 46.98289574 12.11411802 20.98226790
5535 1 46.15863441 12.11411802 18.65090480
5536 1 48.63141839 12.11411802 18.65090480
5537 1 47.80715706 12.11411802 16.31954170
5538 1 50.27994105 12.11411802 16.31954170
5539 1 49.45567972 12.11411802 13.98817860
5540 1 51.92846371 12.11411802 13.98817860
5541 1 51.10420238 12.11411802 11.65681550
5542 1 53.57698636 12.11411802 11.65681550
5543 1 52.75272504 12.11411802 9.32545240
5544 1 55.22550902 12.11411802 9.32545240
5545 1 54.40124769 12.11411802 6.99408930
5546 1 56.87403168 12.11411802 6.99408930
5547 1 56.04977035 12.11411802 4.66272620
5548 1 58.52255434 12.11411802 4.66272620
5549 1 57.69829301 12.11411802 2.33136310
5550 1 60.17107699 12.11411802 2.33136310
5551 1 59.34681567 12.11411802 0.00000000
5552 1 61.81959965 12.11411802 0.00000000
5553 1 28.02488518 10.09509835 47.79294355
5554 1 30.49766916 10.09509835 47.79294355
5555 1 29.67340783 10.09509835 45.46158045
5556 1 32.14619182 10.09509835 45.46158045
5557 1 31.32193049 10.09509835 43.13021735
5558 1 33.79471448 10.09509835 43.13021735
5559 1 32.97045315 10.09509835 40.79885425
5560 1 35.44323713 10.09509835 40.79885425
5561 1 34.61897580 10.09509835 38.46749115
5562 1 37.09175979 10.09509835 38.46749115
5563 1 36.26749846 10.09509835 36.13612805
5564 1 38.74028245 10.09509835 36.13612805
5565 1 37.91602112 10.09509835 33.80476495
5566 1 40.38880511 10.09509835 33.80476495
5567 1 39.56454378 10.09509835 31.47340185
5568 1 42.03732776 10.09509835 31.47340185
5569 1 41.21306643 10.09509835 29.14203875
5570 1 43.68585042 10.09509835 29.14203875
5571 1 42.86158909 10.09509835 26.81067565
5572 1 45.33437308 10.09509835 26.81067565
5573 1 44.51011175 10.09509835 24.47931255
5574 1 46.98289574 10.09509835 24.47931255
5575 1 46.15863441 10.09509835 22.14794945
5576 1 48.63141839 10.09509835 22.14794945
5577 1 47.80715706 10.09509835 19.81658635
5578 1 50.27994105 10.09509835 19.81658635
5579 1 49.45567972 10.09509835 17.48522325
5580 1 51.92846371 10.09509835 17.48522325
5581 1 51.10420238 10.09509835 15.15386015
5582 1 53.57698636 10.09509835 15.15386015
5583 1 52.75272504 10.09509835 12.82249705
5584 1 55.22550902 10.09509835 12.82249705
5585 1 54.40124769 10.09509835 10.49113395
5586 1 56.87403168 10.09509835 10.49113395
5587 1 56.04977035 10.09509835 8.15977085
5588 1 58.52255434 10.09509835 8.15977085
5589 1 57.69829301 10.09509835 5.82840775
5590 1 60.17107699 10.09509835 5.82840775
5591 1 59.34681567 10.09509835 3.49704465
5592 1 61.81959965 10.09509835 3.49704465
5593 1 60.99533832 10.09509835 1.16568155
5594 1 63.46812231 10.09509835 1.16568155
5595 1 31.32193049 8.07607868 46.62726200
5596 1 33.79471448 8.07607868 46.62726200
5597 1 32.97045315 8.07607868 44.29589890
5598 1 35.44323713 8.07607868 44.29589890
5599 1 34.61897580 8.07607868 41.96453580
5600 1 37.09175979 8.07607868 41.96453580
5601 1 36.26749846 8.07607868 39.63317270
5602 1 38.74028245 8.07607868 39.63317270
5603 1 37.91602112 8.07607868 37.30180960
5604 1 40.38880511 8.07607868 37.30180960
5605 1 39.56454378 8.07607868 34.97044650
5606 1 42.03732776 8.07607868 34.97044650
5607 1 41.21306643 8.07607868 32.63908340
5608 1 43.68585042 8.07607868 32.63908340
5609 1 42.86158909 8.07607868 30.30772030
5610 1 45.33437308 8.07607868 30.30772030
5611 1 44.51011175 8.07607868 27.97635720
5612 1 46.98289574 8.07607868 27.97635720
5613 1 46.15863441 8.07607868 25.64499410
5614 1 48.63141839 8.07607868 25.64499410
5615 1 47.80715706 8.07607868 23.31363100
5616 1 50.27994105 8.07607868 23.31363100
5617 1 49.45567972 8.07607868 20.98226790
5618 1 51.92846371 8.07607868 20.98226790
5619 1 51.10420238 8.07607868 18.65090480
5620 1 53.57698636 8.07607868 18.65090480
5621 1 52.75272504 8.07607868 16.31954170
5622 1 55.22550902 8.07607868 16.31954170
5623 1 54.40124769 8.07607868 13.98817860
5624 1 56.87403168 8.07607868 13.98817860
5625 1 56.04977035 8.07607868 11.65681550
5626 1 58.52255434 8.07607868 11.65681550
5627 1 57.69829301 8.07607868 9.32545240
5628 1 60.17107699 8.07607868 9.32545240
5629 1 59.34681567 8.07607868 6.99408930
5630 1 61.81959965 8.07607868 6.99408930
5631 1 60.99533832 8.07607868 4.66272620
5632 1 63.46812231 8.07607868 4.66272620
5633 1 62.64386098 8.07607868 2.33136310
5634 1 32.97045315 6.05705901 47.79294355
5635 1 35.44323713 6.05705901 47.79294355
5636 1 34.61897580 6.05705901 45.46158045
5637 1 37.09175979 6.05705901 45.46158045
5638 1 36.26749846 6.05705901 43.13021735
5639 1 38.74028245 6.05705901 43.13021735
5640 1 37.91602112 6.05705901 40.79885425
5641 1 40.38880511 6.05705901 40.79885425
5642 1 39.56454378 6.05705901 38.46749115
5643 1 42.03732776 6.05705901 38.46749115
5644 1 41.21306643 6.05705901 36.13612805
5645 1 43.68585042 6.05705901 36.13612805
5646 1 42.86158909 6.05705901 33.80476495
5647 1 45.33437308 6.05705901 33.80476495
5648 1 44.51011175 6.05705901 31.47340185
5649 1 46.98289574 6.05705901 31.47340185
5650 1 46.15863441 6.05705901 29.14203875
5651 1 48.63141839 6.05705901 29.14203875
5652 1 47.80715706 6.05705901 26.81067565
5653 1 50.27994105 6.05705901 26.81067565
5654 1 49.45567972 6.05705901 24.47931255
5655 1 51.92846371 6.05705901 24.47931255
5656 1 51.10420238 6.05705901 22.14794945
5657 1 53.57698636 6.05705901 22.14794945
5658 1 52.75272504 6.05705901 19.81658635
5659 1 55.22550902 6.05705901 19.81658635
5660 1 54.40124769 6.05705901 17.48522325
5661 1 56.87403168 6.05705901 17.48522325
5662 1 56.04977035 6.05705901 15.15386015
5663 1 58.52255434 6.05705901 15.15386015
5664 1 57.69829301 6.05705901 12.82249705
5665 1 60.17107699 6.05705901 12.82249705
5666 1 59.34681567 6.05705901 10.49113395
5667 1 61.81959965 6.05705901 10.49113395
5668 1 60.99533832 6.05705901 8.15977085
5669 1 63.46812231 6.05705901 8.15977085
5670 1 62.64386098 6.05705901 5.82840775
5671 1 36.26749846 4.03803934 46.62726200
5672 1 38.74028245 4.03803934 46.62726200
5673 1 37.91602112 4.03803934 44.29589890
5674 1 40.38880511 4.03803934 44.29589890
5675 1 39.56454378 4.03803934 41.96453580
5676 1 42.03732776 4.03803934 41.96453580
5677 1 41.21306643 4.03803934 39.63317270
5678 1 43.68585042 4.03803934 39.63317270
5679 1 42.86158909 4.03803934 37.30180960
5680 1 45.33437308 4.03803934 37.30180960
5681 1 44.51011175 4.03803934 34.97044650
5682 1 46.98289574 4.03803934 34.97044650
5683 1 46.15863441 4.03803934 32.63908340
5684 1 48.63141839 4.03803934 32.63908340
5685 1 47.80715706 4.03803934 30.30772030
5686 1 50.27994105 4.03803934 30.30772030
5687 1 49.45567972 4.03803934 27.97635720
5688 1 51.92846371 4.03803934 27.97635720
5689 1 51.10420238 4.03803934 25.64499410
5690 1 53.57698636 4.03803934 25.64499410
5691 1 52.75272504 4.03803934 23.31363100
5692 1 55.22550902 4.03803934 23.31363100
5693 1 54.40124769 4.03803934 20.98226790
5694 1 56.87403168 4.03803934 20.98226790
5695 1 56.04977035 4.03803934 18.65090480
5696 1 58.52255434 4.03803934 18.65090480
5697 1 57.69829301 4.03803934 16.31954170
5698 1 60.17107699 4.03803934 16.31954170
5699 1 59.34681567 4.03803934 13.98817860
5700 1 61.81959965 4.03803934 13.98817860
5701 1 60.99533832 4.03803934 11.65681550
5702 1 63.46812231 4.03803934 11.65681550
5703 1 62.64386098 4.03803934 9.32545240
5704 1 37.91602112 2.01901967 47.79294355
5705 1 40.38880511 2.01901967 47.79294355
5706 1 39.56454378 2.01901967 45.46158045
5707 1 42.03732776 2.01901967 45.46158045
5708 1 41.21306643 2.01901967 43.13021735
5709 1 43.68585042 2.01901967 43.13021735
5710 1 42.86158909 2.01901967 40.79885425
5711 1 45.33437308 2.01901967 40.79885425
5712 1 44.51011175 2.01901967 38.46749115
5713 1 46.98289574 2.01901967 38.46749115
5714 1 46.15863441 2.01901967 36.13612805
5715 1 48.63141839 2.01901967 36.13612805
5716 1 47.80715706 2.01901967 33.80476495
5717 1 50.27994105 2.01901967 33.80476495
5718 1 49.45567972 2.01901967 31.47340185
5719 1 51.92846371 2.01901967 31.47340185
5720 1 51.10420238 2.01901967 29.14203875
5721 1 53.57698636 2.01901967 29.14203875
5722 1 52.75272504 2.01901967 26.81067565
5723 1 55.22550902 2.01901967 26.81067565
5724 1 54.40124769 2.01901967 24.47931255
5725 1 56.87403168 2.01901967 24.47931255
5726 1 56.04977035 2.01901967 22.14794945
5727 1 58.52255434 2.01901967 22.14794945
5728 1 57.69829301 2.01901967 19.81658635
5729 1 60.17107699 2.01901967 19.81658635
5730 1 59.34681567 2.01901967 17.48522325
5731 1 61.81959965 2.01901967 17.48522325
5732 1 60.99533832 2.01901967 15.15386015
5733 1 63.46812231 2.01901967 15.15386015
5734 1 62.64386098 2.01901967 12.82249705
5735 1 41.21306643 -0.00000000 46.62726200
5736 1 43.68585042 0.00000000 46.62726200
5737 1 42.86158909 -0.00000000 44.29589890
5738 1 45.33437308 0.00000000 44.29589890
5739 1 44.51011175 -0.00000000 41.96453580
5740 1 46.98289574 0.00000000 41.96453580
5741 1 46.15863441 -0.00000000 39.63317270
5742 1 48.63141839 0.00000000 39.63317270
5743 1 47.80715706 -0.00000000 37.30180960
5744 1 50.27994105 0.00000000 37.30180960
5745 1 49.45567972 -0.00000000 34.97044650
5746 1 51.92846371 0.00000000 34.97044650
5747 1 51.10420238 -0.00000000 32.63908340
5748 1 53.57698636 0.00000000 32.63908340
5749 1 52.75272504 -0.00000000 30.30772030
5750 1 55.22550902 0.00000000 30.30772030
5751 1 54.40124769 -0.00000000 27.97635720
5752 1 56.87403168 0.00000000 27.97635720
5753 1 56.04977035 -0.00000000 25.64499410
5754 1 58.52255434 0.00000000 25.64499410
5755 1 57.69829301 -0.00000000 23.31363100
5756 1 60.17107699 0.00000000 23.31363100
5757 1 59.34681567 -0.00000000 20.98226790
5758 1 61.81959965 0.00000000 20.98226790
5759 1 60.99533832 -0.00000000 18.65090480
5760 1 63.46812231 0.00000000 18.65090480
5761 1 62.64386098 -0.00000000 16.31954170
5762 1 8.24261329 30.28529505 47.79294355
5763 1 10.71539727 30.28529505 47.79294355
5764 1 9.89113594 30.28529505 45.46158045
5765 1 12.36391993 30.28529505 45.46158045
5766 1 11.53965860 30.28529505 43.13021735
5767 1 14.01244259 30.28529505 43.13021735
5768 1 13.18818126 30.28529505 40.79885425
5769 1 15.66096525 30.28529505 40.79885425
5770 1 14.83670392 30.28529505 38.46749115
5771 1 17.30948790 30.28529505 38.46749115
5772 1 16.48522657 30.28529505 36.13612805
5773 1 18.95801056 30.28529505 36.13612805
5774 2 18.13374923 30.28529505 33.80476495
5775 1 20.60653322 30.28529505 33.80476495
5776 2 19.78227189 30.28529505 31.47340185
5777 1 22.25505587 30.28529505 31.47340185
5778 2 21.43079455 30.28529505 29.14203875
5779 1 23.90357853 30.28529505 29.14203875
5780 2 23.07931720 30.28529505 26.81067565
5781 1 25.55210119 30.28529505 26.81067565
5782 1 24.72783986 30.28529505 24.47931255
5783 1 27.20062385 30.28529505 24.47931255
5784 1 26.37636252 30.28529505 22.14794945
5785 1 28.84914650 30.28529505 22.14794945
5786 1 28.02488518 30.28529505 19.81658635
5787 1 30.49766916 30.28529505 19.81658635
5788 1 29.67340783 30.28529505 17.48522325
5789 1 32.14619182 30.28529505 17.48522325
5790 1 31.32193049 30.28529505 15.15386015
5791 1 33.79471448 30.28529505 15.15386015
5792 1 32.97045315 30.28529505 12.82249705
5793 1 35.44323713 30.28529505 12.82249705
5794 1 34.61897580 30.28529505 10.49113395
5795 1 37.09175979 30.28529505 10.49113395
5796 1 36.26749846 30.28529505 8.15977085
5797 1 38.74028245 30.28529505 8.15977085
5798 1 37.91602112 30.28529505 5.82840775
5799 1 40.38880511 30.28529505 5.82840775
5800 1 39.56454378 30.28529505 3.49704465
5801 1 42.03732776 30.28529505 3.49704465
5802 1 41.21306643 30.28529505 1.16568155
5803 1 43.68585042 30.28529505 1.16568155
5804 1 11.53965860 28.26627538 46.62726200
5805 1 14.01244259 28.26627538 46.62726200
5806 1 13.18818126 28.26627538 44.29589890
5807 1 15.66096525 28.26627538 44.29589890
5808 1 14.83670392 28.26627538 41.96453580
5809 1 17.30948790 28.26627538 41.96453580
5810 1 16.48522657 28.26627538 39.63317270
5811 1 18.95801056 28.26627538 39.63317270
5812 1 18.13374923 28.26627538 37.30180960
5813 1 20.60653322 28.26627538 37.30180960
5814 1 19.78227189 28.26627538 34.97044650
5815 1 22.25505587 28.26627538 34.97044650
5816 1 21.43079455 28.26627538 32.63908340
5817 1 23.90357853 28.26627538 32.63908340
5818 1 23.07931720 28.26627538 30.30772030
5819 1 25.55210119 28.26627538 30.30772030
5820 1 24.72783986 28.26627538 27.97635720
5821 1 27.20062385 28.26627538 27.97635720
5822 1 26.37636252 28.26627538 25.64499410
5823 1 28.84914650 28.26627538 25.64499410
5824 1 28.02488518 28.26627538 23.31363100
5825 1 30.49766916 28.26627538 23.31363100
5826 1 29.67340783 28.26627538 20.98226790
5827 1 32.14619182 28.26627538 20.98226790
5828 1 31.32193049 28.26627538 18.65090480
5829 1 33.79471448 28.26627538 18.65090480
5830 1 32.97045315 28.26627538 16.31954170
5831 1 35.44323713 28.26627538 16.31954170
5832 1 34.61897580 28.26627538 13.98817860
5833 1 37.09175979 28.26627538 13.98817860
5834 1 36.26749846 28.26627538 11.65681550
5835 1 38.74028245 28.26627538 11.65681550
5836 1 37.91602112 28.26627538 9.32545240
5837 1 40.38880511 28.26627538 9.32545240
5838 1 39.56454378 28.26627538 6.99408930
5839 1 42.03732776 28.26627538 6.99408930
5840 1 41.21306643 28.26627538 4.66272620
5841 1 43.68585042 28.26627538 4.66272620
5842 1 42.86158909 28.26627538 2.33136310
5843 1 45.33437308 28.26627538 2.33136310
5844 1 44.51011175 28.26627538 -0.00000000
5845 1 46.98289574 28.26627538 -0.00000000
5846 1 13.18818126 26.24725571 47.79294355
5847 1 15.66096525 26.24725571 47.79294355
5848 1 14.83670392 26.24725571 45.46158045
5849 1 17.30948790 26.24725571 45.46158045
5850 1 16.48522657 26.24725571 43.13021735
5851 1 18.95801056 26.24725571 43.13021735
5852 1 18.13374923 26.24725571 40.79885425
5853 1 20.60653322 26.24725571 40.79885425
5854 1 19.78227189 26.24725571 38.46749115
5855 1 22.25505587 26.24725571 38.46749115
5856 1 21.43079455 26.24725571 36.13612805
5857 1 23.90357853 26.24725571 36.13612805
5858 1 23.07931720 26.24725571 33.80476495
5859 1 25.55210119 26.24725571 33.80476495
5860 1 24.72783986 26.24725571 31.47340185
5861 1 27.20062385 26.24725571 31.47340185
5862 1 26.37636252 26.24725571 29.14203875
5863 1 28.84914650 26.24725571 29.14203875
5864 1 28.02488518 26.24725571 26.81067565
5865 1 30.49766916 26.24725571 26.81067565
5866 1 29.67340783 26.24725571 24.47931255
5867 1 32.14619182 26.24725571 24.47931255
5868 1 31.32193049 26.24725571 22.14794945
5869 1 33.79471448 26.24725571 22.14794945
5870 1 32.97045315 26.24725571 19.81658635
5871 1 35.44323713 26.24725571 19.81658635
5872 1 34.61897580 26.24725571 17.48522325
5873 1 37.09175979 26.24725571 17.48522325
5874 1 36.26749846 26.24725571 15.15386015
5875 1 38.74028245 26.24725571 15.15386015
5876 1 37.91602112 26.24725571 12.82249705
5877 1 40.38880511 26.24725571 12.82249705
5878 1 39.56454378 26.24725571 10.49113395
5879 1 42.03732776 26.24725571 10.49113395
5880 1 41.21306643 26.24725571 8.15977085
5881 1 43.68585042 26.24725571 8.15977085
5882 1 42.86158909 26.24725571 5.82840775
5883 1 45.33437308 26.24725571 5.82840775
5884 1 44.51011175 26.24725571 3.49704465
5885 1 46.98289574 26.24725571 3.49704465
5886 1 46.15863441 26.24725571 1.16568155
5887 1 48.63141839 26.24725571 1.16568155
5888 1 16.48522657 24.22823604 46.62726200
5889 1 18.95801056 24.22823604 46.62726200
5890 1 18.13374923 24.22823604 44.29589890
5891 1 20.60653322 24.22823604 44.29589890
5892 1 19.78227189 24.22823604 41.96453580
5893 1 22.25505587 24.22823604 41.96453580
5894 1 21.43079455 24.22823604 39.63317270
5895 1 23.90357853 24.22823604 39.63317270
5896 1 23.07931720 24.22823604 37.30180960
5897 1 25.55210119 24.22823604 37.30180960
5898 1 24.72783986 24.22823604 34.97044650
5899 1 27.20062385 24.22823604 34.97044650
5900 1 26.37636252 24.22823604 32.63908340
5901 1 28.84914650 24.22823604 32.63908340
5902 1 28.02488518 24.22823604 30.30772030
5903 1 30.49766916 24.22823604 30.30772030
5904 1 29.67340783 24.22823604 27.97635720
5905 1 32.14619182 24.22823604 27.97635720
5906 1 31.32193049 24.22823604 25.64499410
5907 1 33.79471448 24.22823604 25.64499410
5908 1 32.97045315 24.22823604 23.31363100
5909 1 35.44323713 24.22823604 23.31363100
5910 1 34.61897580 24.22823604 20.98226790
5911 1 37.09175979 24.22823604 20.98226790
5912 1 36.26749846 24.22823604 18.65090480
5913 1 38.74028245 24.22823604 18.65090480
5914 1 37.91602112 24.22823604 16.31954170
5915 1 40.38880511 24.22823604 16.31954170
5916 1 39.56454378 24.22823604 13.98817860
5917 1 42.03732776 24.22823604 13.98817860
5918 1 41.21306643 24.22823604 11.65681550
5919 1 43.68585042 24.22823604 11.65681550
5920 1 42.86158909 24.22823604 9.32545240
5921 1 45.33437308 24.22823604 9.32545240
5922 1 44.51011175 24.22823604 6.99408930
5923 1 46.98289574 24.22823604 6.99408930
5924 1 46.15863441 24.22823604 4.66272620
5925 1 48.63141839 24.22823604 4.66272620
5926 1 47.80715706 24.22823604 2.33136310
5927 1 50.27994105 24.22823604 2.33136310
5928 1 49.45567972 24.22823604 0.00000000
5929 1 51.92846371 24.22823604 -0.00000000
5930 1 18.13374923 22.20921637 47.79294355
5931 1 20.60653322 22.20921637 47.79294355
5932 1 19.78227189 22.20921637 45.46158045
5933 1 22.25505587 22.20921637 45.46158045
5934 1 21.43079455 22.20921637 43.13021735
5935 1 23.90357853 22.20921637 43.13021735
5936 1 23.07931720 22.20921637 40.79885425
5937 1 25.55210119 22.20921637 40.79885425
5938 1 24.72783986 22.20921637 38.46749115
5939 1 27.20062385 22.20921637 38.46749115
5940 1 26.37636252 22.20921637 36.13612805
5941 1 28.84914650 22.20921637 36.13612805
5942 1 28.02488518 22.20921637 33.80476495
5943 1 30.49766916 22.20921637 33.80476495
5944 1 29.67340783 22.20921637 31.47340185
5945 1 32.14619182 22.20921637 31.47340185
5946 1 31.32193049 22.20921637 29.14203875
5947 1 33.79471448 22.20921637 29.14203875
5948 1 32.97045315 22.20921637 26.81067565
5949 1 35.44323713 22.20921637 26.81067565
5950 1 34.61897580 22.20921637 24.47931255
5951 1 37.09175979 22.20921637 24.47931255
5952 1 36.26749846 22.20921637 22.14794945
5953 1 38.74028245 22.20921637 22.14794945
5954 1 37.91602112 22.20921637 19.81658635
5955 1 40.38880511 22.20921637 19.81658635
5956 1 39.56454378 22.20921637 17.48522325
5957 1 42.03732776 22.20921637 17.48522325
5958 1 41.21306643 22.20921637 15.15386015
5959 1 43.68585042 22.20921637 15.15386015
5960 1 42.86158909 22.20921637 12.82249705
5961 1 45.33437308 22.20921637 12.82249705
5962 1 44.51011175 22.20921637 10.49113395
5963 1 46.98289574 22.20921637 10.49113395
5964 1 46.15863441 22.20921637 8.15977085
5965 1 48.63141839 22.20921637 8.15977085
5966 1 47.80715706 22.20921637 5.82840775
5967 1 50.27994105 22.20921637 5.82840775
5968 1 49.45567972 22.20921637 3.49704465
5969 1 51.92846371 22.20921637 3.49704465
5970 1 51.10420238 22.20921637 1.16568155
5971 1 53.57698636 22.20921637 1.16568155
5972 1 21.43079455 20.19019670 46.62726200
5973 1 23.90357853 20.19019670 46.62726200
5974 1 23.07931720 20.19019670 44.29589890
5975 1 25.55210119 20.19019670 44.29589890
5976 1 24.72783986 20.19019670 41.96453580
5977 1 27.20062385 20.19019670 41.96453580
5978 1 26.37636252 20.19019670 39.63317270
5979 1 28.84914650 20.19019670 39.63317270
5980 1 28.02488518 20.19019670 37.30180960
5981 1 30.49766916 20.19019670 37.30180960
5982 1 29.67340783 20.19019670 34.97044650
5983 1 32.14619182 20.19019670 34.97044650
5984 1 31.32193049 20.19019670 32.63908340
5985 1 33.79471448 20.19019670 32.63908340
5986 1 32.97045315 20.19019670 30.30772030
5987 1 35.44323713 20.19019670 30.30772030
5988 1 34.61897580 20.19019670 27.97635720
5989 1 37.09175979 20.19019670 27.97635720
5990 1 36.26749846 20.19019670 25.64499410
5991 1 38.74028245 20.19019670 25.64499410
5992 1 37.91602112 20.19019670 23.31363100
5993 1 40.38880511 20.19019670 23.31363100
5994 1 39.56454378 20.19019670 20.98226790
5995 1 42.03732776 20.19019670 20.98226790
5996 1 41.21306643 20.19019670 18.65090480
5997 1 43.68585042 20.19019670 18.65090480
5998 1 42.86158909 20.19019670 16.31954170
5999 1 45.33437308 20.19019670 16.31954170
6000 1 44.51011175 20.19019670 13.98817860
6001 1 46.98289574 20.19019670 13.98817860
6002 1 46.15863441 20.19019670 11.65681550
6003 1 48.63141839 20.19019670 11.65681550
6004 1 47.80715706 20.19019670 9.32545240
6005 1 50.27994105 20.19019670 9.32545240
6006 1 49.45567972 20.19019670 6.99408930
6007 1 51.92846371 20.19019670 6.99408930
6008 1 51.10420238 20.19019670 4.66272620
6009 1 53.57698636 20.19019670 4.66272620
6010 1 52.75272504 20.19019670 2.33136310
6011 1 55.22550902 20.19019670 2.33136310
6012 1 54.40124769 20.19019670 -0.00000000
6013 1 56.87403168 20.19019670 0.00000000
6014 1 23.07931720 18.17117703 47.79294355
6015 1 25.55210119 18.17117703 47.79294355
6016 1 24.72783986 18.17117703 45.46158045
6017 1 27.20062385 18.17117703 45.46158045
6018 1 26.37636252 18.17117703 43.13021735
6019 1 28.84914650 18.17117703 43.13021735
6020 1 28.02488518 18.17117703 40.79885425
6021 1 30.49766916 18.17117703 40.79885425
6022 1 29.67340783 18.17117703 38.46749115
6023 1 32.14619182 18.17117703 38.46749115
6024 1 31.32193049 18.17117703 36.13612805
6025 1 33.79471448 18.17117703 36.13612805
6026 1 32.97045315 18.17117703 33.80476495
6027 1 35.44323713 18.17117703 33.80476495
6028 1 34.61897580 18.17117703 31.47340185
6029 1 37.09175979 18.17117703 31.47340185
6030 1 36.26749846 18.17117703 29.14203875
6031 1 38.74028245 18.17117703 29.14203875
6032 1 37.91602112 18.17117703 26.81067565
6033 1 40.38880511 18.17117703 26.81067565
6034 1 39.56454378 18.17117703 24.47931255
6035 1 42.03732776 18.17117703 24.47931255
6036 1 41.21306643 18.17117703 22.14794945
6037 1 43.68585042 18.17117703 22.14794945
6038 1 42.86158909 18.17117703 19.81658635
6039 1 45.33437308 18.17117703 19.81658635
6040 1 44.51011175 18.17117703 17.48522325
6041 1 46.98289574 18.17117703 17.48522325
6042 1 46.15863441 18.17117703 15.15386015
6043 1 48.63141839 18.17117703 15.15386015
6044 1 47.80715706 18.17117703 12.82249705
6045 1 50.27994105 18.17117703 12.82249705
6046 1 49.45567972 18.17117703 10.49113395
6047 1 51.92846371 18.17117703 10.49113395
6048 1 51.10420238 18.17117703 8.15977085
6049 1 53.57698636 18.17117703 8.15977085
6050 1 52.75272504 18.17117703 5.82840775
6051 1 55.22550902 18.17117703 5.82840775
6052 1 54.40124769 18.17117703 3.49704465
6053 1 56.87403168 18.17117703 3.49704465
6054 1 56.04977035 18.17117703 1.16568155
6055 1 58.52255434 18.17117703 1.16568155
6056 1 26.37636252 16.15215736 46.62726200
6057 1 28.84914650 16.15215736 46.62726200
6058 1 28.02488518 16.15215736 44.29589890
6059 1 30.49766916 16.15215736 44.29589890
6060 1 29.67340783 16.15215736 41.96453580
6061 1 32.14619182 16.15215736 41.96453580
6062 1 31.32193049 16.15215736 39.63317270
6063 1 33.79471448 16.15215736 39.63317270
6064 1 32.97045315 16.15215736 37.30180960
6065 1 35.44323713 16.15215736 37.30180960
6066 1 34.61897580 16.15215736 34.97044650
6067 1 37.09175979 16.15215736 34.97044650
6068 1 36.26749846 16.15215736 32.63908340
6069 1 38.74028245 16.15215736 32.63908340
6070 1 37.91602112 16.15215736 30.30772030
6071 1 40.38880511 16.15215736 30.30772030
6072 1 39.56454378 16.15215736 27.97635720
6073 1 42.03732776 16.15215736 27.97635720
6074 1 41.21306643 16.15215736 25.64499410
6075 1 43.68585042 16.15215736 25.64499410
6076 1 42.86158909 16.15215736 23.31363100
6077 1 45.33437308 16.15215736 23.31363100
6078 1 44.51011175 16.15215736 20.98226790
6079 1 46.98289574 16.15215736 20.98226790
6080 1 46.15863441 16.15215736 18.65090480
6081 1 48.63141839 16.15215736 18.65090480
6082 1 47.80715706 16.15215736 16.31954170
6083 1 50.27994105 16.15215736 16.31954170
6084 1 49.45567972 16.15215736 13.98817860
6085 1 51.92846371 16.15215736 13.98817860
6086 1 51.10420238 16.15215736 11.65681550
6087 1 53.57698636 16.15215736 11.65681550
6088 1 52.75272504 16.15215736 9.32545240
6089 1 55.22550902 16.15215736 9.32545240
6090 1 54.40124769 16.15215736 6.99408930
6091 1 56.87403168 16.15215736 6.99408930
6092 1 56.04977035 16.15215736 4.66272620
6093 1 58.52255434 16.15215736 4.66272620
6094 1 57.69829301 16.15215736 2.33136310
6095 1 60.17107699 16.15215736 2.33136310
6096 1 59.34681567 16.15215736 0.00000000
6097 1 61.81959965 16.15215736 0.00000000
6098 1 28.02488518 14.13313769 47.79294355
6099 1 30.49766916 14.13313769 47.79294355
6100 1 29.67340783 14.13313769 45.46158045
6101 1 32.14619182 14.13313769 45.46158045
6102 1 31.32193049 14.13313769 43.13021735
6103 1 33.79471448 14.13313769 43.13021735
6104 1 32.97045315 14.13313769 40.79885425
6105 1 35.44323713 14.13313769 40.79885425
6106 1 34.61897580 14.13313769 38.46749115
6107 1 37.09175979 14.13313769 38.46749115
6108 1 36.26749846 14.13313769 36.13612805
6109 1 38.74028245 14.13313769 36.13612805
6110 1 37.91602112 14.13313769 33.80476495
6111 1 40.38880511 14.13313769 33.80476495
6112 1 39.56454378 14.13313769 31.47340185
6113 1 42.03732776 14.13313769 31.47340185
6114 1 41.21306643 14.13313769 29.14203875
6115 1 43.68585042 14.13313769 29.14203875
6116 1 42.86158909 14.13313769 26.81067565
6117 1 45.33437308 14.13313769 26.81067565
6118 1 44.51011175 14.13313769 24.47931255
6119 1 46.98289574 14.13313769 24.47931255
6120 1 46.15863441 14.13313769 22.14794945
6121 1 48.63141839 14.13313769 22.14794945
6122 1 47.80715706 14.13313769 19.81658635
6123 1 50.27994105 14.13313769 19.81658635
6124 1 49.45567972 14.13313769 17.48522325
6125 1 51.92846371 14.13313769 17.48522325
6126 1 51.10420238 14.13313769 15.15386015
6127 1 53.57698636 14.13313769 15.15386015
6128 1 52.75272504 14.13313769 12.82249705
6129 1 55.22550902 14.13313769 12.82249705
6130 1 54.40124769 14.13313769 10.49113395
6131 1 56.87403168 14.13313769 10.49113395
6132 1 56.04977035 14.13313769 8.15977085
6133 1 58.52255434 14.13313769 8.15977085
6134 1 57.69829301 14.13313769 5.82840775
6135 1 60.17107699 14.13313769 5.82840775
6136 1 59.34681567 14.13313769 3.49704465
6137 1 61.81959965 14.13313769 3.49704465
6138 1 60.99533832 14.13313769 1.16568155
6139 1 63.46812231 14.13313769 1.16568155
6140 1 31.32193049 12.11411802 46.62726200
6141 1 33.79471448 12.11411802 46.62726200
6142 1 32.97045315 12.11411802 44.29589890
6143 1 35.44323713 12.11411802 44.29589890
6144 1 34.61897580 12.11411802 41.96453580
6145 1 37.09175979 12.11411802 41.96453580
6146 1 36.26749846 12.11411802 39.63317270
6147 1 38.74028245 12.11411802 39.63317270
6148 1 37.91602112 12.11411802 37.30180960
6149 1 40.38880511 12.11411802 37.30180960
6150 1 39.56454378 12.11411802 34.97044650
6151 1 42.03732776 12.11411802 34.97044650
6152 1 41.21306643 12.11411802 32.63908340
6153 1 43.68585042 12.11411802 32.63908340
6154 1 42.86158909 12.11411802 30.30772030
6155 1 45.33437308 12.11411802 30.30772030
6156 1 44.51011175 12.11411802 27.97635720
6157 1 46.98289574 12.11411802 27.97635720
6158 1 46.15863441 12.11411802 25.64499410
6159 1 48.63141839 12.11411802 25.64499410
6160 1 47.80715706 12.11411802 23.31363100
6161 1 50.27994105 12.11411802 23.31363100
6162 1 49.45567972 12.11411802 20.98226790
6163 1 51.92846371 12.11411802 20.98226790
6164 1 51.10420238 12.11411802 18.65090480
6165 1 53.57698636 12.11411802 18.65090480
6166 1 52.75272504 12.11411802 16.31954170
6167 1 55.22550902 12.11411802 16.31954170
6168 1 54.40124769 12.11411802 13.98817860
6169 1 56.87403168 12.11411802 13.98817860
6170 1 56.04977035 12.11411802 11.65681550
6171 1 58.52255434 12.11411802 11.65681550
6172 1 57.69829301 12.11411802 9.32545240
6173 1 60.17107699 12.11411802 9.32545240
6174 1 59.34681567 12.11411802 6.99408930
6175 1 61.81959965 12.11411802 6.99408930
6176 1 60.99533832 12.11411802 4.66272620
6177 1 63.46812231 12.11411802 4.66272620
6178 1 62.64386098 12.11411802 2.33136310
6179 1 32.97045315 10.09509835 47.79294355
6180 1 35.44323713 10.09509835 47.79294355
6181 1 34.61897580 10.09509835 45.46158045
6182 1 37.09175979 10.09509835 45.46158045
6183 1 36.26749846 10.09509835 43.13021735
6184 1 38.74028245 10.09509835 43.13021735
6185 1 37.91602112 10.09509835 40.79885425
6186 1 40.38880511 10.09509835 40.79885425
6187 1 39.56454378 10.09509835 38.46749115
6188 1 42.03732776 10.09509835 38.46749115
6189 1 41.21306643 10.09509835 36.13612805
6190 1 43.68585042 10.09509835 36.13612805
6191 1 42.86158909 10.09509835 33.80476495
6192 1 45.33437308 10.09509835 33.80476495
6193 1 44.51011175 10.09509835 31.47340185
6194 1 46.98289574 10.09509835 31.47340185
6195 1 46.15863441 10.09509835 29.14203875
6196 1 48.63141839 10.09509835 29.14203875
6197 1 47.80715706 10.09509835 26.81067565
6198 1 50.27994105 10.09509835 26.81067565
6199 1 49.45567972 10.09509835 24.47931255
6200 1 51.92846371 10.09509835 24.47931255
6201 1 51.10420238 10.09509835 22.14794945
6202 1 53.57698636 10.09509835 22.14794945
6203 1 52.75272504 10.09509835 19.81658635
6204 1 55.22550902 10.09509835 19.81658635
6205 1 54.40124769 10.09509835 17.48522325
6206 1 56.87403168 10.09509835 17.48522325
6207 1 56.04977035 10.09509835 15.15386015
6208 1 58.52255434 10.09509835 15.15386015
6209 1 57.69829301 10.09509835 12.82249705
6210 1 60.17107699 10.09509835 12.82249705
6211 1 59.34681567 10.09509835 10.49113395
6212 1 61.81959965 10.09509835 10.49113395
6213 1 60.99533832 10.09509835 8.15977085
6214 1 63.46812231 10.09509835 8.15977085
6215 1 62.64386098 10.09509835 5.82840775
6216 1 36.26749846 8.07607868 46.62726200
6217 1 38.74028245 8.07607868 46.62726200
6218 1 37.91602112 8.07607868 44.29589890
6219 1 40.38880511 8.07607868 44.29589890
6220 1 39.56454378 8.07607868 41.96453580
6221 1 42.03732776 8.07607868 41.96453580
6222 1 41.21306643 8.07607868 39.63317270
6223 1 43.68585042 8.07607868 39.63317270
6224 1 42.86158909 8.07607868 37.30180960
6225 1 45.33437308 8.07607868 37.30180960
6226 1 44.51011175 8.07607868 34.97044650
6227 1 46.98289574 8.07607868 34.97044650
6228 1 46.15863441 8.07607868 32.63908340
6229 1 48.63141839 8.07607868 32.63908340
6230 1 47.80715706 8.07607868 30.30772030
6231 1 50.27994105 8.07607868 30.30772030
6232 1 49.45567972 8.07607868 27.97635720
6233 1 51.92846371 8.07607868 27.97635720
6234 1 51.10420238 8.07607868 25.64499410
6235 1 53.57698636 8.07607868 25.64499410
6236 1 52.75272504 8.07607868 23.31363100
6237 1 55.22550902 8.07607868 23.31363100
6238 1 54.40124769 8.07607868 20.98226790
6239 1 56.87403168 8.07607868 20.98226790
6240 1 56.04977035 8.07607868 18.65090480
6241 1 58.52255434 8.07607868 18.65090480
6242 1 57.69829301 8.07607868 16.31954170
6243 1 60.17107699 8.07607868 16.31954170
6244 1 59.34681567 8.07607868 13.98817860
6245 1 61.81959965 8.07607868 13.98817860
6246 1 60.99533832 8.07607868 11.65681550
6247 1 63.46812231 8.07607868 11.65681550
6248 1 62.64386098 8.07607868 9.32545240
6249 1 37.91602112 6.05705901 47.79294355
6250 1 40.38880511 6.05705901 47.79294355
6251 1 39.56454378 6.05705901 45.46158045
6252 1 42.03732776 6.05705901 45.46158045
6253 1 41.21306643 6.05705901 43.13021735
6254 1 43.68585042 6.05705901 43.13021735
6255 1 42.86158909 6.05705901 40.79885425
6256 1 45.33437308 6.05705901 40.79885425
6257 1 44.51011175 6.05705901 38.46749115
6258 1 46.98289574 6.05705901 38.46749115
6259 1 46.15863441 6.05705901 36.13612805
6260 1 48.63141839 6.05705901 36.13612805
6261 1 47.80715706 6.05705901 33.80476495
6262 1 50.27994105 6.05705901 33.80476495
6263 1 49.45567972 6.05705901 31.47340185
6264 1 51.92846371 6.05705901 31.47340185
6265 1 51.10420238 6.05705901 29.14203875
6266 1 53.57698636 6.05705901 29.14203875
6267 1 52.75272504 6.05705901 26.81067565
6268 1 55.22550902 6.05705901 26.81067565
6269 1 54.40124769 6.05705901 24.47931255
6270 1 56.87403168 6.05705901 24.47931255
6271 1 56.04977035 6.05705901 22.14794945
6272 1 58.52255434 6.05705901 22.14794945
6273 1 57.69829301 6.05705901 19.81658635
6274 1 60.17107699 6.05705901 19.81658635
6275 1 59.34681567 6.05705901 17.48522325
6276 1 61.81959965 6.05705901 17.48522325
6277 1 60.99533832 6.05705901 15.15386015
6278 1 63.46812231 6.05705901 15.15386015
6279 1 62.64386098 6.05705901 12.82249705
6280 1 41.21306643 4.03803934 46.62726200
6281 1 43.68585042 4.03803934 46.62726200
6282 1 42.86158909 4.03803934 44.29589890
6283 1 45.33437308 4.03803934 44.29589890
6284 1 44.51011175 4.03803934 41.96453580
6285 1 46.98289574 4.03803934 41.96453580
6286 1 46.15863441 4.03803934 39.63317270
6287 1 48.63141839 4.03803934 39.63317270
6288 1 47.80715706 4.03803934 37.30180960
6289 1 50.27994105 4.03803934 37.30180960
6290 1 49.45567972 4.03803934 34.97044650
6291 1 51.92846371 4.03803934 34.97044650
6292 1 51.10420238 4.03803934 32.63908340
6293 1 53.57698636 4.03803934 32.63908340
6294 1 52.75272504 4.03803934 30.30772030
6295 1 55.22550902 4.03803934 30.30772030
6296 1 54.40124769 4.03803934 27.97635720
6297 1 56.87403168 4.03803934 27.97635720
6298 1 56.04977035 4.03803934 25.64499410
6299 1 58.52255434 4.03803934 25.64499410
6300 1 57.69829301 4.03803934 23.31363100
6301 1 60.17107699 4.03803934 23.31363100
6302 1 59.34681567 4.03803934 20.98226790
6303 1 61.81959965 4.03803934 20.98226790
6304 1 60.99533832 4.03803934 18.65090480
6305 1 63.46812231 4.03803934 18.65090480
6306 1 62.64386098 4.03803934 16.31954170
6307 1 42.86158909 2.01901967 47.79294355
6308 1 45.33437308 2.01901967 47.79294355
6309 1 44.51011175 2.01901967 45.46158045
6310 1 46.98289574 2.01901967 45.46158045
6311 1 46.15863441 2.01901967 43.13021735
6312 1 48.63141839 2.01901967 43.13021735
6313 1 47.80715706 2.01901967 40.79885425
6314 1 50.27994105 2.01901967 40.79885425
6315 1 49.45567972 2.01901967 38.46749115
6316 1 51.92846371 2.01901967 38.46749115
6317 1 51.10420238 2.01901967 36.13612805
6318 1 53.57698636 2.01901967 36.13612805
6319 1 52.75272504 2.01901967 33.80476495
6320 1 55.22550902 2.01901967 33.80476495
6321 1 54.40124769 2.01901967 31.47340185
6322 1 56.87403168 2.01901967 31.47340185
6323 1 56.04977035 2.01901967 29.14203875
6324 1 58.52255434 2.01901967 29.14203875
6325 1 57.69829301 2.01901967 26.81067565
6326 1 60.17107699 2.01901967 26.81067565
6327 1 59.34681567 2.01901967 24.47931255
6328 1 61.81959965 2.01901967 24.47931255
6329 1 60.99533832 2.01901967 22.14794945
6330 1 63.46812231 2.01901967 22.14794945
6331 1 62.64386098 2.01901967 19.81658635
6332 1 46.15863441 0.00000000 46.62726200
6333 1 48.63141839 -0.00000000 46.62726200
6334 1 47.80715706 0.00000000 44.29589890
6335 1 50.27994105 -0.00000000 44.29589890
6336 1 49.45567972 0.00000000 41.96453580
6337 1 51.92846371 -0.00000000 41.96453580
6338 1 51.10420238 0.00000000 39.63317270
6339 1 53.57698636 -0.00000000 39.63317270
6340 1 52.75272504 0.00000000 37.30180960
6341 1 55.22550902 -0.00000000 37.30180960
6342 1 54.40124769 0.00000000 34.97044650
6343 1 56.87403168 -0.00000000 34.97044650
6344 1 56.04977035 0.00000000 32.63908340
6345 1 58.52255434 -0.00000000 32.63908340
6346 1 57.69829301 0.00000000 30.30772030
6347 1 60.17107699 -0.00000000 30.30772030
6348 1 59.34681567 0.00000000 27.97635720
6349 1 61.81959965 -0.00000000 27.97635720
6350 1 60.99533832 0.00000000 25.64499410
6351 1 63.46812231 -0.00000000 25.64499410
6352 1 62.64386098 0.00000000 23.31363100
6353 1 13.18818126 30.28529505 47.79294355
6354 1 15.66096525 30.28529505 47.79294355
6355 1 14.83670392 30.28529505 45.46158045
6356 1 17.30948790 30.28529505 45.46158045
6357 1 16.48522657 30.28529505 43.13021735
6358 1 18.95801056 30.28529505 43.13021735
6359 1 18.13374923 30.28529505 40.79885425
6360 1 20.60653322 30.28529505 40.79885425
6361 1 19.78227189 30.28529505 38.46749115
6362 1 22.25505587 30.28529505 38.46749115
6363 1 21.43079455 30.28529505 36.13612805
6364 1 23.90357853 30.28529505 36.13612805
6365 1 23.07931720 30.28529505 33.80476495
6366 1 25.55210119 30.28529505 33.80476495
6367 1 24.72783986 30.28529505 31.47340185
6368 1 27.20062385 30.28529505 31.47340185
6369 1 26.37636252 30.28529505 29.14203875
6370 1 28.84914650 30.28529505 29.14203875
6371 1 28.02488518 30.28529505 26.81067565
6372 1 30.49766916 30.28529505 26.81067565
6373 1 29.67340783 30.28529505 24.47931255
6374 1 32.14619182 30.28529505 24.47931255
6375 1 31.32193049 30.28529505 22.14794945
6376 1 33.79471448 30.28529505 22.14794945
6377 1 32.97045315 30.28529505 19.81658635
6378 1 35.44323713 30.28529505 19.81658635
6379 1 34.61897580 30.28529505 17.48522325
6380 1 37.09175979 30.28529505 17.48522325
6381 1 36.26749846 30.28529505 15.15386015
6382 1 38.74028245 30.28529505 15.15386015
6383 1 37.91602112 30.28529505 12.82249705
6384 1 40.38880511 30.28529505 12.82249705
6385 1 39.56454378 30.28529505 10.49113395
6386 1 42.03732776 30.28529505 10.49113395
6387 1 41.21306643 30.28529505 8.15977085
6388 1 43.68585042 30.28529505 8.15977085
6389 1 42.86158909 30.28529505 5.82840775
6390 1 45.33437308 30.28529505 5.82840775
6391 1 44.51011175 30.28529505 3.49704465
6392 1 46.98289574 30.28529505 3.49704465
6393 1 46.15863441 30.28529505 1.16568155
6394 1 48.63141839 30.28529505 1.16568155
6395 1 16.48522657 28.26627538 46.62726200
6396 1 18.95801056 28.26627538 46.62726200
6397 1 18.13374923 28.26627538 44.29589890
6398 1 20.60653322 28.26627538 44.29589890
6399 1 19.78227189 28.26627538 41.96453580
6400 1 22.25505587 28.26627538 41.96453580
6401 1 21.43079455 28.26627538 39.63317270
6402 1 23.90357853 28.26627538 39.63317270
6403 1 23.07931720 28.26627538 37.30180960
6404 1 25.55210119 28.26627538 37.30180960
6405 1 24.72783986 28.26627538 34.97044650
6406 1 27.20062385 28.26627538 34.97044650
6407 1 26.37636252 28.26627538 32.63908340
6408 1 28.84914650 28.26627538 32.63908340
6409 1 28.02488518 28.26627538 30.30772030
6410 1 30.49766916 28.26627538 30.30772030
6411 1 29.67340783 28.26627538 27.97635720
6412 1 32.14619182 28.26627538 27.97635720
6413 1 31.32193049 28.26627538 25.64499410
6414 1 33.79471448 28.26627538 25.64499410
6415 1 32.97045315 28.26627538 23.31363100
6416 1 35.44323713 28.26627538 23.31363100
6417 1 34.61897580 28.26627538 20.98226790
6418 1 37.09175979 28.26627538 20.98226790
6419 1 36.26749846 28.26627538 18.65090480
6420 1 38.74028245 28.26627538 18.65090480
6421 1 37.91602112 28.26627538 16.31954170
6422 1 40.38880511 28.26627538 16.31954170
6423 1 39.56454378 28.26627538 13.98817860
6424 1 42.03732776 28.26627538 13.98817860
6425 1 41.21306643 28.26627538 11.65681550
6426 1 43.68585042 28.26627538 11.65681550
6427 1 42.86158909 28.26627538 9.32545240
6428 1 45.33437308 28.26627538 9.32545240
6429 1 44.51011175 28.26627538 6.99408930
6430 1 46.98289574 28.26627538 6.99408930
6431 1 46.15863441 28.26627538 4.66272620
6432 1 48.63141839 28.26627538 4.66272620
6433 1 47.80715706 28.26627538 2.33136310
6434 1 50.27994105 28.26627538 2.33136310
6435 1 49.45567972 28.26627538 0.00000000
6436 1 51.92846371 28.26627538 -0.00000000
6437 1 18.13374923 26.24725571 47.79294355
6438 1 20.60653322 26.24725571 47.79294355
6439 1 19.78227189 26.24725571 45.46158045
6440 1 22.25505587 26.24725571 45.46158045
6441 1 21.43079455 26.24725571 43.13021735
6442 1 23.90357853 26.24725571 43.13021735
6443 1 23.07931720 26.24725571 40.79885425
6444 1 25.55210119 26.24725571 40.79885425
6445 1 24.72783986 26.24725571 38.46749115
6446 1 27.20062385 26.24725571 38.46749115
6447 1 26.37636252 26.24725571 36.13612805
6448 1 28.84914650 26.24725571 36.13612805
6449 1 28.02488518 26.24725571 33.80476495
6450 1 30.49766916 26.24725571 33.80476495
6451 1 29.67340783 26.24725571 31.47340185
6452 1 32.14619182 26.24725571 31.47340185
6453 1 31.32193049 26.24725571 29.14203875
6454 1 33.79471448 26.24725571 29.14203875
6455 1 32.97045315 26.24725571 26.81067565
6456 1 35.44323713 26.24725571 26.81067565
6457 1 34.61897580 26.24725571 24.47931255
6458 1 37.09175979 26.24725571 24.47931255
6459 1 36.26749846 26.24725571 22.14794945
6460 1 38.74028245 26.24725571 22.14794945
6461 1 37.91602112 26.24725571 19.81658635
6462 1 40.38880511 26.24725571 19.81658635
6463 1 39.56454378 26.24725571 17.48522325
6464 1 42.03732776 26.24725571 17.48522325
6465 1 41.21306643 26.24725571 15.15386015
6466 1 43.68585042 26.24725571 15.15386015
6467 1 42.86158909 26.24725571 12.82249705
6468 1 45.33437308 26.24725571 12.82249705
6469 1 44.51011175 26.24725571 10.49113395
6470 1 46.98289574 26.24725571 10.49113395
6471 1 46.15863441 26.24725571 8.15977085
6472 1 48.63141839 26.24725571 8.15977085
6473 1 47.80715706 26.24725571 5.82840775
6474 1 50.27994105 26.24725571 5.82840775
6475 1 49.45567972 26.24725571 3.49704465
6476 1 51.92846371 26.24725571 3.49704465
6477 1 51.10420238 26.24725571 1.16568155
6478 1 53.57698636 26.24725571 1.16568155
6479 1 21.43079455 24.22823604 46.62726200
6480 1 23.90357853 24.22823604 46.62726200
6481 1 23.07931720 24.22823604 44.29589890
6482 1 25.55210119 24.22823604 44.29589890
6483 1 24.72783986 24.22823604 41.96453580
6484 1 27.20062385 24.22823604 41.96453580
6485 1 26.37636252 24.22823604 39.63317270
6486 1 28.84914650 24.22823604 39.63317270
6487 1 28.02488518 24.22823604 37.30180960
6488 1 30.49766916 24.22823604 37.30180960
6489 1 29.67340783 24.22823604 34.97044650
6490 1 32.14619182 24.22823604 34.97044650
6491 1 31.32193049 24.22823604 32.63908340
6492 1 33.79471448 24.22823604 32.63908340
6493 1 32.97045315 24.22823604 30.30772030
6494 1 35.44323713 24.22823604 30.30772030
6495 1 34.61897580 24.22823604 27.97635720
6496 1 37.09175979 24.22823604 27.97635720
6497 1 36.26749846 24.22823604 25.64499410
6498 1 38.74028245 24.22823604 25.64499410
6499 1 37.91602112 24.22823604 23.31363100
6500 1 40.38880511 24.22823604 23.31363100
6501 1 39.56454378 24.22823604 20.98226790
6502 1 42.03732776 24.22823604 20.98226790
6503 1 41.21306643 24.22823604 18.65090480
6504 1 43.68585042 24.22823604 18.65090480
6505 1 42.86158909 24.22823604 16.31954170
6506 1 45.33437308 24.22823604 16.31954170
6507 1 44.51011175 24.22823604 13.98817860
6508 1 46.98289574 24.22823604 13.98817860
6509 1 46.15863441 24.22823604 11.65681550
6510 1 48.63141839 24.22823604 11.65681550
6511 1 47.80715706 24.22823604 9.32545240
6512 1 50.27994105 24.22823604 9.32545240
6513 1 49.45567972 24.22823604 6.99408930
6514 1 51.92846371 24.22823604 6.99408930
6515 1 51.10420238 24.22823604 4.66272620
6516 1 53.57698636 24.22823604 4.66272620
6517 1 52.75272504 24.22823604 2.33136310
6518 1 55.22550902 24.22823604 2.33136310
6519 1 54.40124769 24.22823604 -0.00000000
6520 1 56.87403168 24.22823604 -0.00000000
6521 1 23.07931720 22.20921637 47.79294355
6522 1 25.55210119 22.20921637 47.79294355
6523 1 24.72783986 22.20921637 45.46158045
6524 1 27.20062385 22.20921637 45.46158045
6525 1 26.37636252 22.20921637 43.13021735
6526 1 28.84914650 22.20921637 43.13021735
6527 1 28.02488518 22.20921637 40.79885425
6528 1 30.49766916 22.20921637 40.79885425
6529 1 29.67340783 22.20921637 38.46749115
6530 1 32.14619182 22.20921637 38.46749115
6531 1 31.32193049 22.20921637 36.13612805
6532 1 33.79471448 22.20921637 36.13612805
6533 1 32.97045315 22.20921637 33.80476495
6534 1 35.44323713 22.20921637 33.80476495
6535 1 34.61897580 22.20921637 31.47340185
6536 1 37.09175979 22.20921637 31.47340185
6537 1 36.26749846 22.20921637 29.14203875
6538 1 38.74028245 22.20921637 29.14203875
6539 1 37.91602112 22.20921637 26.81067565
6540 1 40.38880511 22.20921637 26.81067565
6541 1 39.56454378 22.20921637 24.47931255
6542 1 42.03732776 22.20921637 24.47931255
6543 1 41.21306643 22.20921637 22.14794945
6544 1 43.68585042 22.20921637 22.14794945
6545 1 42.86158909 22.20921637 19.81658635
6546 1 45.33437308 22.20921637 19.81658635
6547 1 44.51011175 22.20921637 17.48522325
6548 1 46.98289574 22.20921637 17.48522325
6549 1 46.15863441 22.20921637 15.15386015
6550 1 48.63141839 22.20921637 15.15386015
6551 1 47.80715706 22.20921637 12.82249705
6552 1 50.27994105 22.20921637 12.82249705
6553 1 49.45567972 22.20921637 10.49113395
6554 1 51.92846371 22.20921637 10.49113395
6555 1 51.10420238 22.20921637 8.15977085
6556 1 53.57698636 22.20921637 8.15977085
6557 1 52.75272504 22.20921637 5.82840775
6558 1 55.22550902 22.20921637 5.82840775
6559 1 54.40124769 22.20921637 3.49704465
6560 1 56.87403168 22.20921637 3.49704465
6561 1 56.04977035 22.20921637 1.16568155
6562 1 58.52255434 22.20921637 1.16568155
6563 1 26.37636252 20.19019670 46.62726200
6564 1 28.84914650 20.19019670 46.62726200
6565 1 28.02488518 20.19019670 44.29589890
6566 1 30.49766916 20.19019670 44.29589890
6567 1 29.67340783 20.19019670 41.96453580
6568 1 32.14619182 20.19019670 41.96453580
6569 1 31.32193049 20.19019670 39.63317270
6570 1 33.79471448 20.19019670 39.63317270
6571 1 32.97045315 20.19019670 37.30180960
6572 1 35.44323713 20.19019670 37.30180960
6573 1 34.61897580 20.19019670 34.97044650
6574 1 37.09175979 20.19019670 34.97044650
6575 1 36.26749846 20.19019670 32.63908340
6576 1 38.74028245 20.19019670 32.63908340
6577 1 37.91602112 20.19019670 30.30772030
6578 1 40.38880511 20.19019670 30.30772030
6579 1 39.56454378 20.19019670 27.97635720
6580 1 42.03732776 20.19019670 27.97635720
6581 1 41.21306643 20.19019670 25.64499410
6582 1 43.68585042 20.19019670 25.64499410
6583 1 42.86158909 20.19019670 23.31363100
6584 1 45.33437308 20.19019670 23.31363100
6585 1 44.51011175 20.19019670 20.98226790
6586 1 46.98289574 20.19019670 20.98226790
6587 1 46.15863441 20.19019670 18.65090480
6588 1 48.63141839 20.19019670 18.65090480
6589 1 47.80715706 20.19019670 16.31954170
6590 1 50.27994105 20.19019670 16.31954170
6591 1 49.45567972 20.19019670 13.98817860
6592 1 51.92846371 20.19019670 13.98817860
6593 1 51.10420238 20.19019670 11.65681550
6594 1 53.57698636 20.19019670 11.65681550
6595 1 52.75272504 20.19019670 9.32545240
6596 1 55.22550902 20.19019670 9.32545240
6597 1 54.40124769 20.19019670 6.99408930
6598 1 56.87403168 20.19019670 6.99408930
6599 1 56.04977035 20.19019670 4.66272620
6600 1 58.52255434 20.19019670 4.66272620
6601 1 57.69829301 20.19019670 2.33136310
6602 1 60.17107699 20.19019670 2.33136310
6603 1 59.34681567 20.19019670 0.00000000
6604 1 61.81959965 20.19019670 0.00000000
6605 1 28.02488518 18.17117703 47.79294355
6606 1 30.49766916 18.17117703 47.79294355
6607 1 29.67340783 18.17117703 45.46158045
6608 1 32.14619182 18.17117703 45.46158045
6609 1 31.32193049 18.17117703 43.13021735
6610 1 33.79471448 18.17117703 43.13021735
6611 1 32.97045315 18.17117703 40.79885425
6612 1 35.44323713 18.17117703 40.79885425
6613 1 34.61897580 18.17117703 38.46749115
6614 1 37.09175979 18.17117703 38.46749115
6615 1 36.26749846 18.17117703 36.13612805
6616 1 38.74028245 18.17117703 36.13612805
6617 1 37.91602112 18.17117703 33.80476495
6618 1 40.38880511 18.17117703 33.80476495
6619 1 39.56454378 18.17117703 31.47340185
6620 1 42.03732776 18.17117703 31.47340185
6621 1 41.21306643 18.17117703 29.14203875
6622 1 43.68585042 18.17117703 29.14203875
6623 1 42.86158909 18.17117703 26.81067565
6624 1 45.33437308 18.17117703 26.81067565
6625 1 44.51011175 18.17117703 24.47931255
6626 1 46.98289574 18.17117703 24.47931255
6627 1 46.15863441 18.17117703 22.14794945
6628 1 48.63141839 18.17117703 22.14794945
6629 1 47.80715706 18.17117703 19.81658635
6630 1 50.27994105 18.17117703 19.81658635
6631 1 49.45567972 18.17117703 17.48522325
6632 1 51.92846371 18.17117703 17.48522325
6633 1 51.10420238 18.17117703 15.15386015
6634 1 53.57698636 18.17117703 15.15386015
6635 1 52.75272504 18.17117703 12.82249705
6636 1 55.22550902 18.17117703 12.82249705
6637 1 54.40124769 18.17117703 10.49113395
6638 1 56.87403168 18.17117703 10.49113395
6639 1 56.04977035 18.17117703 8.15977085
6640 1 58.52255434 18.17117703 8.15977085
6641 1 57.69829301 18.17117703 5.82840775
6642 1 60.17107699 18.17117703 5.82840775
6643 1 59.34681567 18.17117703 3.49704465
6644 1 61.81959965 18.17117703 3.49704465
6645 1 60.99533832 18.17117703 1.16568155
6646 1 63.46812231 18.17117703 1.16568155
6647 1 31.32193049 16.15215736 46.62726200
6648 1 33.79471448 16.15215736 46.62726200
6649 1 32.97045315 16.15215736 44.29589890
6650 1 35.44323713 16.15215736 44.29589890
6651 1 34.61897580 16.15215736 41.96453580
6652 1 37.09175979 16.15215736 41.96453580
6653 1 36.26749846 16.15215736 39.63317270
6654 1 38.74028245 16.15215736 39.63317270
6655 1 37.91602112 16.15215736 37.30180960
6656 1 40.38880511 16.15215736 37.30180960
6657 1 39.56454378 16.15215736 34.97044650
6658 1 42.03732776 16.15215736 34.97044650
6659 1 41.21306643 16.15215736 32.63908340
6660 1 43.68585042 16.15215736 32.63908340
6661 1 42.86158909 16.15215736 30.30772030
6662 1 45.33437308 16.15215736 30.30772030
6663 1 44.51011175 16.15215736 27.97635720
6664 1 46.98289574 16.15215736 27.97635720
6665 1 46.15863441 16.15215736 25.64499410
6666 1 48.63141839 16.15215736 25.64499410
6667 1 47.80715706 16.15215736 23.31363100
6668 1 50.27994105 16.15215736 23.31363100
6669 1 49.45567972 16.15215736 20.98226790
6670 1 51.92846371 16.15215736 20.98226790
6671 1 51.10420238 16.15215736 18.65090480
6672 1 53.57698636 16.15215736 18.65090480
6673 1 52.75272504 16.15215736 16.31954170
6674 1 55.22550902 16.15215736 16.31954170
6675 1 54.40124769 16.15215736 13.98817860
6676 1 56.87403168 16.15215736 13.98817860
6677 1 56.04977035 16.15215736 11.65681550
6678 1 58.52255434 16.15215736 11.65681550
6679 1 57.69829301 16.15215736 9.32545240
6680 1 60.17107699 16.15215736 9.32545240
6681 1 59.34681567 16.15215736 6.99408930
6682 1 61.81959965 16.15215736 6.99408930
6683 1 60.99533832 16.15215736 4.66272620
6684 1 63.46812231 16.15215736 4.66272620
6685 1 62.64386098 16.15215736 2.33136310
6686 1 32.97045315 14.13313769 47.79294355
6687 1 35.44323713 14.13313769 47.79294355
6688 1 34.61897580 14.13313769 45.46158045
6689 1 37.09175979 14.13313769 45.46158045
6690 1 36.26749846 14.13313769 43.13021735
6691 1 38.74028245 14.13313769 43.13021735
6692 1 37.91602112 14.13313769 40.79885425
6693 1 40.38880511 14.13313769 40.79885425
6694 1 39.56454378 14.13313769 38.46749115
6695 1 42.03732776 14.13313769 38.46749115
6696 1 41.21306643 14.13313769 36.13612805
6697 1 43.68585042 14.13313769 36.13612805
6698 1 42.86158909 14.13313769 33.80476495
6699 1 45.33437308 14.13313769 33.80476495
6700 1 44.51011175 14.13313769 31.47340185
6701 1 46.98289574 14.13313769 31.47340185
6702 1 46.15863441 14.13313769 29.14203875
6703 1 48.63141839 14.13313769 29.14203875
6704 1 47.80715706 14.13313769 26.81067565
6705 1 50.27994105 14.13313769 26.81067565
6706 1 49.45567972 14.13313769 24.47931255
6707 1 51.92846371 14.13313769 24.47931255
6708 1 51.10420238 14.13313769 22.14794945
6709 1 53.57698636 14.13313769 22.14794945
6710 1 52.75272504 14.13313769 19.81658635
6711 1 55.22550902 14.13313769 19.81658635
6712 1 54.40124769 14.13313769 17.48522325
6713 1 56.87403168 14.13313769 17.48522325
6714 1 56.04977035 14.13313769 15.15386015
6715 1 58.52255434 14.13313769 15.15386015
6716 1 57.69829301 14.13313769 12.82249705
6717 1 60.17107699 14.13313769 12.82249705
6718 1 59.34681567 14.13313769 10.49113395
6719 1 61.81959965 14.13313769 10.49113395
6720 1 60.99533832 14.13313769 8.15977085
6721 1 63.46812231 14.13313769 8.15977085
6722 1 62.64386098 14.13313769 5.82840775
6723 1 36.26749846 12.11411802 46.62726200
6724 1 38.74028245 12.11411802 46.62726200
6725 1 37.91602112 12.11411802 44.29589890
6726 1 40.38880511 12.11411802 44.29589890
6727 1 39.56454378 12.11411802 41.96453580
6728 1 42.03732776 12.11411802 41.96453580
6729 1 41.21306643 12.11411802 39.63317270
6730 1 43.68585042 12.11411802 39.63317270
6731 1 42.86158909 12.11411802 37.30180960
6732 1 45.33437308 12.11411802 37.30180960
6733 1 44.51011175 12.11411802 34.97044650
6734 1 46.98289574 12.11411802 34.97044650
6735 1 46.15863441 12.11411802 32.63908340
6736 1 48.63141839 12.11411802 32.63908340
6737 1 47.80715706 12.11411802 30.30772030
6738 1 50.27994105 12.11411802 30.30772030
6739 1 49.45567972 12.11411802 27.97635720
6740 1 51.92846371 12.11411802 27.97635720
6741 1 51.10420238 12.11411802 25.64499410
6742 1 53.57698636 12.11411802 25.64499410
6743 1 52.75272504 12.11411802 23.31363100
6744 1 55.22550902 12.11411802 23.31363100
6745 1 54.40124769 12.11411802 20.98226790
6746 1 56.87403168 12.11411802 20.98226790
6747 1 56.04977035 12.11411802 18.65090480
6748 1 58.52255434 12.11411802 18.65090480
6749 1 57.69829301 12.11411802 16.31954170
6750 1 60.17107699 12.11411802 16.31954170
6751 1 59.34681567 12.11411802 13.98817860
6752 1 61.81959965 12.11411802 13.98817860
6753 1 60.99533832 12.11411802 11.65681550
6754 1 63.46812231 12.11411802 11.65681550
6755 1 62.64386098 12.11411802 9.32545240
6756 1 37.91602112 10.09509835 47.79294355
6757 1 40.38880511 10.09509835 47.79294355
6758 1 39.56454378 10.09509835 45.46158045
6759 1 42.03732776 10.09509835 45.46158045
6760 1 41.21306643 10.09509835 43.13021735
6761 1 43.68585042 10.09509835 43.13021735
6762 1 42.86158909 10.09509835 40.79885425
6763 1 45.33437308 10.09509835 40.79885425
6764 1 44.51011175 10.09509835 38.46749115
6765 1 46.98289574 10.09509835 38.46749115
6766 1 46.15863441 10.09509835 36.13612805
6767 1 48.63141839 10.09509835 36.13612805
6768 1 47.80715706 10.09509835 33.80476495
6769 1 50.27994105 10.09509835 33.80476495
6770 1 49.45567972 10.09509835 31.47340185
6771 1 51.92846371 10.09509835 31.47340185
6772 1 51.10420238 10.09509835 29.14203875
6773 1 53.57698636 10.09509835 29.14203875
6774 1 52.75272504 10.09509835 26.81067565
6775 1 55.22550902 10.09509835 26.81067565
6776 1 54.40124769 10.09509835 24.47931255
6777 1 56.87403168 10.09509835 24.47931255
6778 1 56.04977035 10.09509835 22.14794945
6779 1 58.52255434 10.09509835 22.14794945
6780 1 57.69829301 10.09509835 19.81658635
6781 1 60.17107699 10.09509835 19.81658635
6782 1 59.34681567 10.09509835 17.48522325
6783 1 61.81959965 10.09509835 17.48522325
6784 1 60.99533832 10.09509835 15.15386015
6785 1 63.46812231 10.09509835 15.15386015
6786 1 62.64386098 10.09509835 12.82249705
6787 1 41.21306643 8.07607868 46.62726200
6788 1 43.68585042 8.07607868 46.62726200
6789 1 42.86158909 8.07607868 44.29589890
6790 1 45.33437308 8.07607868 44.29589890
6791 1 44.51011175 8.07607868 41.96453580
6792 1 46.98289574 8.07607868 41.96453580
6793 1 46.15863441 8.07607868 39.63317270
6794 1 48.63141839 8.07607868 39.63317270
6795 1 47.80715706 8.07607868 37.30180960
6796 1 50.27994105 8.07607868 37.30180960
6797 1 49.45567972 8.07607868 34.97044650
6798 1 51.92846371 8.07607868 34.97044650
6799 1 51.10420238 8.07607868 32.63908340
6800 1 53.57698636 8.07607868 32.63908340
6801 1 52.75272504 8.07607868 30.30772030
6802 1 55.22550902 8.07607868 30.30772030
6803 1 54.40124769 8.07607868 27.97635720
6804 1 56.87403168 8.07607868 27.97635720
6805 1 56.04977035 8.07607868 25.64499410
6806 1 58.52255434 8.07607868 25.64499410
6807 1 57.69829301 8.07607868 23.31363100
6808 1 60.17107699 8.07607868 23.31363100
6809 1 59.34681567 8.07607868 20.98226790
6810 1 61.81959965 8.07607868 20.98226790
6811 1 60.99533832 8.07607868 18.65090480
6812 1 63.46812231 8.07607868 18.65090480
6813 1 62.64386098 8.07607868 16.31954170
6814 1 42.86158909 6.05705901 47.79294355
6815 1 45.33437308 6.05705901 47.79294355
6816 1 44.51011175 6.05705901 45.46158045
6817 1 46.98289574 6.05705901 45.46158045
6818 1 46.15863441 6.05705901 43.13021735
6819 1 48.63141839 6.05705901 43.13021735
6820 1 47.80715706 6.05705901 40.79885425
6821 1 50.27994105 6.05705901 40.79885425
6822 1 49.45567972 6.05705901 38.46749115
6823 1 51.92846371 6.05705901 38.46749115
6824 1 51.10420238 6.05705901 36.13612805
6825 1 53.57698636 6.05705901 36.13612805
6826 1 52.75272504 6.05705901 33.80476495
6827 1 55.22550902 6.05705901 33.80476495
6828 1 54.40124769 6.05705901 31.47340185
6829 1 56.87403168 6.05705901 31.47340185
6830 1 56.04977035 6.05705901 29.14203875
6831 1 58.52255434 6.05705901 29.14203875
6832 1 57.69829301 6.05705901 26.81067565
6833 1 60.17107699 6.05705901 26.81067565
6834 1 59.34681567 6.05705901 24.47931255
6835 1 61.81959965 6.05705901 24.47931255
6836 1 60.99533832 6.05705901 22.14794945
6837 1 63.46812231 6.05705901 22.14794945
6838 1 62.64386098 6.05705901 19.81658635
6839 1 46.15863441 4.03803934 46.62726200
6840 1 48.63141839 4.03803934 46.62726200
6841 1 47.80715706 4.03803934 44.29589890
6842 1 50.27994105 4.03803934 44.29589890
6843 1 49.45567972 4.03803934 41.96453580
6844 1 51.92846371 4.03803934 41.96453580
6845 1 51.10420238 4.03803934 39.63317270
6846 1 53.57698636 4.03803934 39.63317270
6847 1 52.75272504 4.03803934 37.30180960
6848 1 55.22550902 4.03803934 37.30180960
6849 1 54.40124769 4.03803934 34.97044650
6850 1 56.87403168 4.03803934 34.97044650
6851 1 56.04977035 4.03803934 32.63908340
6852 1 58.52255434 4.03803934 32.63908340
6853 1 57.69829301 4.03803934 30.30772030
6854 1 60.17107699 4.03803934 30.30772030
6855 1 59.34681567 4.03803934 27.97635720
6856 1 61.81959965 4.03803934 27.97635720
6857 1 60.99533832 4.03803934 25.64499410
6858 1 63.46812231 4.03803934 25.64499410
6859 1 62.64386098 4.03803934 23.31363100
6860 1 47.80715706 2.01901967 47.79294355
6861 1 50.27994105 2.01901967 47.79294355
6862 1 49.45567972 2.01901967 45.46158045
6863 1 51.92846371 2.01901967 45.46158045
6864 1 51.10420238 2.01901967 43.13021735
6865 1 53.57698636 2.01901967 43.13021735
6866 1 52.75272504 2.01901967 40.79885425
6867 1 55.22550902 2.01901967 40.79885425
6868 1 54.40124769 2.01901967 38.46749115
6869 1 56.87403168 2.01901967 38.46749115
6870 1 56.04977035 2.01901967 36.13612805
6871 1 58.52255434 2.01901967 36.13612805
6872 1 57.69829301 2.01901967 33.80476495
6873 1 60.17107699 2.01901967 33.80476495
6874 1 59.34681567 2.01901967 31.47340185
6875 1 61.81959965 2.01901967 31.47340185
6876 1 60.99533832 2.01901967 29.14203875
6877 1 63.46812231 2.01901967 29.14203875
6878 1 62.64386098 2.01901967 26.81067565
6879 1 51.10420238 0.00000000 46.62726200
6880 1 53.57698636 -0.00000000 46.62726200
6881 1 52.75272504 0.00000000 44.29589890
6882 1 55.22550902 -0.00000000 44.29589890
6883 1 54.40124769 0.00000000 41.96453580
6884 1 56.87403168 -0.00000000 41.96453580
6885 1 56.04977035 0.00000000 39.63317270
6886 1 58.52255434 -0.00000000 39.63317270
6887 1 57.69829301 0.00000000 37.30180960
6888 1 60.17107699 -0.00000000 37.30180960
6889 1 59.34681567 0.00000000 34.97044650
6890 1 61.81959965 -0.00000000 34.97044650
6891 1 60.99533832 0.00000000 32.63908340
6892 1 63.46812231 -0.00000000 32.63908340
6893 1 62.64386098 0.00000000 30.30772030
6894 1 18.13374923 30.28529505 47.79294355
6895 1 20.60653322 30.28529505 47.79294355
6896 1 19.78227189 30.28529505 45.46158045
6897 1 22.25505587 30.28529505 45.46158045
6898 1 21.43079455 30.28529505 43.13021735
6899 1 23.90357853 30.28529505 43.13021735
6900 1 23.07931720 30.28529505 40.79885425
6901 1 25.55210119 30.28529505 40.79885425
6902 1 24.72783986 30.28529505 38.46749115
6903 1 27.20062385 30.28529505 38.46749115
6904 1 26.37636252 30.28529505 36.13612805
6905 1 28.84914650 30.28529505 36.13612805
6906 1 28.02488518 30.28529505 33.80476495
6907 1 30.49766916 30.28529505 33.80476495
6908 1 29.67340783 30.28529505 31.47340185
6909 1 32.14619182 30.28529505 31.47340185
6910 1 31.32193049 30.28529505 29.14203875
6911 1 33.79471448 30.28529505 29.14203875
6912 1 32.97045315 30.28529505 26.81067565
6913 1 35.44323713 30.28529505 26.81067565
6914 1 34.61897580 30.28529505 24.47931255
6915 1 37.09175979 30.28529505 24.47931255
6916 1 36.26749846 30.28529505 22.14794945
6917 1 38.74028245 30.28529505 22.14794945
6918 1 37.91602112 30.28529505 19.81658635
6919 1 40.38880511 30.28529505 19.81658635
6920 1 39.56454378 30.28529505 17.48522325
6921 1 42.03732776 30.28529505 17.48522325
6922 1 41.21306643 30.28529505 15.15386015
6923 1 43.68585042 30.28529505 15.15386015
6924 1 42.86158909 30.28529505 12.82249705
6925 1 45.33437308 30.28529505 12.82249705
6926 1 44.51011175 30.28529505 10.49113395
6927 1 46.98289574 30.28529505 10.49113395
6928 1 46.15863441 30.28529505 8.15977085
6929 1 48.63141839 30.28529505 8.15977085
6930 1 47.80715706 30.28529505 5.82840775
6931 1 50.27994105 30.28529505 5.82840775
6932 1 49.45567972 30.28529505 3.49704465
6933 1 51.92846371 30.28529505 3.49704465
6934 1 51.10420238 30.28529505 1.16568155
6935 1 53.57698636 30.28529505 1.16568155
6936 1 21.43079455 28.26627538 46.62726200
6937 1 23.90357853 28.26627538 46.62726200
6938 1 23.07931720 28.26627538 44.29589890
6939 1 25.55210119 28.26627538 44.29589890
6940 1 24.72783986 28.26627538 41.96453580
6941 1 27.20062385 28.26627538 41.96453580
6942 1 26.37636252 28.26627538 39.63317270
6943 1 28.84914650 28.26627538 39.63317270
6944 1 28.02488518 28.26627538 37.30180960
6945 1 30.49766916 28.26627538 37.30180960
6946 1 29.67340783 28.26627538 34.97044650
6947 1 32.14619182 28.26627538 34.97044650
6948 1 31.32193049 28.26627538 32.63908340
6949 1 33.79471448 28.26627538 32.63908340
6950 1 32.97045315 28.26627538 30.30772030
6951 1 35.44323713 28.26627538 30.30772030
6952 1 34.61897580 28.26627538 27.97635720
6953 1 37.09175979 28.26627538 27.97635720
6954 1 36.26749846 28.26627538 25.64499410
6955 1 38.74028245 28.26627538 25.64499410
6956 1 37.91602112 28.26627538 23.31363100
6957 1 40.38880511 28.26627538 23.31363100
6958 1 39.56454378 28.26627538 20.98226790
6959 1 42.03732776 28.26627538 20.98226790
6960 1 41.21306643 28.26627538 18.65090480
6961 1 43.68585042 28.26627538 18.65090480
6962 1 42.86158909 28.26627538 16.31954170
6963 1 45.33437308 28.26627538 16.31954170
6964 1 44.51011175 28.26627538 13.98817860
6965 1 46.98289574 28.26627538 13.98817860
6966 1 46.15863441 28.26627538 11.65681550
6967 1 48.63141839 28.26627538 11.65681550
6968 1 47.80715706 28.26627538 9.32545240
6969 1 50.27994105 28.26627538 9.32545240
6970 1 49.45567972 28.26627538 6.99408930
6971 1 51.92846371 28.26627538 6.99408930
6972 1 51.10420238 28.26627538 4.66272620
6973 1 53.57698636 28.26627538 4.66272620
6974 1 52.75272504 28.26627538 2.33136310
6975 1 55.22550902 28.26627538 2.33136310
6976 1 54.40124769 28.26627538 -0.00000000
6977 1 56.87403168 28.26627538 -0.00000000
6978 1 23.07931720 26.24725571 47.79294355
6979 1 25.55210119 26.24725571 47.79294355
6980 1 24.72783986 26.24725571 45.46158045
6981 1 27.20062385 26.24725571 45.46158045
6982 1 26.37636252 26.24725571 43.13021735
6983 1 28.84914650 26.24725571 43.13021735
6984 1 28.02488518 26.24725571 40.79885425
6985 1 30.49766916 26.24725571 40.79885425
6986 1 29.67340783 26.24725571 38.46749115
6987 1 32.14619182 26.24725571 38.46749115
6988 1 31.32193049 26.24725571 36.13612805
6989 1 33.79471448 26.24725571 36.13612805
6990 1 32.97045315 26.24725571 33.80476495
6991 1 35.44323713 26.24725571 33.80476495
6992 1 34.61897580 26.24725571 31.47340185
6993 1 37.09175979 26.24725571 31.47340185
6994 1 36.26749846 26.24725571 29.14203875
6995 1 38.74028245 26.24725571 29.14203875
6996 1 37.91602112 26.24725571 26.81067565
6997 1 40.38880511 26.24725571 26.81067565
6998 1 39.56454378 26.24725571 24.47931255
6999 1 42.03732776 26.24725571 24.47931255
7000 1 41.21306643 26.24725571 22.14794945
7001 1 43.68585042 26.24725571 22.14794945
7002 1 42.86158909 26.24725571 19.81658635
7003 1 45.33437308 26.24725571 19.81658635
7004 1 44.51011175 26.24725571 17.48522325
7005 1 46.98289574 26.24725571 17.48522325
7006 1 46.15863441 26.24725571 15.15386015
7007 1 48.63141839 26.24725571 15.15386015
7008 1 47.80715706 26.24725571 12.82249705
7009 1 50.27994105 26.24725571 12.82249705
7010 1 49.45567972 26.24725571 10.49113395
7011 1 51.92846371 26.24725571 10.49113395
7012 1 51.10420238 26.24725571 8.15977085
7013 1 53.57698636 26.24725571 8.15977085
7014 1 52.75272504 26.24725571 5.82840775
7015 1 55.22550902 26.24725571 5.82840775
7016 1 54.40124769 26.24725571 3.49704465
7017 1 56.87403168 26.24725571 3.49704465
7018 1 56.04977035 26.24725571 1.16568155
7019 1 58.52255434 26.24725571 1.16568155
7020 1 26.37636252 24.22823604 46.62726200
7021 1 28.84914650 24.22823604 46.62726200
7022 1 28.02488518 24.22823604 44.29589890
7023 1 30.49766916 24.22823604 44.29589890
7024 1 29.67340783 24.22823604 41.96453580
7025 1 32.14619182 24.22823604 41.96453580
7026 1 31.32193049 24.22823604 39.63317270
7027 1 33.79471448 24.22823604 39.63317270
7028 1 32.97045315 24.22823604 37.30180960
7029 1 35.44323713 24.22823604 37.30180960
7030 1 34.61897580 24.22823604 34.97044650
7031 1 37.09175979 24.22823604 34.97044650
7032 1 36.26749846 24.22823604 32.63908340
7033 1 38.74028245 24.22823604 32.63908340
7034 1 37.91602112 24.22823604 30.30772030
7035 1 40.38880511 24.22823604 30.30772030
7036 1 39.56454378 24.22823604 27.97635720
7037 1 42.03732776 24.22823604 27.97635720
7038 1 41.21306643 24.22823604 25.64499410
7039 1 43.68585042 24.22823604 25.64499410
7040 1 42.86158909 24.22823604 23.31363100
7041 1 45.33437308 24.22823604 23.31363100
7042 1 44.51011175 24.22823604 20.98226790
7043 1 46.98289574 24.22823604 20.98226790
7044 1 46.15863441 24.22823604 18.65090480
7045 1 48.63141839 24.22823604 18.65090480
7046 1 47.80715706 24.22823604 16.31954170
7047 1 50.27994105 24.22823604 16.31954170
7048 1 49.45567972 24.22823604 13.98817860
7049 1 51.92846371 24.22823604 13.98817860
7050 1 51.10420238 24.22823604 11.65681550
7051 1 53.57698636 24.22823604 11.65681550
7052 1 52.75272504 24.22823604 9.32545240
7053 1 55.22550902 24.22823604 9.32545240
7054 1 54.40124769 24.22823604 6.99408930
7055 1 56.87403168 24.22823604 6.99408930
7056 1 56.04977035 24.22823604 4.66272620
7057 1 58.52255434 24.22823604 4.66272620
7058 1 57.69829301 24.22823604 2.33136310
7059 1 60.17107699 24.22823604 2.33136310
7060 1 59.34681567 24.22823604 0.00000000
7061 1 61.81959965 24.22823604 0.00000000
7062 1 28.02488518 22.20921637 47.79294355
7063 1 30.49766916 22.20921637 47.79294355
7064 1 29.67340783 22.20921637 45.46158045
7065 1 32.14619182 22.20921637 45.46158045
7066 1 31.32193049 22.20921637 43.13021735
7067 1 33.79471448 22.20921637 43.13021735
7068 1 32.97045315 22.20921637 40.79885425
7069 1 35.44323713 22.20921637 40.79885425
7070 1 34.61897580 22.20921637 38.46749115
7071 1 37.09175979 22.20921637 38.46749115
7072 1 36.26749846 22.20921637 36.13612805
7073 1 38.74028245 22.20921637 36.13612805
7074 1 37.91602112 22.20921637 33.80476495
7075 1 40.38880511 22.20921637 33.80476495
7076 1 39.56454378 22.20921637 31.47340185
7077 1 42.03732776 22.20921637 31.47340185
7078 1 41.21306643 22.20921637 29.14203875
7079 1 43.68585042 22.20921637 29.14203875
7080 1 42.86158909 22.20921637 26.81067565
7081 1 45.33437308 22.20921637 26.81067565
7082 1 44.51011175 22.20921637 24.47931255
7083 1 46.98289574 22.20921637 24.47931255
7084 1 46.15863441 22.20921637 22.14794945
7085 1 48.63141839 22.20921637 22.14794945
7086 1 47.80715706 22.20921637 19.81658635
7087 1 50.27994105 22.20921637 19.81658635
7088 1 49.45567972 22.20921637 17.48522325
7089 1 51.92846371 22.20921637 17.48522325
7090 1 51.10420238 22.20921637 15.15386015
7091 1 53.57698636 22.20921637 15.15386015
7092 1 52.75272504 22.20921637 12.82249705
7093 1 55.22550902 22.20921637 12.82249705
7094 1 54.40124769 22.20921637 10.49113395
7095 1 56.87403168 22.20921637 10.49113395
7096 1 56.04977035 22.20921637 8.15977085
7097 1 58.52255434 22.20921637 8.15977085
7098 1 57.69829301 22.20921637 5.82840775
7099 1 60.17107699 22.20921637 5.82840775
7100 1 59.34681567 22.20921637 3.49704465
7101 1 61.81959965 22.20921637 3.49704465
7102 1 60.99533832 22.20921637 1.16568155
7103 1 63.46812231 22.20921637 1.16568155
7104 1 31.32193049 20.19019670 46.62726200
7105 1 33.79471448 20.19019670 46.62726200
7106 1 32.97045315 20.19019670 44.29589890
7107 1 35.44323713 20.19019670 44.29589890
7108 1 34.61897580 20.19019670 41.96453580
7109 1 37.09175979 20.19019670 41.96453580
7110 1 36.26749846 20.19019670 39.63317270
7111 1 38.74028245 20.19019670 39.63317270
7112 1 37.91602112 20.19019670 37.30180960
7113 1 40.38880511 20.19019670 37.30180960
7114 1 39.56454378 20.19019670 34.97044650
7115 1 42.03732776 20.19019670 34.97044650
7116 1 41.21306643 20.19019670 32.63908340
7117 1 43.68585042 20.19019670 32.63908340
7118 1 42.86158909 20.19019670 30.30772030
7119 1 45.33437308 20.19019670 30.30772030
7120 1 44.51011175 20.19019670 27.97635720
7121 1 46.98289574 20.19019670 27.97635720
7122 1 46.15863441 20.19019670 25.64499410
7123 1 48.63141839 20.19019670 25.64499410
7124 1 47.80715706 20.19019670 23.31363100
7125 1 50.27994105 20.19019670 23.31363100
7126 1 49.45567972 20.19019670 20.98226790
7127 1 51.92846371 20.19019670 20.98226790
7128 1 51.10420238 20.19019670 18.65090480
7129 1 53.57698636 20.19019670 18.65090480
7130 1 52.75272504 20.19019670 16.31954170
7131 1 55.22550902 20.19019670 16.31954170
7132 1 54.40124769 20.19019670 13.98817860
7133 1 56.87403168 20.19019670 13.98817860
7134 1 56.04977035 20.19019670 11.65681550
7135 1 58.52255434 20.19019670 11.65681550
7136 1 57.69829301 20.19019670 9.32545240
7137 1 60.17107699 20.19019670 9.32545240
7138 1 59.34681567 20.19019670 6.99408930
7139 1 61.81959965 20.19019670 6.99408930
7140 1 60.99533832 20.19019670 4.66272620
7141 1 63.46812231 20.19019670 4.66272620
7142 1 62.64386098 20.19019670 2.33136310
7143 1 32.97045315 18.17117703 47.79294355
7144 1 35.44323713 18.17117703 47.79294355
7145 1 34.61897580 18.17117703 45.46158045
7146 1 37.09175979 18.17117703 45.46158045
7147 1 36.26749846 18.17117703 43.13021735
7148 1 38.74028245 18.17117703 43.13021735
7149 1 37.91602112 18.17117703 40.79885425
7150 1 40.38880511 18.17117703 40.79885425
7151 1 39.56454378 18.17117703 38.46749115
7152 1 42.03732776 18.17117703 38.46749115
7153 1 41.21306643 18.17117703 36.13612805
7154 1 43.68585042 18.17117703 36.13612805
7155 1 42.86158909 18.17117703 33.80476495
7156 1 45.33437308 18.17117703 33.80476495
7157 1 44.51011175 18.17117703 31.47340185
7158 1 46.98289574 18.17117703 31.47340185
7159 1 46.15863441 18.17117703 29.14203875
7160 1 48.63141839 18.17117703 29.14203875
7161 1 47.80715706 18.17117703 26.81067565
7162 1 50.27994105 18.17117703 26.81067565
7163 1 49.45567972 18.17117703 24.47931255
7164 1 51.92846371 18.17117703 24.47931255
7165 1 51.10420238 18.17117703 22.14794945
7166 1 53.57698636 18.17117703 22.14794945
7167 1 52.75272504 18.17117703 19.81658635
7168 1 55.22550902 18.17117703 19.81658635
7169 1 54.40124769 18.17117703 17.48522325
7170 1 56.87403168 18.17117703 17.48522325
7171 1 56.04977035 18.17117703 15.15386015
7172 1 58.52255434 18.17117703 15.15386015
7173 1 57.69829301 18.17117703 12.82249705
7174 1 60.17107699 18.17117703 12.82249705
7175 1 59.34681567 18.17117703 10.49113395
7176 1 61.81959965 18.17117703 10.49113395
7177 1 60.99533832 18.17117703 8.15977085
7178 1 63.46812231 18.17117703 8.15977085
7179 1 62.64386098 18.17117703 5.82840775
7180 1 36.26749846 16.15215736 46.62726200
7181 1 38.74028245 16.15215736 46.62726200
7182 1 37.91602112 16.15215736 44.29589890
7183 1 40.38880511 16.15215736 44.29589890
7184 1 39.56454378 16.15215736 41.96453580
7185 1 42.03732776 16.15215736 41.96453580
7186 1 41.21306643 16.15215736 39.63317270
7187 1 43.68585042 16.15215736 39.63317270
7188 1 42.86158909 16.15215736 37.30180960
7189 1 45.33437308 16.15215736 37.30180960
7190 1 44.51011175 16.15215736 34.97044650
7191 1 46.98289574 16.15215736 34.97044650
7192 1 46.15863441 16.15215736 32.63908340
7193 1 48.63141839 16.15215736 32.63908340
7194 1 47.80715706 16.15215736 30.30772030
7195 1 50.27994105 16.15215736 30.30772030
7196 1 49.45567972 16.15215736 27.97635720
7197 1 51.92846371 16.15215736 27.97635720
7198 1 51.10420238 16.15215736 25.64499410
7199 1 53.57698636 16.15215736 25.64499410
7200 1 52.75272504 16.15215736 23.31363100
7201 1 55.22550902 16.15215736 23.31363100
7202 1 54.40124769 16.15215736 20.98226790
7203 1 56.87403168 16.15215736 20.98226790
7204 1 56.04977035 16.15215736 18.65090480
7205 1 58.52255434 16.15215736 18.65090480
7206 1 57.69829301 16.15215736 16.31954170
7207 1 60.17107699 16.15215736 16.31954170
7208 1 59.34681567 16.15215736 13.98817860
7209 1 61.81959965 16.15215736 13.98817860
7210 1 60.99533832 16.15215736 11.65681550
7211 1 63.46812231 16.15215736 11.65681550
7212 1 62.64386098 16.15215736 9.32545240
7213 1 37.91602112 14.13313769 47.79294355
7214 1 40.38880511 14.13313769 47.79294355
7215 1 39.56454378 14.13313769 45.46158045
7216 1 42.03732776 14.13313769 45.46158045
7217 1 41.21306643 14.13313769 43.13021735
7218 1 43.68585042 14.13313769 43.13021735
7219 1 42.86158909 14.13313769 40.79885425
7220 1 45.33437308 14.13313769 40.79885425
7221 1 44.51011175 14.13313769 38.46749115
7222 1 46.98289574 14.13313769 38.46749115
7223 1 46.15863441 14.13313769 36.13612805
7224 1 48.63141839 14.13313769 36.13612805
7225 1 47.80715706 14.13313769 33.80476495
7226 1 50.27994105 14.13313769 33.80476495
7227 1 49.45567972 14.13313769 31.47340185
7228 1 51.92846371 14.13313769 31.47340185
7229 1 51.10420238 14.13313769 29.14203875
7230 1 53.57698636 14.13313769 29.14203875
7231 1 52.75272504 14.13313769 26.81067565
7232 1 55.22550902 14.13313769 26.81067565
7233 1 54.40124769 14.13313769 24.47931255
7234 1 56.87403168 14.13313769 24.47931255
7235 1 56.04977035 14.13313769 22.14794945
7236 1 58.52255434 14.13313769 22.14794945
7237 1 57.69829301 14.13313769 19.81658635
7238 1 60.17107699 14.13313769 19.81658635
7239 1 59.34681567 14.13313769 17.48522325
7240 1 61.81959965 14.13313769 17.48522325
7241 1 60.99533832 14.13313769 15.15386015
7242 1 63.46812231 14.13313769 15.15386015
7243 1 62.64386098 14.13313769 12.82249705
7244 1 41.21306643 12.11411802 46.62726200
7245 1 43.68585042 12.11411802 46.62726200
7246 1 42.86158909 12.11411802 44.29589890
7247 1 45.33437308 12.11411802 44.29589890
7248 1 44.51011175 12.11411802 41.96453580
7249 1 46.98289574 12.11411802 41.96453580
7250 1 46.15863441 12.11411802 39.63317270
7251 1 48.63141839 12.11411802 39.63317270
7252 1 47.80715706 12.11411802 37.30180960
7253 1 50.27994105 12.11411802 37.30180960
7254 1 49.45567972 12.11411802 34.97044650
7255 1 51.92846371 12.11411802 34.97044650
7256 1 51.10420238 12.11411802 32.63908340
7257 1 53.57698636 12.11411802 32.63908340
7258 1 52.75272504 12.11411802 30.30772030
7259 1 55.22550902 12.11411802 30.30772030
7260 1 54.40124769 12.11411802 27.97635720
7261 1 56.87403168 12.11411802 27.97635720
7262 1 56.04977035 12.11411802 25.64499410
7263 1 58.52255434 12.11411802 25.64499410
7264 1 57.69829301 12.11411802 23.31363100
7265 1 60.17107699 12.11411802 23.31363100
7266 1 59.34681567 12.11411802 20.98226790
7267 1 61.81959965 12.11411802 20.98226790
7268 1 60.99533832 12.11411802 18.65090480
7269 1 63.46812231 12.11411802 18.65090480
7270 1 62.64386098 12.11411802 16.31954170
7271 1 42.86158909 10.09509835 47.79294355
7272 1 45.33437308 10.09509835 47.79294355
7273 1 44.51011175 10.09509835 45.46158045
7274 1 46.98289574 10.09509835 45.46158045
7275 1 46.15863441 10.09509835 43.13021735
7276 1 48.63141839 10.09509835 43.13021735
7277 1 47.80715706 10.09509835 40.79885425
7278 1 50.27994105 10.09509835 40.79885425
7279 1 49.45567972 10.09509835 38.46749115
7280 1 51.92846371 10.09509835 38.46749115
7281 1 51.10420238 10.09509835 36.13612805
7282 1 53.57698636 10.09509835 36.13612805
7283 1 52.75272504 10.09509835 33.80476495
7284 1 55.22550902 10.09509835 33.80476495
7285 1 54.40124769 10.09509835 31.47340185
7286 1 56.87403168 10.09509835 31.47340185
7287 1 56.04977035 10.09509835 29.14203875
7288 1 58.52255434 10.09509835 29.14203875
7289 1 57.69829301 10.09509835 26.81067565
7290 1 60.17107699 10.09509835 26.81067565
7291 1 59.34681567 10.09509835 24.47931255
7292 1 61.81959965 10.09509835 24.47931255
7293 1 60.99533832 10.09509835 22.14794945
7294 1 63.46812231 10.09509835 22.14794945
7295 1 62.64386098 10.09509835 19.81658635
7296 1 46.15863441 8.07607868 46.62726200
7297 1 48.63141839 8.07607868 46.62726200
7298 1 47.80715706 8.07607868 44.29589890
7299 1 50.27994105 8.07607868 44.29589890
7300 1 49.45567972 8.07607868 41.96453580
7301 1 51.92846371 8.07607868 41.96453580
7302 1 51.10420238 8.07607868 39.63317270
7303 1 53.57698636 8.07607868 39.63317270
7304 1 52.75272504 8.07607868 37.30180960
7305 1 55.22550902 8.07607868 37.30180960
7306 1 54.40124769 8.07607868 34.97044650
7307 1 56.87403168 8.07607868 34.97044650
7308 1 56.04977035 8.07607868 32.63908340
7309 1 58.52255434 8.07607868 32.63908340
7310 1 57.69829301 8.07607868 30.30772030
7311 1 60.17107699 8.07607868 30.30772030
7312 1 59.34681567 8.07607868 27.97635720
7313 1 61.81959965 8.07607868 27.97635720
7314 1 60.99533832 8.07607868 25.64499410
7315 1 63.46812231 8.07607868 25.64499410
7316 1 62.64386098 8.07607868 23.31363100
7317 1 47.80715706 6.05705901 47.79294355
7318 1 50.27994105 6.05705901 47.79294355
7319 1 49.45567972 6.05705901 45.46158045
7320 1 51.92846371 6.05705901 45.46158045
7321 1 51.10420238 6.05705901 43.13021735
7322 1 53.57698636 6.05705901 43.13021735
7323 1 52.75272504 6.05705901 40.79885425
7324 1 55.22550902 6.05705901 40.79885425
7325 1 54.40124769 6.05705901 38.46749115
7326 1 56.87403168 6.05705901 38.46749115
7327 1 56.04977035 6.05705901 36.13612805
7328 1 58.52255434 6.05705901 36.13612805
7329 1 57.69829301 6.05705901 33.80476495
7330 1 60.17107699 6.05705901 33.80476495
7331 1 59.34681567 6.05705901 31.47340185
7332 1 61.81959965 6.05705901 31.47340185
7333 1 60.99533832 6.05705901 29.14203875
7334 1 63.46812231 6.05705901 29.14203875
7335 1 62.64386098 6.05705901 26.81067565
7336 1 51.10420238 4.03803934 46.62726200
7337 1 53.57698636 4.03803934 46.62726200
7338 1 52.75272504 4.03803934 44.29589890
7339 1 55.22550902 4.03803934 44.29589890
7340 1 54.40124769 4.03803934 41.96453580
7341 1 56.87403168 4.03803934 41.96453580
7342 1 56.04977035 4.03803934 39.63317270
7343 1 58.52255434 4.03803934 39.63317270
7344 1 57.69829301 4.03803934 37.30180960
7345 1 60.17107699 4.03803934 37.30180960
7346 1 59.34681567 4.03803934 34.97044650
7347 1 61.81959965 4.03803934 34.97044650
7348 1 60.99533832 4.03803934 32.63908340
7349 1 63.46812231 4.03803934 32.63908340
7350 1 62.64386098 4.03803934 30.30772030
7351 1 52.75272504 2.01901967 47.79294355
7352 1 55.22550902 2.01901967 47.79294355
7353 1 54.40124769 2.01901967 45.46158045
7354 1 56.87403168 2.01901967 45.46158045
7355 1 56.04977035 2.01901967 43.13021735
7356 1 58.52255434 2.01901967 43.13021735
7357 1 57.69829301 2.01901967 40.79885425
7358 1 60.17107699 2.01901967 40.79885425
7359 1 59.34681567 2.01901967 38.46749115
7360 1 61.81959965 2.01901967 38.46749115
7361 1 60.99533832 2.01901967 36.13612805
7362 1 63.46812231 2.01901967 36.13612805
7363 1 62.64386098 2.01901967 33.80476495
7364 1 56.04977035 0.00000000 46.62726200
7365 1 58.52255434 -0.00000000 46.62726200
7366 1 57.69829301 0.00000000 44.29589890
7367 1 60.17107699 -0.00000000 44.29589890
7368 1 59.34681567 0.00000000 41.96453580
7369 1 61.81959965 -0.00000000 41.96453580
7370 1 60.99533832 0.00000000 39.63317270
7371 1 63.46812231 -0.00000000 39.63317270
7372 1 62.64386098 0.00000000 37.30180960
7373 1 23.07931720 30.28529505 47.79294355
7374 1 25.55210119 30.28529505 47.79294355
7375 1 24.72783986 30.28529505 45.46158045
7376 1 27.20062385 30.28529505 45.46158045
7377 1 26.37636252 30.28529505 43.13021735
7378 1 28.84914650 30.28529505 43.13021735
7379 1 28.02488518 30.28529505 40.79885425
7380 1 30.49766916 30.28529505 40.79885425
7381 1 29.67340783 30.28529505 38.46749115
7382 1 32.14619182 30.28529505 38.46749115
7383 1 31.32193049 30.28529505 36.13612805
7384 1 33.79471448 30.28529505 36.13612805
7385 1 32.97045315 30.28529505 33.80476495
7386 1 35.44323713 30.28529505 33.80476495
7387 1 34.61897580 30.28529505 31.47340185
7388 1 37.09175979 30.28529505 31.47340185
7389 1 36.26749846 30.28529505 29.14203875
7390 1 38.74028245 30.28529505 29.14203875
7391 1 37.91602112 30.28529505 26.81067565
7392 1 40.38880511 30.28529505 26.81067565
7393 1 39.56454378 30.28529505 24.47931255
7394 1 42.03732776 30.28529505 24.47931255
7395 1 41.21306643 30.28529505 22.14794945
7396 1 43.68585042 30.28529505 22.14794945
7397 1 42.86158909 30.28529505 19.81658635
7398 1 45.33437308 30.28529505 19.81658635
7399 1 44.51011175 30.28529505 17.48522325
7400 1 46.98289574 30.28529505 17.48522325
7401 1 46.15863441 30.28529505 15.15386015
7402 1 48.63141839 30.28529505 15.15386015
7403 1 47.80715706 30.28529505 12.82249705
7404 1 50.27994105 30.28529505 12.82249705
7405 1 49.45567972 30.28529505 10.49113395
7406 1 51.92846371 30.28529505 10.49113395
7407 1 51.10420238 30.28529505 8.15977085
7408 1 53.57698636 30.28529505 8.15977085
7409 1 52.75272504 30.28529505 5.82840775
7410 1 55.22550902 30.28529505 5.82840775
7411 1 54.40124769 30.28529505 3.49704465
7412 1 56.87403168 30.28529505 3.49704465
7413 1 56.04977035 30.28529505 1.16568155
7414 1 58.52255434 30.28529505 1.16568155
7415 1 26.37636252 28.26627538 46.62726200
7416 1 28.84914650 28.26627538 46.62726200
7417 1 28.02488518 28.26627538 44.29589890
7418 1 30.49766916 28.26627538 44.29589890
7419 1 29.67340783 28.26627538 41.96453580
7420 1 32.14619182 28.26627538 41.96453580
7421 1 31.32193049 28.26627538 39.63317270
7422 1 33.79471448 28.26627538 39.63317270
7423 1 32.97045315 28.26627538 37.30180960
7424 1 35.44323713 28.26627538 37.30180960
7425 1 34.61897580 28.26627538 34.97044650
7426 1 37.09175979 28.26627538 34.97044650
7427 1 36.26749846 28.26627538 32.63908340
7428 1 38.74028245 28.26627538 32.63908340
7429 1 37.91602112 28.26627538 30.30772030
7430 1 40.38880511 28.26627538 30.30772030
7431 1 39.56454378 28.26627538 27.97635720
7432 1 42.03732776 28.26627538 27.97635720
7433 1 41.21306643 28.26627538 25.64499410
7434 1 43.68585042 28.26627538 25.64499410
7435 1 42.86158909 28.26627538 23.31363100
7436 1 45.33437308 28.26627538 23.31363100
7437 1 44.51011175 28.26627538 20.98226790
7438 1 46.98289574 28.26627538 20.98226790
7439 1 46.15863441 28.26627538 18.65090480
7440 1 48.63141839 28.26627538 18.65090480
7441 1 47.80715706 28.26627538 16.31954170
7442 1 50.27994105 28.26627538 16.31954170
7443 1 49.45567972 28.26627538 13.98817860
7444 1 51.92846371 28.26627538 13.98817860
7445 1 51.10420238 28.26627538 11.65681550
7446 1 53.57698636 28.26627538 11.65681550
7447 1 52.75272504 28.26627538 9.32545240
7448 1 55.22550902 28.26627538 9.32545240
7449 1 54.40124769 28.26627538 6.99408930
7450 1 56.87403168 28.26627538 6.99408930
7451 1 56.04977035 28.26627538 4.66272620
7452 1 58.52255434 28.26627538 4.66272620
7453 1 57.69829301 28.26627538 2.33136310
7454 1 60.17107699 28.26627538 2.33136310
7455 1 59.34681567 28.26627538 0.00000000
7456 1 61.81959965 28.26627538 0.00000000
7457 1 28.02488518 26.24725571 47.79294355
7458 1 30.49766916 26.24725571 47.79294355
7459 1 29.67340783 26.24725571 45.46158045
7460 1 32.14619182 26.24725571 45.46158045
7461 1 31.32193049 26.24725571 43.13021735
7462 1 33.79471448 26.24725571 43.13021735
7463 1 32.97045315 26.24725571 40.79885425
7464 1 35.44323713 26.24725571 40.79885425
7465 1 34.61897580 26.24725571 38.46749115
7466 1 37.09175979 26.24725571 38.46749115
7467 1 36.26749846 26.24725571 36.13612805
7468 1 38.74028245 26.24725571 36.13612805
7469 1 37.91602112 26.24725571 33.80476495
7470 1 40.38880511 26.24725571 33.80476495
7471 1 39.56454378 26.24725571 31.47340185
7472 1 42.03732776 26.24725571 31.47340185
7473 1 41.21306643 26.24725571 29.14203875
7474 1 43.68585042 26.24725571 29.14203875
7475 1 42.86158909 26.24725571 26.81067565
7476 1 45.33437308 26.24725571 26.81067565
7477 1 44.51011175 26.24725571 24.47931255
7478 1 46.98289574 26.24725571 24.47931255
7479 1 46.15863441 26.24725571 22.14794945
7480 1 48.63141839 26.24725571 22.14794945
7481 1 47.80715706 26.24725571 19.81658635
7482 1 50.27994105 26.24725571 19.81658635
7483 1 49.45567972 26.24725571 17.48522325
7484 1 51.92846371 26.24725571 17.48522325
7485 1 51.10420238 26.24725571 15.15386015
7486 1 53.57698636 26.24725571 15.15386015
7487 1 52.75272504 26.24725571 12.82249705
7488 1 55.22550902 26.24725571 12.82249705
7489 1 54.40124769 26.24725571 10.49113395
7490 1 56.87403168 26.24725571 10.49113395
7491 1 56.04977035 26.24725571 8.15977085
7492 1 58.52255434 26.24725571 8.15977085
7493 1 57.69829301 26.24725571 5.82840775
7494 1 60.17107699 26.24725571 5.82840775
7495 1 59.34681567 26.24725571 3.49704465
7496 1 61.81959965 26.24725571 3.49704465
7497 1 60.99533832 26.24725571 1.16568155
7498 1 63.46812231 26.24725571 1.16568155
7499 1 31.32193049 24.22823604 46.62726200
7500 1 33.79471448 24.22823604 46.62726200
7501 1 32.97045315 24.22823604 44.29589890
7502 1 35.44323713 24.22823604 44.29589890
7503 1 34.61897580 24.22823604 41.96453580
7504 1 37.09175979 24.22823604 41.96453580
7505 1 36.26749846 24.22823604 39.63317270
7506 1 38.74028245 24.22823604 39.63317270
7507 1 37.91602112 24.22823604 37.30180960
7508 1 40.38880511 24.22823604 37.30180960
7509 1 39.56454378 24.22823604 34.97044650
7510 1 42.03732776 24.22823604 34.97044650
7511 1 41.21306643 24.22823604 32.63908340
7512 1 43.68585042 24.22823604 32.63908340
7513 1 42.86158909 24.22823604 30.30772030
7514 1 45.33437308 24.22823604 30.30772030
7515 1 44.51011175 24.22823604 27.97635720
7516 1 46.98289574 24.22823604 27.97635720
7517 1 46.15863441 24.22823604 25.64499410
7518 1 48.63141839 24.22823604 25.64499410
7519 1 47.80715706 24.22823604 23.31363100
7520 1 50.27994105 24.22823604 23.31363100
7521 1 49.45567972 24.22823604 20.98226790
7522 1 51.92846371 24.22823604 20.98226790
7523 1 51.10420238 24.22823604 18.65090480
7524 1 53.57698636 24.22823604 18.65090480
7525 1 52.75272504 24.22823604 16.31954170
7526 1 55.22550902 24.22823604 16.31954170
7527 1 54.40124769 24.22823604 13.98817860
7528 1 56.87403168 24.22823604 13.98817860
7529 1 56.04977035 24.22823604 11.65681550
7530 1 58.52255434 24.22823604 11.65681550
7531 1 57.69829301 24.22823604 9.32545240
7532 1 60.17107699 24.22823604 9.32545240
7533 1 59.34681567 24.22823604 6.99408930
7534 1 61.81959965 24.22823604 6.99408930
7535 1 60.99533832 24.22823604 4.66272620
7536 1 63.46812231 24.22823604 4.66272620
7537 1 62.64386098 24.22823604 2.33136310
7538 1 32.97045315 22.20921637 47.79294355
7539 1 35.44323713 22.20921637 47.79294355
7540 1 34.61897580 22.20921637 45.46158045
7541 1 37.09175979 22.20921637 45.46158045
7542 1 36.26749846 22.20921637 43.13021735
7543 1 38.74028245 22.20921637 43.13021735
7544 1 37.91602112 22.20921637 40.79885425
7545 1 40.38880511 22.20921637 40.79885425
7546 1 39.56454378 22.20921637 38.46749115
7547 1 42.03732776 22.20921637 38.46749115
7548 1 41.21306643 22.20921637 36.13612805
7549 1 43.68585042 22.20921637 36.13612805
7550 1 42.86158909 22.20921637 33.80476495
7551 1 45.33437308 22.20921637 33.80476495
7552 1 44.51011175 22.20921637 31.47340185
7553 1 46.98289574 22.20921637 31.47340185
7554 1 46.15863441 22.20921637 29.14203875
7555 1 48.63141839 22.20921637 29.14203875
7556 1 47.80715706 22.20921637 26.81067565
7557 1 50.27994105 22.20921637 26.81067565
7558 1 49.45567972 22.20921637 24.47931255
7559 1 51.92846371 22.20921637 24.47931255
7560 1 51.10420238 22.20921637 22.14794945
7561 1 53.57698636 22.20921637 22.14794945
7562 1 52.75272504 22.20921637 19.81658635
7563 1 55.22550902 22.20921637 19.81658635
7564 1 54.40124769 22.20921637 17.48522325
7565 1 56.87403168 22.20921637 17.48522325
7566 1 56.04977035 22.20921637 15.15386015
7567 1 58.52255434 22.20921637 15.15386015
7568 1 57.69829301 22.20921637 12.82249705
7569 1 60.17107699 22.20921637 12.82249705
7570 1 59.34681567 22.20921637 10.49113395
7571 1 61.81959965 22.20921637 10.49113395
7572 1 60.99533832 22.20921637 8.15977085
7573 1 63.46812231 22.20921637 8.15977085
7574 1 62.64386098 22.20921637 5.82840775
7575 1 36.26749846 20.19019670 46.62726200
7576 1 38.74028245 20.19019670 46.62726200
7577 1 37.91602112 20.19019670 44.29589890
7578 1 40.38880511 20.19019670 44.29589890
7579 1 39.56454378 20.19019670 41.96453580
7580 1 42.03732776 20.19019670 41.96453580
7581 1 41.21306643 20.19019670 39.63317270
7582 1 43.68585042 20.19019670 39.63317270
7583 1 42.86158909 20.19019670 37.30180960
7584 1 45.33437308 20.19019670 37.30180960
7585 1 44.51011175 20.19019670 34.97044650
7586 1 46.98289574 20.19019670 34.97044650
7587 1 46.15863441 20.19019670 32.63908340
7588 1 48.63141839 20.19019670 32.63908340
7589 1 47.80715706 20.19019670 30.30772030
7590 1 50.27994105 20.19019670 30.30772030
7591 1 49.45567972 20.19019670 27.97635720
7592 1 51.92846371 20.19019670 27.97635720
7593 1 51.10420238 20.19019670 25.64499410
7594 1 53.57698636 20.19019670 25.64499410
7595 1 52.75272504 20.19019670 23.31363100
7596 1 55.22550902 20.19019670 23.31363100
7597 1 54.40124769 20.19019670 20.98226790
7598 1 56.87403168 20.19019670 20.98226790
7599 1 56.04977035 20.19019670 18.65090480
7600 1 58.52255434 20.19019670 18.65090480
7601 1 57.69829301 20.19019670 16.31954170
7602 1 60.17107699 20.19019670 16.31954170
7603 1 59.34681567 20.19019670 13.98817860
7604 1 61.81959965 20.19019670 13.98817860
7605 1 60.99533832 20.19019670 11.65681550
7606 1 63.46812231 20.19019670 11.65681550
7607 1 62.64386098 20.19019670 9.32545240
7608 1 37.91602112 18.17117703 47.79294355
7609 1 40.38880511 18.17117703 47.79294355
7610 1 39.56454378 18.17117703 45.46158045
7611 1 42.03732776 18.17117703 45.46158045
7612 1 41.21306643 18.17117703 43.13021735
7613 1 43.68585042 18.17117703 43.13021735
7614 1 42.86158909 18.17117703 40.79885425
7615 1 45.33437308 18.17117703 40.79885425
7616 1 44.51011175 18.17117703 38.46749115
7617 1 46.98289574 18.17117703 38.46749115
7618 1 46.15863441 18.17117703 36.13612805
7619 1 48.63141839 18.17117703 36.13612805
7620 1 47.80715706 18.17117703 33.80476495
7621 1 50.27994105 18.17117703 33.80476495
7622 1 49.45567972 18.17117703 31.47340185
7623 1 51.92846371 18.17117703 31.47340185
7624 1 51.10420238 18.17117703 29.14203875
7625 1 53.57698636 18.17117703 29.14203875
7626 1 52.75272504 18.17117703 26.81067565
7627 1 55.22550902 18.17117703 26.81067565
7628 1 54.40124769 18.17117703 24.47931255
7629 1 56.87403168 18.17117703 24.47931255
7630 1 56.04977035 18.17117703 22.14794945
7631 1 58.52255434 18.17117703 22.14794945
7632 1 57.69829301 18.17117703 19.81658635
7633 1 60.17107699 18.17117703 19.81658635
7634 1 59.34681567 18.17117703 17.48522325
7635 1 61.81959965 18.17117703 17.48522325
7636 1 60.99533832 18.17117703 15.15386015
7637 1 63.46812231 18.17117703 15.15386015
7638 1 62.64386098 18.17117703 12.82249705
7639 1 41.21306643 16.15215736 46.62726200
7640 1 43.68585042 16.15215736 46.62726200
7641 1 42.86158909 16.15215736 44.29589890
7642 1 45.33437308 16.15215736 44.29589890
7643 1 44.51011175 16.15215736 41.96453580
7644 1 46.98289574 16.15215736 41.96453580
7645 1 46.15863441 16.15215736 39.63317270
7646 1 48.63141839 16.15215736 39.63317270
7647 1 47.80715706 16.15215736 37.30180960
7648 1 50.27994105 16.15215736 37.30180960
7649 1 49.45567972 16.15215736 34.97044650
7650 1 51.92846371 16.15215736 34.97044650
7651 1 51.10420238 16.15215736 32.63908340
7652 1 53.57698636 16.15215736 32.63908340
7653 1 52.75272504 16.15215736 30.30772030
7654 1 55.22550902 16.15215736 30.30772030
7655 1 54.40124769 16.15215736 27.97635720
7656 1 56.87403168 16.15215736 27.97635720
7657 1 56.04977035 16.15215736 25.64499410
7658 1 58.52255434 16.15215736 25.64499410
7659 1 57.69829301 16.15215736 23.31363100
7660 1 60.17107699 16.15215736 23.31363100
7661 1 59.34681567 16.15215736 20.98226790
7662 1 61.81959965 16.15215736 20.98226790
7663 1 60.99533832 16.15215736 18.65090480
7664 1 63.46812231 16.15215736 18.65090480
7665 1 62.64386098 16.15215736 16.31954170
7666 1 42.86158909 14.13313769 47.79294355
7667 1 45.33437308 14.13313769 47.79294355
7668 1 44.51011175 14.13313769 45.46158045
7669 1 46.98289574 14.13313769 45.46158045
7670 1 46.15863441 14.13313769 43.13021735
7671 1 48.63141839 14.13313769 43.13021735
7672 1 47.80715706 14.13313769 40.79885425
7673 1 50.27994105 14.13313769 40.79885425
7674 1 49.45567972 14.13313769 38.46749115
7675 1 51.92846371 14.13313769 38.46749115
7676 1 51.10420238 14.13313769 36.13612805
7677 1 53.57698636 14.13313769 36.13612805
7678 1 52.75272504 14.13313769 33.80476495
7679 1 55.22550902 14.13313769 33.80476495
7680 1 54.40124769 14.13313769 31.47340185
7681 1 56.87403168 14.13313769 31.47340185
7682 1 56.04977035 14.13313769 29.14203875
7683 1 58.52255434 14.13313769 29.14203875
7684 1 57.69829301 14.13313769 26.81067565
7685 1 60.17107699 14.13313769 26.81067565
7686 1 59.34681567 14.13313769 24.47931255
7687 1 61.81959965 14.13313769 24.47931255
7688 1 60.99533832 14.13313769 22.14794945
7689 1 63.46812231 14.13313769 22.14794945
7690 1 62.64386098 14.13313769 19.81658635
7691 1 46.15863441 12.11411802 46.62726200
7692 1 48.63141839 12.11411802 46.62726200
7693 1 47.80715706 12.11411802 44.29589890
7694 1 50.27994105 12.11411802 44.29589890
7695 1 49.45567972 12.11411802 41.96453580
7696 1 51.92846371 12.11411802 41.96453580
7697 1 51.10420238 12.11411802 39.63317270
7698 1 53.57698636 12.11411802 39.63317270
7699 1 52.75272504 12.11411802 37.30180960
7700 1 55.22550902 12.11411802 37.30180960
7701 1 54.40124769 12.11411802 34.97044650
7702 1 56.87403168 12.11411802 34.97044650
7703 1 56.04977035 12.11411802 32.63908340
7704 1 58.52255434 12.11411802 32.63908340
7705 1 57.69829301 12.11411802 30.30772030
7706 1 60.17107699 12.11411802 30.30772030
7707 1 59.34681567 12.11411802 27.97635720
7708 1 61.81959965 12.11411802 27.97635720
7709 1 60.99533832 12.11411802 25.64499410
7710 1 63.46812231 12.11411802 25.64499410
7711 1 62.64386098 12.11411802 23.31363100
7712 1 47.80715706 10.09509835 47.79294355
7713 1 50.27994105 10.09509835 47.79294355
7714 1 49.45567972 10.09509835 45.46158045
7715 1 51.92846371 10.09509835 45.46158045
7716 1 51.10420238 10.09509835 43.13021735
7717 1 53.57698636 10.09509835 43.13021735
7718 1 52.75272504 10.09509835 40.79885425
7719 1 55.22550902 10.09509835 40.79885425
7720 1 54.40124769 10.09509835 38.46749115
7721 1 56.87403168 10.09509835 38.46749115
7722 1 56.04977035 10.09509835 36.13612805
7723 1 58.52255434 10.09509835 36.13612805
7724 1 57.69829301 10.09509835 33.80476495
7725 1 60.17107699 10.09509835 33.80476495
7726 1 59.34681567 10.09509835 31.47340185
7727 1 61.81959965 10.09509835 31.47340185
7728 1 60.99533832 10.09509835 29.14203875
7729 1 63.46812231 10.09509835 29.14203875
7730 1 62.64386098 10.09509835 26.81067565
7731 1 51.10420238 8.07607868 46.62726200
7732 1 53.57698636 8.07607868 46.62726200
7733 1 52.75272504 8.07607868 44.29589890
7734 1 55.22550902 8.07607868 44.29589890
7735 1 54.40124769 8.07607868 41.96453580
7736 1 56.87403168 8.07607868 41.96453580
7737 1 56.04977035 8.07607868 39.63317270
7738 1 58.52255434 8.07607868 39.63317270
7739 1 57.69829301 8.07607868 37.30180960
7740 1 60.17107699 8.07607868 37.30180960
7741 1 59.34681567 8.07607868 34.97044650
7742 1 61.81959965 8.07607868 34.97044650
7743 1 60.99533832 8.07607868 32.63908340
7744 1 63.46812231 8.07607868 32.63908340
7745 1 62.64386098 8.07607868 30.30772030
7746 1 52.75272504 6.05705901 47.79294355
7747 1 55.22550902 6.05705901 47.79294355
7748 1 54.40124769 6.05705901 45.46158045
7749 1 56.87403168 6.05705901 45.46158045
7750 1 56.04977035 6.05705901 43.13021735
7751 1 58.52255434 6.05705901 43.13021735
7752 1 57.69829301 6.05705901 40.79885425
7753 1 60.17107699 6.05705901 40.79885425
7754 1 59.34681567 6.05705901 38.46749115
7755 1 61.81959965 6.05705901 38.46749115
7756 1 60.99533832 6.05705901 36.13612805
7757 1 63.46812231 6.05705901 36.13612805
7758 1 62.64386098 6.05705901 33.80476495
7759 1 56.04977035 4.03803934 46.62726200
7760 1 58.52255434 4.03803934 46.62726200
7761 1 57.69829301 4.03803934 44.29589890
7762 1 60.17107699 4.03803934 44.29589890
7763 1 59.34681567 4.03803934 41.96453580
7764 1 61.81959965 4.03803934 41.96453580
7765 1 60.99533832 4.03803934 39.63317270
7766 1 63.46812231 4.03803934 39.63317270
7767 1 62.64386098 4.03803934 37.30180960
7768 1 57.69829301 2.01901967 47.79294355
7769 1 60.17107699 2.01901967 47.79294355
7770 1 59.34681567 2.01901967 45.46158045
7771 1 61.81959965 2.01901967 45.46158045
7772 1 60.99533832 2.01901967 43.13021735
7773 1 63.46812231 2.01901967 43.13021735
7774 1 62.64386098 2.01901967 40.79885425
7775 1 60.99533832 0.00000000 46.62726200
7776 1 63.46812231 -0.00000000 46.62726200
7777 1 62.64386098 0.00000000 44.29589890
7778 1 28.02488518 30.28529505 47.79294355
7779 1 30.49766916 30.28529505 47.79294355
7780 1 29.67340783 30.28529505 45.46158045
7781 1 32.14619182 30.28529505 45.46158045
7782 1 31.32193049 30.28529505 43.13021735
7783 1 33.79471448 30.28529505 43.13021735
7784 1 32.97045315 30.28529505 40.79885425
7785 1 35.44323713 30.28529505 40.79885425
7786 1 34.61897580 30.28529505 38.46749115
7787 1 37.09175979 30.28529505 38.46749115
7788 1 36.26749846 30.28529505 36.13612805
7789 1 38.74028245 30.28529505 36.13612805
7790 1 37.91602112 30.28529505 33.80476495
7791 1 40.38880511 30.28529505 33.80476495
7792 1 39.56454378 30.28529505 31.47340185
7793 1 42.03732776 30.28529505 31.47340185
7794 1 41.21306643 30.28529505 29.14203875
7795 1 43.68585042 30.28529505 29.14203875
7796 1 42.86158909 30.28529505 26.81067565
7797 1 45.33437308 30.28529505 26.81067565
7798 1 44.51011175 30.28529505 24.47931255
7799 1 46.98289574 30.28529505 24.47931255
7800 1 46.15863441 30.28529505 22.14794945
7801 1 48.63141839 30.28529505 22.14794945
7802 1 47.80715706 30.28529505 19.81658635
7803 1 50.27994105 30.28529505 19.81658635
7804 1 49.45567972 30.28529505 17.48522325
7805 1 51.92846371 30.28529505 17.48522325
7806 1 51.10420238 30.28529505 15.15386015
7807 1 53.57698636 30.28529505 15.15386015
7808 1 52.75272504 30.28529505 12.82249705
7809 1 55.22550902 30.28529505 12.82249705
7810 1 54.40124769 30.28529505 10.49113395
7811 1 56.87403168 30.28529505 10.49113395
7812 1 56.04977035 30.28529505 8.15977085
7813 1 58.52255434 30.28529505 8.15977085
7814 1 57.69829301 30.28529505 5.82840775
7815 1 60.17107699 30.28529505 5.82840775
7816 1 59.34681567 30.28529505 3.49704465
7817 1 61.81959965 30.28529505 3.49704465
7818 1 60.99533832 30.28529505 1.16568155
7819 1 63.46812231 30.28529505 1.16568155
7820 1 31.32193049 28.26627538 46.62726200
7821 1 33.79471448 28.26627538 46.62726200
7822 1 32.97045315 28.26627538 44.29589890
7823 1 35.44323713 28.26627538 44.29589890
7824 1 34.61897580 28.26627538 41.96453580
7825 1 37.09175979 28.26627538 41.96453580
7826 1 36.26749846 28.26627538 39.63317270
7827 1 38.74028245 28.26627538 39.63317270
7828 1 37.91602112 28.26627538 37.30180960
7829 1 40.38880511 28.26627538 37.30180960
7830 1 39.56454378 28.26627538 34.97044650
7831 1 42.03732776 28.26627538 34.97044650
7832 1 41.21306643 28.26627538 32.63908340
7833 1 43.68585042 28.26627538 32.63908340
7834 1 42.86158909 28.26627538 30.30772030
7835 1 45.33437308 28.26627538 30.30772030
7836 1 44.51011175 28.26627538 27.97635720
7837 1 46.98289574 28.26627538 27.97635720
7838 1 46.15863441 28.26627538 25.64499410
7839 1 48.63141839 28.26627538 25.64499410
7840 1 47.80715706 28.26627538 23.31363100
7841 1 50.27994105 28.26627538 23.31363100
7842 1 49.45567972 28.26627538 20.98226790
7843 1 51.92846371 28.26627538 20.98226790
7844 1 51.10420238 28.26627538 18.65090480
7845 1 53.57698636 28.26627538 18.65090480
7846 1 52.75272504 28.26627538 16.31954170
7847 1 55.22550902 28.26627538 16.31954170
7848 1 54.40124769 28.26627538 13.98817860
7849 1 56.87403168 28.26627538 13.98817860
7850 1 56.04977035 28.26627538 11.65681550
7851 1 58.52255434 28.26627538 11.65681550
7852 1 57.69829301 28.26627538 9.32545240
7853 1 60.17107699 28.26627538 9.32545240
7854 1 59.34681567 28.26627538 6.99408930
7855 1 61.81959965 28.26627538 6.99408930
7856 1 60.99533832 28.26627538 4.66272620
7857 1 63.46812231 28.26627538 4.66272620
7858 1 62.64386098 28.26627538 2.33136310
7859 1 32.97045315 26.24725571 47.79294355
7860 1 35.44323713 26.24725571 47.79294355
7861 1 34.61897580 26.24725571 45.46158045
7862 1 37.09175979 26.24725571 45.46158045
7863 1 36.26749846 26.24725571 43.13021735
7864 1 38.74028245 26.24725571 43.13021735
7865 1 37.91602112 26.24725571 40.79885425
7866 1 40.38880511 26.24725571 40.79885425
7867 1 39.56454378 26.24725571 38.46749115
7868 1 42.03732776 26.24725571 38.46749115
7869 1 41.21306643 26.24725571 36.13612805
7870 1 43.68585042 26.24725571 36.13612805
7871 1 42.86158909 26.24725571 33.80476495
7872 1 45.33437308 26.24725571 33.80476495
7873 1 44.51011175 26.24725571 31.47340185
7874 1 46.98289574 26.24725571 31.47340185
7875 1 46.15863441 26.24725571 29.14203875
7876 1 48.63141839 26.24725571 29.14203875
7877 1 47.80715706 26.24725571 26.81067565
7878 1 50.27994105 26.24725571 26.81067565
7879 1 49.45567972 26.24725571 24.47931255
7880 1 51.92846371 26.24725571 24.47931255
7881 1 51.10420238 26.24725571 22.14794945
7882 1 53.57698636 26.24725571 22.14794945
7883 1 52.75272504 26.24725571 19.81658635
7884 1 55.22550902 26.24725571 19.81658635
7885 1 54.40124769 26.24725571 17.48522325
7886 1 56.87403168 26.24725571 17.48522325
7887 1 56.04977035 26.24725571 15.15386015
7888 1 58.52255434 26.24725571 15.15386015
7889 1 57.69829301 26.24725571 12.82249705
7890 1 60.17107699 26.24725571 12.82249705
7891 1 59.34681567 26.24725571 10.49113395
7892 1 61.81959965 26.24725571 10.49113395
7893 1 60.99533832 26.24725571 8.15977085
7894 1 63.46812231 26.24725571 8.15977085
7895 1 62.64386098 26.24725571 5.82840775
7896 1 36.26749846 24.22823604 46.62726200
7897 1 38.74028245 24.22823604 46.62726200
7898 1 37.91602112 24.22823604 44.29589890
7899 1 40.38880511 24.22823604 44.29589890
7900 1 39.56454378 24.22823604 41.96453580
7901 1 42.03732776 24.22823604 41.96453580
7902 1 41.21306643 24.22823604 39.63317270
7903 1 43.68585042 24.22823604 39.63317270
7904 1 42.86158909 24.22823604 37.30180960
7905 1 45.33437308 24.22823604 37.30180960
7906 1 44.51011175 24.22823604 34.97044650
7907 1 46.98289574 24.22823604 34.97044650
7908 1 46.15863441 24.22823604 32.63908340
7909 1 48.63141839 24.22823604 32.63908340
7910 1 47.80715706 24.22823604 30.30772030
7911 1 50.27994105 24.22823604 30.30772030
7912 1 49.45567972 24.22823604 27.97635720
7913 1 51.92846371 24.22823604 27.97635720
7914 1 51.10420238 24.22823604 25.64499410
7915 1 53.57698636 24.22823604 25.64499410
7916 1 52.75272504 24.22823604 23.31363100
7917 1 55.22550902 24.22823604 23.31363100
7918 1 54.40124769 24.22823604 20.98226790
7919 1 56.87403168 24.22823604 20.98226790
7920 1 56.04977035 24.22823604 18.65090480
7921 1 58.52255434 24.22823604 18.65090480
7922 1 57.69829301 24.22823604 16.31954170
7923 1 60.17107699 24.22823604 16.31954170
7924 1 59.34681567 24.22823604 13.98817860
7925 1 61.81959965 24.22823604 13.98817860
7926 1 60.99533832 24.22823604 11.65681550
7927 1 63.46812231 24.22823604 11.65681550
7928 1 62.64386098 24.22823604 9.32545240
7929 1 37.91602112 22.20921637 47.79294355
7930 1 40.38880511 22.20921637 47.79294355
7931 1 39.56454378 22.20921637 45.46158045
7932 1 42.03732776 22.20921637 45.46158045
7933 1 41.21306643 22.20921637 43.13021735
7934 1 43.68585042 22.20921637 43.13021735
7935 1 42.86158909 22.20921637 40.79885425
7936 1 45.33437308 22.20921637 40.79885425
7937 1 44.51011175 22.20921637 38.46749115
7938 1 46.98289574 22.20921637 38.46749115
7939 1 46.15863441 22.20921637 36.13612805
7940 1 48.63141839 22.20921637 36.13612805
7941 1 47.80715706 22.20921637 33.80476495
7942 1 50.27994105 22.20921637 33.80476495
7943 1 49.45567972 22.20921637 31.47340185
7944 1 51.92846371 22.20921637 31.47340185
7945 1 51.10420238 22.20921637 29.14203875
7946 1 53.57698636 22.20921637 29.14203875
7947 1 52.75272504 22.20921637 26.81067565
7948 1 55.22550902 22.20921637 26.81067565
7949 1 54.40124769 22.20921637 24.47931255
7950 1 56.87403168 22.20921637 24.47931255
7951 1 56.04977035 22.20921637 22.14794945
7952 1 58.52255434 22.20921637 22.14794945
7953 1 57.69829301 22.20921637 19.81658635
7954 1 60.17107699 22.20921637 19.81658635
7955 1 59.34681567 22.20921637 17.48522325
7956 1 61.81959965 22.20921637 17.48522325
7957 1 60.99533832 22.20921637 15.15386015
7958 1 63.46812231 22.20921637 15.15386015
7959 1 62.64386098 22.20921637 12.82249705
7960 1 41.21306643 20.19019670 46.62726200
7961 1 43.68585042 20.19019670 46.62726200
7962 1 42.86158909 20.19019670 44.29589890
7963 1 45.33437308 20.19019670 44.29589890
7964 1 44.51011175 20.19019670 41.96453580
7965 1 46.98289574 20.19019670 41.96453580
7966 1 46.15863441 20.19019670 39.63317270
7967 1 48.63141839 20.19019670 39.63317270
7968 1 47.80715706 20.19019670 37.30180960
7969 1 50.27994105 20.19019670 37.30180960
7970 1 49.45567972 20.19019670 34.97044650
7971 1 51.92846371 20.19019670 34.97044650
7972 1 51.10420238 20.19019670 32.63908340
7973 1 53.57698636 20.19019670 32.63908340
7974 1 52.75272504 20.19019670 30.30772030
7975 1 55.22550902 20.19019670 30.30772030
7976 1 54.40124769 20.19019670 27.97635720
7977 1 56.87403168 20.19019670 27.97635720
7978 1 56.04977035 20.19019670 25.64499410
7979 1 58.52255434 20.19019670 25.64499410
7980 1 57.69829301 20.19019670 23.31363100
7981 1 60.17107699 20.19019670 23.31363100
7982 1 59.34681567 20.19019670 20.98226790
7983 1 61.81959965 20.19019670 20.98226790
7984 1 60.99533832 20.19019670 18.65090480
7985 1 63.46812231 20.19019670 18.65090480
7986 1 62.64386098 20.19019670 16.31954170
7987 1 42.86158909 18.17117703 47.79294355
7988 1 45.33437308 18.17117703 47.79294355
7989 1 44.51011175 18.17117703 45.46158045
7990 1 46.98289574 18.17117703 45.46158045
7991 1 46.15863441 18.17117703 43.13021735
7992 1 48.63141839 18.17117703 43.13021735
7993 1 47.80715706 18.17117703 40.79885425
7994 1 50.27994105 18.17117703 40.79885425
7995 1 49.45567972 18.17117703 38.46749115
7996 1 51.92846371 18.17117703 38.46749115
7997 1 51.10420238 18.17117703 36.13612805
7998 1 53.57698636 18.17117703 36.13612805
7999 1 52.75272504 18.17117703 33.80476495
8000 1 55.22550902 18.17117703 33.80476495
8001 1 54.40124769 18.17117703 31.47340185
8002 1 56.87403168 18.17117703 31.47340185
8003 1 56.04977035 18.17117703 29.14203875
8004 1 58.52255434 18.17117703 29.14203875
8005 1 57.69829301 18.17117703 26.81067565
8006 1 60.17107699 18.17117703 26.81067565
8007 1 59.34681567 18.17117703 24.47931255
8008 1 61.81959965 18.17117703 24.47931255
8009 1 60.99533832 18.17117703 22.14794945
8010 1 63.46812231 18.17117703 22.14794945
8011 1 62.64386098 18.17117703 19.81658635
8012 1 46.15863441 16.15215736 46.62726200
8013 1 48.63141839 16.15215736 46.62726200
8014 1 47.80715706 16.15215736 44.29589890
8015 1 50.27994105 16.15215736 44.29589890
8016 1 49.45567972 16.15215736 41.96453580
8017 1 51.92846371 16.15215736 41.96453580
8018 1 51.10420238 16.15215736 39.63317270
8019 1 53.57698636 16.15215736 39.63317270
8020 1 52.75272504 16.15215736 37.30180960
8021 1 55.22550902 16.15215736 37.30180960
8022 1 54.40124769 16.15215736 34.97044650
8023 1 56.87403168 16.15215736 34.97044650
8024 1 56.04977035 16.15215736 32.63908340
8025 1 58.52255434 16.15215736 32.63908340
8026 1 57.69829301 16.15215736 30.30772030
8027 1 60.17107699 16.15215736 30.30772030
8028 1 59.34681567 16.15215736 27.97635720
8029 1 61.81959965 16.15215736 27.97635720
8030 1 60.99533832 16.15215736 25.64499410
8031 1 63.46812231 16.15215736 25.64499410
8032 1 62.64386098 16.15215736 23.31363100
8033 1 47.80715706 14.13313769 47.79294355
8034 1 50.27994105 14.13313769 47.79294355
8035 1 49.45567972 14.13313769 45.46158045
8036 1 51.92846371 14.13313769 45.46158045
8037 1 51.10420238 14.13313769 43.13021735
8038 1 53.57698636 14.13313769 43.13021735
8039 1 52.75272504 14.13313769 40.79885425
8040 1 55.22550902 14.13313769 40.79885425
8041 1 54.40124769 14.13313769 38.46749115
8042 1 56.87403168 14.13313769 38.46749115
8043 1 56.04977035 14.13313769 36.13612805
8044 1 58.52255434 14.13313769 36.13612805
8045 1 57.69829301 14.13313769 33.80476495
8046 1 60.17107699 14.13313769 33.80476495
8047 1 59.34681567 14.13313769 31.47340185
8048 1 61.81959965 14.13313769 31.47340185
8049 1 60.99533832 14.13313769 29.14203875
8050 1 63.46812231 14.13313769 29.14203875
8051 1 62.64386098 14.13313769 26.81067565
8052 1 51.10420238 12.11411802 46.62726200
8053 1 53.57698636 12.11411802 46.62726200
8054 1 52.75272504 12.11411802 44.29589890
8055 1 55.22550902 12.11411802 44.29589890
8056 1 54.40124769 12.11411802 41.96453580
8057 1 56.87403168 12.11411802 41.96453580
8058 1 56.04977035 12.11411802 39.63317270
8059 1 58.52255434 12.11411802 39.63317270
8060 1 57.69829301 12.11411802 37.30180960
8061 1 60.17107699 12.11411802 37.30180960
8062 1 59.34681567 12.11411802 34.97044650
8063 1 61.81959965 12.11411802 34.97044650
8064 1 60.99533832 12.11411802 32.63908340
8065 1 63.46812231 12.11411802 32.63908340
8066 1 62.64386098 12.11411802 30.30772030
8067 1 52.75272504 10.09509835 47.79294355
8068 1 55.22550902 10.09509835 47.79294355
8069 1 54.40124769 10.09509835 45.46158045
8070 1 56.87403168 10.09509835 45.46158045
8071 1 56.04977035 10.09509835 43.13021735
8072 1 58.52255434 10.09509835 43.13021735
8073 1 57.69829301 10.09509835 40.79885425
8074 1 60.17107699 10.09509835 40.79885425
8075 1 59.34681567 10.09509835 38.46749115
8076 1 61.81959965 10.09509835 38.46749115
8077 1 60.99533832 10.09509835 36.13612805
8078 1 63.46812231 10.09509835 36.13612805
8079 1 62.64386098 10.09509835 33.80476495
8080 1 56.04977035 8.07607868 46.62726200
8081 1 58.52255434 8.07607868 46.62726200
8082 1 57.69829301 8.07607868 44.29589890
8083 1 60.17107699 8.07607868 44.29589890
8084 1 59.34681567 8.07607868 41.96453580
8085 1 61.81959965 8.07607868 41.96453580
8086 1 60.99533832 8.07607868 39.63317270
8087 1 63.46812231 8.07607868 39.63317270
8088 1 62.64386098 8.07607868 37.30180960
8089 1 57.69829301 6.05705901 47.79294355
8090 1 60.17107699 6.05705901 47.79294355
8091 1 59.34681567 6.05705901 45.46158045
8092 1 61.81959965 6.05705901 45.46158045
8093 1 60.99533832 6.05705901 43.13021735
8094 1 63.46812231 6.05705901 43.13021735
8095 1 62.64386098 6.05705901 40.79885425
8096 1 60.99533832 4.03803934 46.62726200
8097 1 63.46812231 4.03803934 46.62726200
8098 1 62.64386098 4.03803934 44.29589890
8099 1 62.64386098 2.01901967 47.79294355
8100 1 32.97045315 30.28529505 47.79294355
8101 1 35.44323713 30.28529505 47.79294355
8102 1 34.61897580 30.28529505 45.46158045
8103 1 37.09175979 30.28529505 45.46158045
8104 1 36.26749846 30.28529505 43.13021735
8105 1 38.74028245 30.28529505 43.13021735
8106 1 37.91602112 30.28529505 40.79885425
8107 1 40.38880511 30.28529505 40.79885425
8108 1 39.56454378 30.28529505 38.46749115
8109 1 42.03732776 30.28529505 38.46749115
8110 1 41.21306643 30.28529505 36.13612805
8111 1 43.68585042 30.28529505 36.13612805
8112 1 42.86158909 30.28529505 33.80476495
8113 1 45.33437308 30.28529505 33.80476495
8114 1 44.51011175 30.28529505 31.47340185
8115 1 46.98289574 30.28529505 31.47340185
8116 1 46.15863441 30.28529505 29.14203875
8117 1 48.63141839 30.28529505 29.14203875
8118 1 47.80715706 30.28529505 26.81067565
8119 1 50.27994105 30.28529505 26.81067565
8120 1 49.45567972 30.28529505 24.47931255
8121 1 51.92846371 30.28529505 24.47931255
8122 1 51.10420238 30.28529505 22.14794945
8123 1 53.57698636 30.28529505 22.14794945
8124 1 52.75272504 30.28529505 19.81658635
8125 1 55.22550902 30.28529505 19.81658635
8126 1 54.40124769 30.28529505 17.48522325
8127 1 56.87403168 30.28529505 17.48522325
8128 1 56.04977035 30.28529505 15.15386015
8129 1 58.52255434 30.28529505 15.15386015
8130 1 57.69829301 30.28529505 12.82249705
8131 1 60.17107699 30.28529505 12.82249705
8132 1 59.34681567 30.28529505 10.49113395
8133 1 61.81959965 30.28529505 10.49113395
8134 1 60.99533832 30.28529505 8.15977085
8135 1 63.46812231 30.28529505 8.15977085
8136 1 62.64386098 30.28529505 5.82840775
8137 1 36.26749846 28.26627538 46.62726200
8138 1 38.74028245 28.26627538 46.62726200
8139 1 37.91602112 28.26627538 44.29589890
8140 1 40.38880511 28.26627538 44.29589890
8141 1 39.56454378 28.26627538 41.96453580
8142 1 42.03732776 28.26627538 41.96453580
8143 1 41.21306643 28.26627538 39.63317270
8144 1 43.68585042 28.26627538 39.63317270
8145 1 42.86158909 28.26627538 37.30180960
8146 1 45.33437308 28.26627538 37.30180960
8147 1 44.51011175 28.26627538 34.97044650
8148 1 46.98289574 28.26627538 34.97044650
8149 1 46.15863441 28.26627538 32.63908340
8150 1 48.63141839 28.26627538 32.63908340
8151 1 47.80715706 28.26627538 30.30772030
8152 1 50.27994105 28.26627538 30.30772030
8153 1 49.45567972 28.26627538 27.97635720
8154 1 51.92846371 28.26627538 27.97635720
8155 1 51.10420238 28.26627538 25.64499410
8156 1 53.57698636 28.26627538 25.64499410
8157 1 52.75272504 28.26627538 23.31363100
8158 1 55.22550902 28.26627538 23.31363100
8159 1 54.40124769 28.26627538 20.98226790
8160 1 56.87403168 28.26627538 20.98226790
8161 1 56.04977035 28.26627538 18.65090480
8162 1 58.52255434 28.26627538 18.65090480
8163 1 57.69829301 28.26627538 16.31954170
8164 1 60.17107699 28.26627538 16.31954170
8165 1 59.34681567 28.26627538 13.98817860
8166 1 61.81959965 28.26627538 13.98817860
8167 1 60.99533832 28.26627538 11.65681550
8168 1 63.46812231 28.26627538 11.65681550
8169 1 62.64386098 28.26627538 9.32545240
8170 1 37.91602112 26.24725571 47.79294355
8171 1 40.38880511 26.24725571 47.79294355
8172 1 39.56454378 26.24725571 45.46158045
8173 1 42.03732776 26.24725571 45.46158045
8174 1 41.21306643 26.24725571 43.13021735
8175 1 43.68585042 26.24725571 43.13021735
8176 1 42.86158909 26.24725571 40.79885425
8177 1 45.33437308 26.24725571 40.79885425
8178 1 44.51011175 26.24725571 38.46749115
8179 1 46.98289574 26.24725571 38.46749115
8180 1 46.15863441 26.24725571 36.13612805
8181 1 48.63141839 26.24725571 36.13612805
8182 1 47.80715706 26.24725571 33.80476495
8183 1 50.27994105 26.24725571 33.80476495
8184 1 49.45567972 26.24725571 31.47340185
8185 1 51.92846371 26.24725571 31.47340185
8186 1 51.10420238 26.24725571 29.14203875
8187 1 53.57698636 26.24725571 29.14203875
8188 1 52.75272504 26.24725571 26.81067565
8189 1 55.22550902 26.24725571 26.81067565
8190 1 54.40124769 26.24725571 24.47931255
8191 1 56.87403168 26.24725571 24.47931255
8192 1 56.04977035 26.24725571 22.14794945
8193 1 58.52255434 26.24725571 22.14794945
8194 1 57.69829301 26.24725571 19.81658635
8195 1 60.17107699 26.24725571 19.81658635
8196 1 59.34681567 26.24725571 17.48522325
8197 1 61.81959965 26.24725571 17.48522325
8198 1 60.99533832 26.24725571 15.15386015
8199 1 63.46812231 26.24725571 15.15386015
8200 1 62.64386098 26.24725571 12.82249705
8201 1 41.21306643 24.22823604 46.62726200
8202 1 43.68585042 24.22823604 46.62726200
8203 1 42.86158909 24.22823604 44.29589890
8204 1 45.33437308 24.22823604 44.29589890
8205 1 44.51011175 24.22823604 41.96453580
8206 1 46.98289574 24.22823604 41.96453580
8207 1 46.15863441 24.22823604 39.63317270
8208 1 48.63141839 24.22823604 39.63317270
8209 1 47.80715706 24.22823604 37.30180960
8210 1 50.27994105 24.22823604 37.30180960
8211 1 49.45567972 24.22823604 34.97044650
8212 1 51.92846371 24.22823604 34.97044650
8213 1 51.10420238 24.22823604 32.63908340
8214 1 53.57698636 24.22823604 32.63908340
8215 1 52.75272504 24.22823604 30.30772030
8216 1 55.22550902 24.22823604 30.30772030
8217 1 54.40124769 24.22823604 27.97635720
8218 1 56.87403168 24.22823604 27.97635720
8219 1 56.04977035 24.22823604 25.64499410
8220 1 58.52255434 24.22823604 25.64499410
8221 1 57.69829301 24.22823604 23.31363100
8222 1 60.17107699 24.22823604 23.31363100
8223 1 59.34681567 24.22823604 20.98226790
8224 1 61.81959965 24.22823604 20.98226790
8225 1 60.99533832 24.22823604 18.65090480
8226 1 63.46812231 24.22823604 18.65090480
8227 1 62.64386098 24.22823604 16.31954170
8228 1 42.86158909 22.20921637 47.79294355
8229 1 45.33437308 22.20921637 47.79294355
8230 1 44.51011175 22.20921637 45.46158045
8231 1 46.98289574 22.20921637 45.46158045
8232 1 46.15863441 22.20921637 43.13021735
8233 1 48.63141839 22.20921637 43.13021735
8234 1 47.80715706 22.20921637 40.79885425
8235 1 50.27994105 22.20921637 40.79885425
8236 1 49.45567972 22.20921637 38.46749115
8237 1 51.92846371 22.20921637 38.46749115
8238 1 51.10420238 22.20921637 36.13612805
8239 1 53.57698636 22.20921637 36.13612805
8240 1 52.75272504 22.20921637 33.80476495
8241 1 55.22550902 22.20921637 33.80476495
8242 1 54.40124769 22.20921637 31.47340185
8243 1 56.87403168 22.20921637 31.47340185
8244 1 56.04977035 22.20921637 29.14203875
8245 1 58.52255434 22.20921637 29.14203875
8246 1 57.69829301 22.20921637 26.81067565
8247 1 60.17107699 22.20921637 26.81067565
8248 1 59.34681567 22.20921637 24.47931255
8249 1 61.81959965 22.20921637 24.47931255
8250 1 60.99533832 22.20921637 22.14794945
8251 1 63.46812231 22.20921637 22.14794945
8252 1 62.64386098 22.20921637 19.81658635
8253 1 46.15863441 20.19019670 46.62726200
8254 1 48.63141839 20.19019670 46.62726200
8255 1 47.80715706 20.19019670 44.29589890
8256 1 50.27994105 20.19019670 44.29589890
8257 1 49.45567972 20.19019670 41.96453580
8258 1 51.92846371 20.19019670 41.96453580
8259 1 51.10420238 20.19019670 39.63317270
8260 1 53.57698636 20.19019670 39.63317270
8261 1 52.75272504 20.19019670 37.30180960
8262 1 55.22550902 20.19019670 37.30180960
8263 1 54.40124769 20.19019670 34.97044650
8264 1 56.87403168 20.19019670 34.97044650
8265 1 56.04977035 20.19019670 32.63908340
8266 1 58.52255434 20.19019670 32.63908340
8267 1 57.69829301 20.19019670 30.30772030
8268 1 60.17107699 20.19019670 30.30772030
8269 1 59.34681567 20.19019670 27.97635720
8270 1 61.81959965 20.19019670 27.97635720
8271 1 60.99533832 20.19019670 25.64499410
8272 1 63.46812231 20.19019670 25.64499410
8273 1 62.64386098 20.19019670 23.31363100
8274 1 47.80715706 18.17117703 47.79294355
8275 1 50.27994105 18.17117703 47.79294355
8276 1 49.45567972 18.17117703 45.46158045
8277 1 51.92846371 18.17117703 45.46158045
8278 1 51.10420238 18.17117703 43.13021735
8279 1 53.57698636 18.17117703 43.13021735
8280 1 52.75272504 18.17117703 40.79885425
8281 1 55.22550902 18.17117703 40.79885425
8282 1 54.40124769 18.17117703 38.46749115
8283 1 56.87403168 18.17117703 38.46749115
8284 1 56.04977035 18.17117703 36.13612805
8285 1 58.52255434 18.17117703 36.13612805
8286 1 57.69829301 18.17117703 33.80476495
8287 1 60.17107699 18.17117703 33.80476495
8288 1 59.34681567 18.17117703 31.47340185
8289 1 61.81959965 18.17117703 31.47340185
8290 1 60.99533832 18.17117703 29.14203875
8291 1 63.46812231 18.17117703 29.14203875
8292 1 62.64386098 18.17117703 26.81067565
8293 1 51.10420238 16.15215736 46.62726200
8294 1 53.57698636 16.15215736 46.62726200
8295 1 52.75272504 16.15215736 44.29589890
8296 1 55.22550902 16.15215736 44.29589890
8297 1 54.40124769 16.15215736 41.96453580
8298 1 56.87403168 16.15215736 41.96453580
8299 1 56.04977035 16.15215736 39.63317270
8300 1 58.52255434 16.15215736 39.63317270
8301 1 57.69829301 16.15215736 37.30180960
8302 1 60.17107699 16.15215736 37.30180960
8303 1 59.34681567 16.15215736 34.97044650
8304 1 61.81959965 16.15215736 34.97044650
8305 1 60.99533832 16.15215736 32.63908340
8306 1 63.46812231 16.15215736 32.63908340
8307 1 62.64386098 16.15215736 30.30772030
8308 1 52.75272504 14.13313769 47.79294355
8309 1 55.22550902 14.13313769 47.79294355
8310 1 54.40124769 14.13313769 45.46158045
8311 1 56.87403168 14.13313769 45.46158045
8312 1 56.04977035 14.13313769 43.13021735
8313 1 58.52255434 14.13313769 43.13021735
8314 1 57.69829301 14.13313769 40.79885425
8315 1 60.17107699 14.13313769 40.79885425
8316 1 59.34681567 14.13313769 38.46749115
8317 1 61.81959965 14.13313769 38.46749115
8318 1 60.99533832 14.13313769 36.13612805
8319 1 63.46812231 14.13313769 36.13612805
8320 1 62.64386098 14.13313769 33.80476495
8321 1 56.04977035 12.11411802 46.62726200
8322 1 58.52255434 12.11411802 46.62726200
8323 1 57.69829301 12.11411802 44.29589890
8324 1 60.17107699 12.11411802 44.29589890
8325 1 59.34681567 12.11411802 41.96453580
8326 1 61.81959965 12.11411802 41.96453580
8327 1 60.99533832 12.11411802 39.63317270
8328 1 63.46812231 12.11411802 39.63317270
8329 1 62.64386098 12.11411802 37.30180960
8330 1 57.69829301 10.09509835 47.79294355
8331 1 60.17107699 10.09509835 47.79294355
8332 1 59.34681567 10.09509835 45.46158045
8333 1 61.81959965 10.09509835 45.46158045
8334 1 60.99533832 10.09509835 43.13021735
8335 1 63.46812231 10.09509835 43.13021735
8336 1 62.64386098 10.09509835 40.79885425
8337 1 60.99533832 8.07607868 46.62726200
8338 1 63.46812231 8.07607868 46.62726200
8339 1 62.64386098 8.07607868 44.29589890
8340 1 62.64386098 6.05705901 47.79294355
8341 1 37.91602112 30.28529505 47.79294355
8342 1 40.38880511 30.28529505 47.79294355
8343 1 39.56454378 30.28529505 45.46158045
8344 1 42.03732776 30.28529505 45.46158045
8345 1 41.21306643 30.28529505 43.13021735
8346 1 43.68585042 30.28529505 43.13021735
8347 1 42.86158909 30.28529505 40.79885425
8348 1 45.33437308 30.28529505 40.79885425
8349 1 44.51011175 30.28529505 38.46749115
8350 1 46.98289574 30.28529505 38.46749115
8351 1 46.15863441 30.28529505 36.13612805
8352 1 48.63141839 30.28529505 36.13612805
8353 1 47.80715706 30.28529505 33.80476495
8354 1 50.27994105 30.28529505 33.80476495
8355 1 49.45567972 30.28529505 31.47340185
8356 1 51.92846371 30.28529505 31.47340185
8357 1 51.10420238 30.28529505 29.14203875
8358 1 53.57698636 30.28529505 29.14203875
8359 1 52.75272504 30.28529505 26.81067565
8360 1 55.22550902 30.28529505 26.81067565
8361 1 54.40124769 30.28529505 24.47931255
8362 1 56.87403168 30.28529505 24.47931255
8363 1 56.04977035 30.28529505 22.14794945
8364 1 58.52255434 30.28529505 22.14794945
8365 1 57.69829301 30.28529505 19.81658635
8366 1 60.17107699 30.28529505 19.81658635
8367 1 59.34681567 30.28529505 17.48522325
8368 1 61.81959965 30.28529505 17.48522325
8369 1 60.99533832 30.28529505 15.15386015
8370 1 63.46812231 30.28529505 15.15386015
8371 1 62.64386098 30.28529505 12.82249705
8372 1 41.21306643 28.26627538 46.62726200
8373 1 43.68585042 28.26627538 46.62726200
8374 1 42.86158909 28.26627538 44.29589890
8375 1 45.33437308 28.26627538 44.29589890
8376 1 44.51011175 28.26627538 41.96453580
8377 1 46.98289574 28.26627538 41.96453580
8378 1 46.15863441 28.26627538 39.63317270
8379 1 48.63141839 28.26627538 39.63317270
8380 1 47.80715706 28.26627538 37.30180960
8381 1 50.27994105 28.26627538 37.30180960
8382 1 49.45567972 28.26627538 34.97044650
8383 1 51.92846371 28.26627538 34.97044650
8384 1 51.10420238 28.26627538 32.63908340
8385 1 53.57698636 28.26627538 32.63908340
8386 1 52.75272504 28.26627538 30.30772030
8387 1 55.22550902 28.26627538 30.30772030
8388 1 54.40124769 28.26627538 27.97635720
8389 1 56.87403168 28.26627538 27.97635720
8390 1 56.04977035 28.26627538 25.64499410
8391 1 58.52255434 28.26627538 25.64499410
8392 1 57.69829301 28.26627538 23.31363100
8393 1 60.17107699 28.26627538 23.31363100
8394 1 59.34681567 28.26627538 20.98226790
8395 1 61.81959965 28.26627538 20.98226790
8396 1 60.99533832 28.26627538 18.65090480
8397 1 63.46812231 28.26627538 18.65090480
8398 1 62.64386098 28.26627538 16.31954170
8399 1 42.86158909 26.24725571 47.79294355
8400 1 45.33437308 26.24725571 47.79294355
8401 1 44.51011175 26.24725571 45.46158045
8402 1 46.98289574 26.24725571 45.46158045
8403 1 46.15863441 26.24725571 43.13021735
8404 1 48.63141839 26.24725571 43.13021735
8405 1 47.80715706 26.24725571 40.79885425
8406 1 50.27994105 26.24725571 40.79885425
8407 1 49.45567972 26.24725571 38.46749115
8408 1 51.92846371 26.24725571 38.46749115
8409 1 51.10420238 26.24725571 36.13612805
8410 1 53.57698636 26.24725571 36.13612805
8411 1 52.75272504 26.24725571 33.80476495
8412 1 55.22550902 26.24725571 33.80476495
8413 1 54.40124769 26.24725571 31.47340185
8414 1 56.87403168 26.24725571 31.47340185
8415 1 56.04977035 26.24725571 29.14203875
8416 1 58.52255434 26.24725571 29.14203875
8417 1 57.69829301 26.24725571 26.81067565
8418 1 60.17107699 26.24725571 26.81067565
8419 1 59.34681567 26.24725571 24.47931255
8420 1 61.81959965 26.24725571 24.47931255
8421 1 60.99533832 26.24725571 22.14794945
8422 1 63.46812231 26.24725571 22.14794945
8423 1 62.64386098 26.24725571 19.81658635
8424 1 46.15863441 24.22823604 46.62726200
8425 1 48.63141839 24.22823604 46.62726200
8426 1 47.80715706 24.22823604 44.29589890
8427 1 50.27994105 24.22823604 44.29589890
8428 1 49.45567972 24.22823604 41.96453580
8429 1 51.92846371 24.22823604 41.96453580
8430 1 51.10420238 24.22823604 39.63317270
8431 1 53.57698636 24.22823604 39.63317270
8432 1 52.75272504 24.22823604 37.30180960
8433 1 55.22550902 24.22823604 37.30180960
8434 1 54.40124769 24.22823604 34.97044650
8435 1 56.87403168 24.22823604 34.97044650
8436 1 56.04977035 24.22823604 32.63908340
8437 1 58.52255434 24.22823604 32.63908340
8438 1 57.69829301 24.22823604 30.30772030
8439 1 60.17107699 24.22823604 30.30772030
8440 1 59.34681567 24.22823604 27.97635720
8441 1 61.81959965 24.22823604 27.97635720
8442 1 60.99533832 24.22823604 25.64499410
8443 1 63.46812231 24.22823604 25.64499410
8444 1 62.64386098 24.22823604 23.31363100
8445 1 47.80715706 22.20921637 47.79294355
8446 1 50.27994105 22.20921637 47.79294355
8447 1 49.45567972 22.20921637 45.46158045
8448 1 51.92846371 22.20921637 45.46158045
8449 1 51.10420238 22.20921637 43.13021735
8450 1 53.57698636 22.20921637 43.13021735
8451 1 52.75272504 22.20921637 40.79885425
8452 1 55.22550902 22.20921637 40.79885425
8453 1 54.40124769 22.20921637 38.46749115
8454 1 56.87403168 22.20921637 38.46749115
8455 1 56.04977035 22.20921637 36.13612805
8456 1 58.52255434 22.20921637 36.13612805
8457 1 57.69829301 22.20921637 33.80476495
8458 1 60.17107699 22.20921637 33.80476495
8459 1 59.34681567 22.20921637 31.47340185
8460 1 61.81959965 22.20921637 31.47340185
8461 1 60.99533832 22.20921637 29.14203875
8462 1 63.46812231 22.20921637 29.14203875
8463 1 62.64386098 22.20921637 26.81067565
8464 1 51.10420238 20.19019670 46.62726200
8465 1 53.57698636 20.19019670 46.62726200
8466 1 52.75272504 20.19019670 44.29589890
8467 1 55.22550902 20.19019670 44.29589890
8468 1 54.40124769 20.19019670 41.96453580
8469 1 56.87403168 20.19019670 41.96453580
8470 1 56.04977035 20.19019670 39.63317270
8471 1 58.52255434 20.19019670 39.63317270
8472 1 57.69829301 20.19019670 37.30180960
8473 1 60.17107699 20.19019670 37.30180960
8474 1 59.34681567 20.19019670 34.97044650
8475 1 61.81959965 20.19019670 34.97044650
8476 1 60.99533832 20.19019670 32.63908340
8477 1 63.46812231 20.19019670 32.63908340
8478 1 62.64386098 20.19019670 30.30772030
8479 1 52.75272504 18.17117703 47.79294355
8480 1 55.22550902 18.17117703 47.79294355
8481 1 54.40124769 18.17117703 45.46158045
8482 1 56.87403168 18.17117703 45.46158045
8483 1 56.04977035 18.17117703 43.13021735
8484 1 58.52255434 18.17117703 43.13021735
8485 1 57.69829301 18.17117703 40.79885425
8486 1 60.17107699 18.17117703 40.79885425
8487 1 59.34681567 18.17117703 38.46749115
8488 1 61.81959965 18.17117703 38.46749115
8489 1 60.99533832 18.17117703 36.13612805
8490 1 63.46812231 18.17117703 36.13612805
8491 1 62.64386098 18.17117703 33.80476495
8492 1 56.04977035 16.15215736 46.62726200
8493 1 58.52255434 16.15215736 46.62726200
8494 1 57.69829301 16.15215736 44.29589890
8495 1 60.17107699 16.15215736 44.29589890
8496 1 59.34681567 16.15215736 41.96453580
8497 1 61.81959965 16.15215736 41.96453580
8498 1 60.99533832 16.15215736 39.63317270
8499 1 63.46812231 16.15215736 39.63317270
8500 1 62.64386098 16.15215736 37.30180960
8501 1 57.69829301 14.13313769 47.79294355
8502 1 60.17107699 14.13313769 47.79294355
8503 1 59.34681567 14.13313769 45.46158045
8504 1 61.81959965 14.13313769 45.46158045
8505 1 60.99533832 14.13313769 43.13021735
8506 1 63.46812231 14.13313769 43.13021735
8507 1 62.64386098 14.13313769 40.79885425
8508 1 60.99533832 12.11411802 46.62726200
8509 1 63.46812231 12.11411802 46.62726200
8510 1 62.64386098 12.11411802 44.29589890
8511 1 62.64386098 10.09509835 47.79294355
8512 1 42.86158909 30.28529505 47.79294355
8513 1 45.33437308 30.28529505 47.79294355
8514 1 44.51011175 30.28529505 45.46158045
8515 1 46.98289574 30.28529505 45.46158045
8516 1 46.15863441 30.28529505 43.13021735
8517 1 48.63141839 30.28529505 43.13021735
8518 1 47.80715706 30.28529505 40.79885425
8519 1 50.27994105 30.28529505 40.79885425
8520 1 49.45567972 30.28529505 38.46749115
8521 1 51.92846371 30.28529505 38.46749115
8522 1 51.10420238 30.28529505 36.13612805
8523 1 53.57698636 30.28529505 36.13612805
8524 1 52.75272504 30.28529505 33.80476495
8525 1 55.22550902 30.28529505 33.80476495
8526 1 54.40124769 30.28529505 31.47340185
8527 1 56.87403168 30.28529505 31.47340185
8528 1 56.04977035 30.28529505 29.14203875
8529 1 58.52255434 30.28529505 29.14203875
8530 1 57.69829301 30.28529505 26.81067565
8531 1 60.17107699 30.28529505 26.81067565
8532 1 59.34681567 30.28529505 24.47931255
8533 1 61.81959965 30.28529505 24.47931255
8534 1 60.99533832 30.28529505 22.14794945
8535 1 63.46812231 30.28529505 22.14794945
8536 1 62.64386098 30.28529505 19.81658635
8537 1 46.15863441 28.26627538 46.62726200
8538 1 48.63141839 28.26627538 46.62726200
8539 1 47.80715706 28.26627538 44.29589890
8540 1 50.27994105 28.26627538 44.29589890
8541 1 49.45567972 28.26627538 41.96453580
8542 1 51.92846371 28.26627538 41.96453580
8543 1 51.10420238 28.26627538 39.63317270
8544 1 53.57698636 28.26627538 39.63317270
8545 1 52.75272504 28.26627538 37.30180960
8546 1 55.22550902 28.26627538 37.30180960
8547 1 54.40124769 28.26627538 34.97044650
8548 1 56.87403168 28.26627538 34.97044650
8549 1 56.04977035 28.26627538 32.63908340
8550 1 58.52255434 28.26627538 32.63908340
8551 1 57.69829301 28.26627538 30.30772030
8552 1 60.17107699 28.26627538 30.30772030
8553 1 59.34681567 28.26627538 27.97635720
8554 1 61.81959965 28.26627538 27.97635720
8555 1 60.99533832 28.26627538 25.64499410
8556 1 63.46812231 28.26627538 25.64499410
8557 1 62.64386098 28.26627538 23.31363100
8558 1 47.80715706 26.24725571 47.79294355
8559 1 50.27994105 26.24725571 47.79294355
8560 1 49.45567972 26.24725571 45.46158045
8561 1 51.92846371 26.24725571 45.46158045
8562 1 51.10420238 26.24725571 43.13021735
8563 1 53.57698636 26.24725571 43.13021735
8564 1 52.75272504 26.24725571 40.79885425
8565 1 55.22550902 26.24725571 40.79885425
8566 1 54.40124769 26.24725571 38.46749115
8567 1 56.87403168 26.24725571 38.46749115
8568 1 56.04977035 26.24725571 36.13612805
8569 1 58.52255434 26.24725571 36.13612805
8570 1 57.69829301 26.24725571 33.80476495
8571 1 60.17107699 26.24725571 33.80476495
8572 1 59.34681567 26.24725571 31.47340185
8573 1 61.81959965 26.24725571 31.47340185
8574 1 60.99533832 26.24725571 29.14203875
8575 1 63.46812231 26.24725571 29.14203875
8576 1 62.64386098 26.24725571 26.81067565
8577 1 51.10420238 24.22823604 46.62726200
8578 1 53.57698636 24.22823604 46.62726200
8579 1 52.75272504 24.22823604 44.29589890
8580 1 55.22550902 24.22823604 44.29589890
8581 1 54.40124769 24.22823604 41.96453580
8582 1 56.87403168 24.22823604 41.96453580
8583 1 56.04977035 24.22823604 39.63317270
8584 1 58.52255434 24.22823604 39.63317270
8585 1 57.69829301 24.22823604 37.30180960
8586 1 60.17107699 24.22823604 37.30180960
8587 1 59.34681567 24.22823604 34.97044650
8588 1 61.81959965 24.22823604 34.97044650
8589 1 60.99533832 24.22823604 32.63908340
8590 1 63.46812231 24.22823604 32.63908340
8591 1 62.64386098 24.22823604 30.30772030
8592 1 52.75272504 22.20921637 47.79294355
8593 1 55.22550902 22.20921637 47.79294355
8594 1 54.40124769 22.20921637 45.46158045
8595 1 56.87403168 22.20921637 45.46158045
8596 1 56.04977035 22.20921637 43.13021735
8597 1 58.52255434 22.20921637 43.13021735
8598 1 57.69829301 22.20921637 40.79885425
8599 1 60.17107699 22.20921637 40.79885425
8600 1 59.34681567 22.20921637 38.46749115
8601 1 61.81959965 22.20921637 38.46749115
8602 1 60.99533832 22.20921637 36.13612805
8603 1 63.46812231 22.20921637 36.13612805
8604 1 62.64386098 22.20921637 33.80476495
8605 1 56.04977035 20.19019670 46.62726200
8606 1 58.52255434 20.19019670 46.62726200
8607 1 57.69829301 20.19019670 44.29589890
8608 1 60.17107699 20.19019670 44.29589890
8609 1 59.34681567 20.19019670 41.96453580
8610 1 61.81959965 20.19019670 41.96453580
8611 1 60.99533832 20.19019670 39.63317270
8612 1 63.46812231 20.19019670 39.63317270
8613 1 62.64386098 20.19019670 37.30180960
8614 1 57.69829301 18.17117703 47.79294355
8615 1 60.17107699 18.17117703 47.79294355
8616 1 59.34681567 18.17117703 45.46158045
8617 1 61.81959965 18.17117703 45.46158045
8618 1 60.99533832 18.17117703 43.13021735
8619 1 63.46812231 18.17117703 43.13021735
8620 1 62.64386098 18.17117703 40.79885425
8621 1 60.99533832 16.15215736 46.62726200
8622 1 63.46812231 16.15215736 46.62726200
8623 1 62.64386098 16.15215736 44.29589890
8624 1 62.64386098 14.13313769 47.79294355
8625 1 47.80715706 30.28529505 47.79294355
8626 1 50.27994105 30.28529505 47.79294355
8627 1 49.45567972 30.28529505 45.46158045
8628 1 51.92846371 30.28529505 45.46158045
8629 1 51.10420238 30.28529505 43.13021735
8630 1 53.57698636 30.28529505 43.13021735
8631 1 52.75272504 30.28529505 40.79885425
8632 1 55.22550902 30.28529505 40.79885425
8633 1 54.40124769 30.28529505 38.46749115
8634 1 56.87403168 30.28529505 38.46749115
8635 1 56.04977035 30.28529505 36.13612805
8636 1 58.52255434 30.28529505 36.13612805
8637 1 57.69829301 30.28529505 33.80476495
8638 1 60.17107699 30.28529505 33.80476495
8639 1 59.34681567 30.28529505 31.47340185
8640 1 61.81959965 30.28529505 31.47340185
8641 1 60.99533832 30.28529505 29.14203875
8642 1 63.46812231 30.28529505 29.14203875
8643 1 62.64386098 30.28529505 26.81067565
8644 1 51.10420238 28.26627538 46.62726200
8645 1 53.57698636 28.26627538 46.62726200
8646 1 52.75272504 28.26627538 44.29589890
8647 1 55.22550902 28.26627538 44.29589890
8648 1 54.40124769 28.26627538 41.96453580
8649 1 56.87403168 28.26627538 41.96453580
8650 1 56.04977035 28.26627538 39.63317270
8651 1 58.52255434 28.26627538 39.63317270
8652 1 57.69829301 28.26627538 37.30180960
8653 1 60.17107699 28.26627538 37.30180960
8654 1 59.34681567 28.26627538 34.97044650
8655 1 61.81959965 28.26627538 34.97044650
8656 1 60.99533832 28.26627538 32.63908340
8657 1 63.46812231 28.26627538 32.63908340
8658 1 62.64386098 28.26627538 30.30772030
8659 1 52.75272504 26.24725571 47.79294355
8660 1 55.22550902 26.24725571 47.79294355
8661 1 54.40124769 26.24725571 45.46158045
8662 1 56.87403168 26.24725571 45.46158045
8663 1 56.04977035 26.24725571 43.13021735
8664 1 58.52255434 26.24725571 43.13021735
8665 1 57.69829301 26.24725571 40.79885425
8666 1 60.17107699 26.24725571 40.79885425
8667 1 59.34681567 26.24725571 38.46749115
8668 1 61.81959965 26.24725571 38.46749115
8669 1 60.99533832 26.24725571 36.13612805
8670 1 63.46812231 26.24725571 36.13612805
8671 1 62.64386098 26.24725571 33.80476495
8672 1 56.04977035 24.22823604 46.62726200
8673 1 58.52255434 24.22823604 46.62726200
8674 1 57.69829301 24.22823604 44.29589890
8675 1 60.17107699 24.22823604 44.29589890
8676 1 59.34681567 24.22823604 41.96453580
8677 1 61.81959965 24.22823604 41.96453580
8678 1 60.99533832 24.22823604 39.63317270
8679 1 63.46812231 24.22823604 39.63317270
8680 1 62.64386098 24.22823604 37.30180960
8681 1 57.69829301 22.20921637 47.79294355
8682 1 60.17107699 22.20921637 47.79294355
8683 1 59.34681567 22.20921637 45.46158045
8684 1 61.81959965 22.20921637 45.46158045
8685 1 60.99533832 22.20921637 43.13021735
8686 1 63.46812231 22.20921637 43.13021735
8687 1 62.64386098 22.20921637 40.79885425
8688 1 60.99533832 20.19019670 46.62726200
8689 1 63.46812231 20.19019670 46.62726200
8690 1 62.64386098 20.19019670 44.29589890
8691 1 62.64386098 18.17117703 47.79294355
8692 1 52.75272504 30.28529505 47.79294355
8693 1 55.22550902 30.28529505 47.79294355
8694 1 54.40124769 30.28529505 45.46158045
8695 1 56.87403168 30.28529505 45.46158045
8696 1 56.04977035 30.28529505 43.13021735
8697 1 58.52255434 30.28529505 43.13021735
8698 1 57.69829301 30.28529505 40.79885425
8699 1 60.17107699 30.28529505 40.79885425
8700 1 59.34681567 30.28529505 38.46749115
8701 1 61.81959965 30.28529505 38.46749115
8702 1 60.99533832 30.28529505 36.13612805
8703 1 63.46812231 30.28529505 36.13612805
8704 1 62.64386098 30.28529505 33.80476495
8705 1 56.04977035 28.26627538 46.62726200
8706 1 58.52255434 28.26627538 46.62726200
8707 1 57.69829301 28.26627538 44.29589890
8708 1 60.17107699 28.26627538 44.29589890
8709 1 59.34681567 28.26627538 41.96453580
8710 1 61.81959965 28.26627538 41.96453580
8711 1 60.99533832 28.26627538 39.63317270
8712 1 63.46812231 28.26627538 39.63317270
8713 1 62.64386098 28.26627538 37.30180960
8714 1 57.69829301 26.24725571 47.79294355
8715 1 60.17107699 26.24725571 47.79294355
8716 1 59.34681567 26.24725571 45.46158045
8717 1 61.81959965 26.24725571 45.46158045
8718 1 60.99533832 26.24725571 43.13021735
8719 1 63.46812231 26.24725571 43.13021735
8720 1 62.64386098 26.24725571 40.79885425
8721 1 60.99533832 24.22823604 46.62726200
8722 1 63.46812231 24.22823604 46.62726200
8723 1 62.64386098 24.22823604 44.29589890
8724 1 62.64386098 22.20921637 47.79294355
8725 1 57.69829301 30.28529505 47.79294355
8726 1 60.17107699 30.28529505 47.79294355
8727 1 59.34681567 30.28529505 45.46158045
8728 1 61.81959965 30.28529505 45.46158045
8729 1 60.99533832 30.28529505 43.13021735
8730 1 63.46812231 30.28529505 43.13021735
8731 1 62.64386098 30.28529505 40.79885425
8732 1 60.99533832 28.26627538 46.62726200
8733 1 63.46812231 28.26627538 46.62726200
8734 1 62.64386098 28.26627538 44.29589890
8735 1 62.64386098 26.24725571 47.79294355
8736 1 62.64386098 30.28529505 47.79294355
8737 1 0.85723178 32.30431472 2.33136310
8738 1 0.00000000 32.30431472 0.00000000
8739 1 2.57169535 32.30431472 -0.00000000
8740 1 0.85723178 36.34235406 2.33136310
8741 1 0.00000000 36.34235406 -0.00000000
8742 1 2.57169535 36.34235406 -0.00000000
8743 1 0.85723178 34.32333439 5.82840775
8744 1 0.00000000 34.32333439 3.49704465
8745 1 2.57169535 34.32333439 3.49704465
8746 1 1.71446356 34.32333439 1.16568155
8747 1 4.28615891 34.32333439 1.16568155
8748 1 0.85723178 32.30431472 9.32545240
8749 1 0.00000000 32.30431472 6.99408930
8750 1 2.57169535 32.30431472 6.99408930
8751 1 1.71446356 32.30431472 4.66272620
8752 1 4.28615891 32.30431472 4.66272620
8753 1 3.42892713 32.30431472 2.33136310
8754 1 6.00062247 32.30431472 2.33136310
8755 1 5.14339069 32.30431472 -0.00000000
8756 1 7.71508604 32.30431472 0.00000000
8757 1 0.85723178 40.38039340 2.33136310
8758 1 0.00000000 40.38039340 -0.00000000
8759 1 2.57169535 40.38039340 0.00000000
8760 1 0.85723178 38.36137373 5.82840775
8761 1 0.00000000 38.36137373 3.49704465
8762 1 2.57169535 38.36137373 3.49704465
8763 1 1.71446356 38.36137373 1.16568155
8764 1 4.28615891 38.36137373 1.16568155
8765 1 0.85723178 36.34235406 9.32545240
8766 1 0.00000000 36.34235406 6.99408930
8767 1 2.57169535 36.34235406 6.99408930
8768 1 1.71446356 36.34235406 4.66272620
8769 1 4.28615891 36.34235406 4.66272620
8770 1 3.42892713 36.34235406 2.33136310
8771 1 6.00062247 36.34235406 2.33136310
8772 1 5.14339069 36.34235406 -0.00000000
8773 1 7.71508604 36.34235406 0.00000000
8774 1 0.85723178 34.32333439 12.82249705
8775 1 -0.00000000 34.32333439 10.49113395
8776 1 2.57169535 34.32333439 10.49113395
8777 1 1.71446356 34.32333439 8.15977085
8778 1 4.28615891 34.32333439 8.15977085
8779 1 3.42892713 34.32333439 5.82840775
8780 1 6.00062247 34.32333439 5.82840775
8781 1 5.14339069 34.32333439 3.49704465
8782 1 7.71508604 34.32333439 3.49704465
8783 1 6.85785425 34.32333439 1.16568155
8784 1 9.42954960 34.32333439 1.16568155
8785 1 0.85723178 32.30431472 16.31954170
8786 1 0.00000000 32.30431472 13.98817860
8787 1 2.57169535 32.30431472 13.98817860
8788 1 1.71446356 32.30431472 11.65681550
8789 1 4.28615891 32.30431472 11.65681550
8790 1 3.42892713 32.30431472 9.32545240
8791 1 6.00062247 32.30431472 9.32545240
8792 1 5.14339069 32.30431472 6.99408930
8793 1 7.71508604 32.30431472 6.99408930
8794 1 6.85785425 32.30431472 4.66272620
8795 1 9.42954960 32.30431472 4.66272620
8796 1 8.57231782 32.30431472 2.33136310
8797 1 11.14401316 32.30431472 2.33136310
8798 1 10.28678138 32.30431472 -0.00000000
8799 1 12.85847673 32.30431472 0.00000000
8800 1 0.85723178 44.41843274 2.33136310
8801 1 -0.00000000 44.41843274 0.00000000
8802 1 2.57169535 44.41843274 0.00000000
8803 1 0.85723178 42.39941307 5.82840775
8804 1 -0.00000000 42.39941307 3.49704465
8805 1 2.57169535 42.39941307 3.49704465
8806 1 1.71446356 42.39941307 1.16568155
8807 1 4.28615891 42.39941307 1.16568155
8808 1 0.85723178 40.38039340 9.32545240
8809 1 -0.00000000 40.38039340 6.99408930
8810 1 2.57169535 40.38039340 6.99408930
8811 1 1.71446356 40.38039340 4.66272620
8812 1 4.28615891 40.38039340 4.66272620
8813 1 3.42892713 40.38039340 2.33136310
8814 1 6.00062247 40.38039340 2.33136310
8815 1 5.14339069 40.38039340 -0.00000000
8816 1 7.71508604 40.38039340 0.00000000
8817 1 0.85723178 38.36137373 12.82249705
8818 1 -0.00000000 38.36137373 10.49113395
8819 1 2.57169535 38.36137373 10.49113395
8820 1 1.71446356 38.36137373 8.15977085
8821 1 4.28615891 38.36137373 8.15977085
8822 1 3.42892713 38.36137373 5.82840775
8823 1 6.00062247 38.36137373 5.82840775
8824 1 5.14339069 38.36137373 3.49704465
8825 1 7.71508604 38.36137373 3.49704465
8826 1 6.85785425 38.36137373 1.16568155
8827 1 9.42954960 38.36137373 1.16568155
8828 1 0.85723178 36.34235406 16.31954170
8829 1 -0.00000000 36.34235406 13.98817860
8830 1 2.57169535 36.34235406 13.98817860
8831 1 1.71446356 36.34235406 11.65681550
8832 1 4.28615891 36.34235406 11.65681550
8833 1 3.42892713 36.34235406 9.32545240
8834 1 6.00062247 36.34235406 9.32545240
8835 1 5.14339069 36.34235406 6.99408930
8836 1 7.71508604 36.34235406 6.99408930
8837 1 6.85785425 36.34235406 4.66272620
8838 1 9.42954960 36.34235406 4.66272620
8839 1 8.57231782 36.34235406 2.33136310
8840 1 11.14401316 36.34235406 2.33136310
8841 1 10.28678138 36.34235406 -0.00000000
8842 1 12.85847673 36.34235406 0.00000000
8843 1 0.85723178 34.32333439 19.81658635
8844 1 -0.00000000 34.32333439 17.48522325
8845 1 2.57169535 34.32333439 17.48522325
8846 1 1.71446356 34.32333439 15.15386015
8847 1 4.28615891 34.32333439 15.15386015
8848 1 3.42892713 34.32333439 12.82249705
8849 1 6.00062247 34.32333439 12.82249705
8850 1 5.14339069 34.32333439 10.49113395
8851 1 7.71508604 34.32333439 10.49113395
8852 1 6.85785425 34.32333439 8.15977085
8853 1 9.42954960 34.32333439 8.15977085
8854 1 8.57231782 34.32333439 5.82840775
8855 1 11.14401316 34.32333439 5.82840775
8856 1 10.28678138 34.32333439 3.49704465
8857 1 12.85847673 34.32333439 3.49704465
8858 1 12.00124495 34.32333439 1.16568155
8859 1 14.57294029 34.32333439 1.16568155
8860 2 0.85723178 32.30431472 23.31363100
8861 1 -0.00000000 32.30431472 20.98226790
8862 2 2.57169535 32.30431472 20.98226790
8863 2 1.71446356 32.30431472 18.65090480
8864 2 4.28615891 32.30431472 18.65090480
8865 2 3.42892713 32.30431472 16.31954170
8866 2 6.00062247 32.30431472 16.31954170
8867 1 5.14339069 32.30431472 13.98817860
8868 2 7.71508604 32.30431472 13.98817860
8869 1 6.85785425 32.30431472 11.65681550
8870 1 9.42954960 32.30431472 11.65681550
8871 1 8.57231782 32.30431472 9.32545240
8872 1 11.14401316 32.30431472 9.32545240
8873 1 10.28678138 32.30431472 6.99408930
8874 1 12.85847673 32.30431472 6.99408930
8875 1 12.00124495 32.30431472 4.66272620
8876 1 14.57294029 32.30431472 4.66272620
8877 1 13.71570851 32.30431472 2.33136310
8878 1 16.28740385 32.30431472 2.33136310
8879 1 15.43017207 32.30431472 0.00000000
8880 1 18.00186742 32.30431472 0.00000000
8881 1 0.85723178 48.45647208 2.33136310
8882 1 0.00000000 48.45647208 -0.00000000
8883 1 2.57169535 48.45647208 -0.00000000
8884 1 0.85723178 46.43745241 5.82840775
8885 1 0.00000000 46.43745241 3.49704465
8886 1 2.57169535 46.43745241 3.49704465
8887 1 1.71446356 46.43745241 1.16568155
8888 1 4.28615891 46.43745241 1.16568155
8889 1 0.85723178 44.41843274 9.32545240
8890 1 0.00000000 44.41843274 6.99408930
8891 1 2.57169535 44.41843274 6.99408930
8892 1 1.71446356 44.41843274 4.66272620
8893 1 4.28615891 44.41843274 4.66272620
8894 1 3.42892713 44.41843274 2.33136310
8895 1 6.00062247 44.41843274 2.33136310
8896 1 5.14339069 44.41843274 -0.00000000
8897 1 7.71508604 44.41843274 0.00000000
8898 1 0.85723178 42.39941307 12.82249705
8899 1 0.00000000 42.39941307 10.49113395
8900 1 2.57169535 42.39941307 10.49113395
8901 1 1.71446356 42.39941307 8.15977085
8902 1 4.28615891 42.39941307 8.15977085
8903 1 3.42892713 42.39941307 5.82840775
8904 1 6.00062247 42.39941307 5.82840775
8905 1 5.14339069 42.39941307 3.49704465
8906 1 7.71508604 42.39941307 3.49704465
8907 1 6.85785425 42.39941307 1.16568155
8908 1 9.42954960 42.39941307 1.16568155
8909 1 0.85723178 40.38039340 16.31954170
8910 1 0.00000000 40.38039340 13.98817860
8911 1 2.57169535 40.38039340 13.98817860
8912 1 1.71446356 40.38039340 11.65681550
8913 1 4.28615891 40.38039340 11.65681550
8914 1 3.42892713 40.38039340 9.32545240
8915 1 6.00062247 40.38039340 9.32545240
8916 1 5.14339069 40.38039340 6.99408930
8917 1 7.71508604 40.38039340 6.99408930
8918 1 6.85785425 40.38039340 4.66272620
8919 1 9.42954960 40.38039340 4.66272620
8920 1 8.57231782 40.38039340 2.33136310
8921 1 11.14401316 40.38039340 2.33136310
8922 1 10.28678138 40.38039340 -0.00000000
8923 1 12.85847673 40.38039340 -0.00000000
8924 1 0.85723178 38.36137373 19.81658635
8925 1 0.00000000 38.36137373 17.48522325
8926 1 2.57169535 38.36137373 17.48522325
8927 1 1.71446356 38.36137373 15.15386015
8928 1 4.28615891 38.36137373 15.15386015
8929 1 3.42892713 38.36137373 12.82249705
8930 1 6.00062247 38.36137373 12.82249705
8931 1 5.14339069 38.36137373 10.49113395
8932 1 7.71508604 38.36137373 10.49113395
8933 1 6.85785425 38.36137373 8.15977085
8934 1 9.42954960 38.36137373 8.15977085
8935 1 8.57231782 38.36137373 5.82840775
8936 1 11.14401316 38.36137373 5.82840775
8937 1 10.28678138 38.36137373 3.49704465
8938 1 12.85847673 38.36137373 3.49704465
8939 1 12.00124495 38.36137373 1.16568155
8940 1 14.57294029 38.36137373 1.16568155
8941 1 0.85723178 36.34235406 23.31363100
8942 1 -0.00000000 36.34235406 20.98226790
8943 2 2.57169535 36.34235406 20.98226790
8944 1 1.71446356 36.34235406 18.65090480
8945 2 4.28615891 36.34235406 18.65090480
8946 1 3.42892713 36.34235406 16.31954170
8947 2 6.00062247 36.34235406 16.31954170
8948 1 5.14339069 36.34235406 13.98817860
8949 1 7.71508604 36.34235406 13.98817860
8950 1 6.85785425 36.34235406 11.65681550
8951 1 9.42954960 36.34235406 11.65681550
8952 1 8.57231782 36.34235406 9.32545240
8953 1 11.14401316 36.34235406 9.32545240
8954 1 10.28678138 36.34235406 6.99408930
8955 1 12.85847673 36.34235406 6.99408930
8956 1 12.00124495 36.34235406 4.66272620
8957 1 14.57294029 36.34235406 4.66272620
8958 1 13.71570851 36.34235406 2.33136310
8959 1 16.28740385 36.34235406 2.33136310
8960 1 15.43017207 36.34235406 0.00000000
8961 1 18.00186742 36.34235406 0.00000000
8962 2 0.85723178 34.32333439 26.81067565
8963 1 -0.00000000 34.32333439 24.47931255
8964 2 2.57169535 34.32333439 24.47931255
8965 2 1.71446356 34.32333439 22.14794945
8966 2 4.28615891 34.32333439 22.14794945
8967 2 3.42892713 34.32333439 19.81658635
8968 2 6.00062247 34.32333439 19.81658635
8969 2 5.14339069 34.32333439 17.48522325
8970 2 7.71508604 34.32333439 17.48522325
8971 2 6.85785425 34.32333439 15.15386015
8972 2 9.42954960 34.32333439 15.15386015
8973 1 8.57231782 34.32333439 12.82249705
8974 1 11.14401316 34.32333439 12.82249705
8975 1 10.28678138 34.32333439 10.49113395
8976 1 12.85847673 34.32333439 10.49113395
8977 1 12.00124495 34.32333439 8.15977085
8978 1 14.57294029 34.32333439 8.15977085
8979 1 13.71570851 34.32333439 5.82840775
8980 1 16.28740385 34.32333439 5.82840775
8981 1 15.43017207 34.32333439 3.49704465
8982 1 18.00186742 34.32333439 3.49704465
8983 1 17.14463564 34.32333439 1.16568155
8984 1 19.71633098 34.32333439 1.16568155
8985 1 0.85723178 32.30431472 30.30772030
8986 1 0.00000000 32.30431472 27.97635720
8987 2 2.57169535 32.30431472 27.97635720
8988 2 1.71446356 32.30431472 25.64499410
8989 2 4.28615891 32.30431472 25.64499410
8990 2 3.42892713 32.30431472 23.31363100
8991 2 6.00062247 32.30431472 23.31363100
8992 2 5.14339069 32.30431472 20.98226790
8993 2 7.71508604 32.30431472 20.98226790
8994 2 6.85785425 32.30431472 18.65090480
8995 2 9.42954960 32.30431472 18.65090480
8996 2 8.57231782 32.30431472 16.31954170
8997 2 11.14401316 32.30431472 16.31954170
8998 2 10.28678138 32.30431472 13.98817860
8999 2 12.85847673 32.30431472 13.98817860
9000 1 12.00124495 32.30431472 11.65681550
9001 1 14.57294029 32.30431472 11.65681550
9002 1 13.71570851 32.30431472 9.32545240
9003 1 16.28740385 32.30431472 9.32545240
9004 1 15.43017207 32.30431472 6.99408930
9005 1 18.00186742 32.30431472 6.99408930
9006 1 17.14463564 32.30431472 4.66272620
9007 1 19.71633098 32.30431472 4.66272620
9008 1 18.85909920 32.30431472 2.33136310
9009 1 21.43079455 32.30431472 2.33136310
9010 1 20.57356276 32.30431472 -0.00000000
9011 1 23.14525811 32.30431472 -0.00000000
9012 1 0.85723178 52.49451142 2.33136310
9013 1 0.00000000 52.49451142 0.00000000
9014 1 2.57169535 52.49451142 -0.00000000
9015 1 0.85723178 50.47549175 5.82840775
9016 1 0.00000000 50.47549175 3.49704465
9017 1 2.57169535 50.47549175 3.49704465
9018 1 1.71446356 50.47549175 1.16568155
9019 1 4.28615891 50.47549175 1.16568155
9020 1 0.85723178 48.45647208 9.32545240
9021 1 0.00000000 48.45647208 6.99408930
9022 1 2.57169535 48.45647208 6.99408930
9023 1 1.71446356 48.45647208 4.66272620
9024 1 4.28615891 48.45647208 4.66272620
9025 1 3.42892713 48.45647208 2.33136310
9026 1 6.00062247 48.45647208 2.33136310
9027 1 5.14339069 48.45647208 0.00000000
9028 1 7.71508604 48.45647208 0.00000000
9029 1 0.85723178 46.43745241 12.82249705
9030 1 0.00000000 46.43745241 10.49113395
9031 1 2.57169535 46.43745241 10.49113395
9032 1 1.71446356 46.43745241 8.15977085
9033 1 4.28615891 46.43745241 8.15977085
9034 1 3.42892713 46.43745241 5.82840775
9035 1 6.00062247 46.43745241 5.82840775
9036 1 5.14339069 46.43745241 3.49704465
9037 1 7.71508604 46.43745241 3.49704465
9038 1 6.85785425 46.43745241 1.16568155
9039 1 9.42954960 46.43745241 1.16568155
9040 1 0.85723178 44.41843274 16.31954170
9041 1 0.00000000 44.41843274 13.98817860
9042 1 2.57169535 44.41843274 13.98817860
9043 1 1.71446356 44.41843274 11.65681550
9044 1 4.28615891 44.41843274 11.65681550
9045 1 3.42892713 44.41843274 9.32545240
9046 1 6.00062247 44.41843274 9.32545240
9047 1 5.14339069 44.41843274 6.99408930
9048 1 7.71508604 44.41843274 6.99408930
9049 1 6.85785425 44.41843274 4.66272620
9050 1 9.42954960 44.41843274 4.66272620
9051 1 8.57231782 44.41843274 2.33136310
9052 1 11.14401316 44.41843274 2.33136310
9053 1 10.28678138 44.41843274 -0.00000000
9054 1 12.85847673 44.41843274 0.00000000
9055 1 0.85723178 42.39941307 19.81658635
9056 1 0.00000000 42.39941307 17.48522325
9057 1 2.57169535 42.39941307 17.48522325
9058 1 1.71446356 42.39941307 15.15386015
9059 1 4.28615891 42.39941307 15.15386015
9060 1 3.42892713 42.39941307 12.82249705
9061 1 6.00062247 42.39941307 12.82249705
9062 1 5.14339069 42.39941307 10.49113395
9063 1 7.71508604 42.39941307 10.49113395
9064 1 6.85785425 42.39941307 8.15977085
9065 1 9.42954960 42.39941307 8.15977085
9066 1 8.57231782 42.39941307 5.82840775
9067 1 11.14401316 42.39941307 5.82840775
9068 1 10.28678138 42.39941307 3.49704465
9069 1 12.85847673 42.39941307 3.49704465
9070 1 12.00124495 42.39941307 1.16568155
9071 1 14.57294029 42.39941307 1.16568155
9072 1 0.85723178 40.38039340 23.31363100
9073 1 0.00000000 40.38039340 20.98226790
9074 1 2.57169535 40.38039340 20.98226790
9075 1 1.71446356 40.38039340 18.65090480
9076 1 4.28615891 40.38039340 18.65090480
9077 1 3.42892713 40.38039340 16.31954170
9078 1 6.00062247 40.38039340 16.31954170
9079 1 5.14339069 40.38039340 13.98817860
9080 1 7.71508604 40.38039340 13.98817860
9081 1 6.85785425 40.38039340 11.65681550
9082 1 9.42954960 40.38039340 11.65681550
9083 1 8.57231782 40.38039340 9.32545240
9084 1 11.14401316 40.38039340 9.32545240
9085 1 10.28678138 40.38039340 6.99408930
9086 1 12.85847673 40.38039340 6.99408930
9087 1 12.00124495 40.38039340 4.66272620
9088 1 14.57294029 40.38039340 4.66272620
9089 1 13.71570851 40.38039340 2.33136310
9090 1 16.28740385 40.38039340 2.33136310
9091 1 15.43017207 40.38039340 0.00000000
9092 1 18.00186742 40.38039340 0.00000000
9093 1 0.85723178 38.36137373 26.81067565
9094 1 -0.00000000 38.36137373 24.47931255
9095 2 2.57169535 38.36137373 24.47931255
9096 1 1.71446356 38.36137373 22.14794945
9097 2 4.28615891 38.36137373 22.14794945
9098 1 3.42892713 38.36137373 19.81658635
9099 2 6.00062247 38.36137373 19.81658635
9100 1 5.14339069 38.36137373 17.48522325
9101 2 7.71508604 38.36137373 17.48522325
9102 1 6.85785425 38.36137373 15.15386015
9103 1 9.42954960 38.36137373 15.15386015
9104 1 8.57231782 38.36137373 12.82249705
9105 1 11.14401316 38.36137373 12.82249705
9106 1 10.28678138 38.36137373 10.49113395
9107 1 12.85847673 38.36137373 10.49113395
9108 1 12.00124495 38.36137373 8.15977085
9109 1 14.57294029 38.36137373 8.15977085
9110 1 13.71570851 38.36137373 5.82840775
9111 1 16.28740385 38.36137373 5.82840775
9112 1 15.43017207 38.36137373 3.49704465
9113 1 18.00186742 38.36137373 3.49704465
9114 1 17.14463564 38.36137373 1.16568155
9115 1 19.71633098 38.36137373 1.16568155
9116 1 0.85723178 36.34235406 30.30772030
9117 1 0.00000000 36.34235406 27.97635720
9118 2 2.57169535 36.34235406 27.97635720
9119 2 1.71446356 36.34235406 25.64499410
9120 2 4.28615891 36.34235406 25.64499410
9121 2 3.42892713 36.34235406 23.31363100
9122 2 6.00062247 36.34235406 23.31363100
9123 2 5.14339069 36.34235406 20.98226790
9124 2 7.71508604 36.34235406 20.98226790
9125 2 6.85785425 36.34235406 18.65090480
9126 2 9.42954960 36.34235406 18.65090480
9127 2 8.57231782 36.34235406 16.31954170
9128 2 11.14401316 36.34235406 16.31954170
9129 2 10.28678138 36.34235406 13.98817860
9130 2 12.85847673 36.34235406 13.98817860
9131 1 12.00124495 36.34235406 11.65681550
9132 1 14.57294029 36.34235406 11.65681550
9133 1 13.71570851 36.34235406 9.32545240
9134 1 16.28740385 36.34235406 9.32545240
9135 1 15.43017207 36.34235406 6.99408930
9136 1 18.00186742 36.34235406 6.99408930
9137 1 17.14463564 36.34235406 4.66272620
9138 1 19.71633098 36.34235406 4.66272620
9139 1 18.85909920 36.34235406 2.33136310
9140 1 21.43079455 36.34235406 2.33136310
9141 1 20.57356276 36.34235406 -0.00000000
9142 1 23.14525811 36.34235406 -0.00000000
9143 1 0.85723178 34.32333439 33.80476495
9144 1 0.00000000 34.32333439 31.47340185
9145 1 2.57169535 34.32333439 31.47340185
9146 2 1.71446356 34.32333439 29.14203875
9147 2 4.28615891 34.32333439 29.14203875
9148 2 3.42892713 34.32333439 26.81067565
9149 2 6.00062247 34.32333439 26.81067565
9150 2 5.14339069 34.32333439 24.47931255
9151 2 7.71508604 34.32333439 24.47931255
9152 2 6.85785425 34.32333439 22.14794945
9153 2 9.42954960 34.32333439 22.14794945
9154 2 8.57231782 34.32333439 19.81658635
9155 2 11.14401316 34.32333439 19.81658635
9156 2 10.28678138 34.32333439 17.48522325
9157 2 12.85847673 34.32333439 17.48522325
9158 2 12.00124495 34.32333439 15.15386015
9159 2 14.57294029 34.32333439 15.15386015
9160 1 13.71570851 34.32333439 12.82249705
9161 1 16.28740385 34.32333439 12.82249705
9162 1 15.43017207 34.32333439 10.49113395
9163 1 18.00186742 34.32333439 10.49113395
9164 1 17.14463564 34.32333439 8.15977085
9165 1 19.71633098 34.32333439 8.15977085
9166 1 18.85909920 34.32333439 5.82840775
9167 1 21.43079455 34.32333439 5.82840775
9168 1 20.57356276 34.32333439 3.49704465
9169 1 23.14525811 34.32333439 3.49704465
9170 1 22.28802633 34.32333439 1.16568155
9171 1 24.85972167 34.32333439 1.16568155
9172 1 0.85723178 32.30431472 37.30180960
9173 1 0.00000000 32.30431472 34.97044650
9174 1 2.57169535 32.30431472 34.97044650
9175 1 1.71446356 32.30431472 32.63908340
9176 2 4.28615891 32.30431472 32.63908340
9177 2 3.42892713 32.30431472 30.30772030
9178 2 6.00062247 32.30431472 30.30772030
9179 2 5.14339069 32.30431472 27.97635720
9180 2 7.71508604 32.30431472 27.97635720
9181 2 6.85785425 32.30431472 25.64499410
9182 2 9.42954960 32.30431472 25.64499410
9183 2 8.57231782 32.30431472 23.31363100
9184 2 11.14401316 32.30431472 23.31363100
9185 2 10.28678138 32.30431472 20.98226790
9186 2 12.85847673 32.30431472 20.98226790
9187 2 12.00124495 32.30431472 18.65090480
9188 2 14.57294029 32.30431472 18.65090480
9189 2 13.71570851 32.30431472 16.31954170
9190 2 16.28740385 32.30431472 16.31954170
9191 2 15.43017207 32.30431472 13.98817860
9192 1 18.00186742 32.30431472 13.98817860
9193 1 17.14463564 32.30431472 11.65681550
9194 1 19.71633098 32.30431472 11.65681550
9195 1 18.85909920 32.30431472 9.32545240
9196 1 21.43079455 32.30431472 9.32545240
9197 1 20.57356276 32.30431472 6.99408930
9198 1 23.14525811 32.30431472 6.99408930
9199 1 22.28802633 32.30431472 4.66272620
9200 1 24.85972167 32.30431472 4.66272620
9201 1 24.00248989 32.30431472 2.33136310
9202 1 26.57418524 32.30431472 2.33136310
9203 1 25.71695346 32.30431472 0.00000000
9204 1 28.28864880 32.30431472 -0.00000000
9205 1 0.85723178 56.53255076 2.33136310
9206 1 -0.00000000 56.53255076 0.00000000
9207 1 2.57169535 56.53255076 0.00000000
9208 1 0.85723178 54.51353109 5.82840775
9209 1 -0.00000000 54.51353109 3.49704465
9210 1 2.57169535 54.51353109 3.49704465
9211 1 1.71446356 54.51353109 1.16568155
9212 1 4.28615891 54.51353109 1.16568155
9213 1 0.85723178 52.49451142 9.32545240
9214 1 -0.00000000 52.49451142 6.99408930
9215 1 2.57169535 52.49451142 6.99408930
9216 1 1.71446356 52.49451142 4.66272620
9217 1 4.28615891 52.49451142 4.66272620
9218 1 3.42892713 52.49451142 2.33136310
9219 1 6.00062247 52.49451142 2.33136310
9220 1 5.14339069 52.49451142 -0.00000000
9221 1 7.71508604 52.49451142 0.00000000
9222 1 0.85723178 50.47549175 12.82249705
9223 1 -0.00000000 50.47549175 10.49113395
9224 1 2.57169535 50.47549175 10.49113395
9225 1 1.71446356 50.47549175 8.15977085
9226 1 4.28615891 50.47549175 8.15977085
9227 1 3.42892713 50.47549175 5.82840775
9228 1 6.00062247 50.47549175 5.82840775
9229 1 5.14339069 50.47549175 3.49704465
9230 1 7.71508604 50.47549175 3.49704465
9231 1 6.85785425 50.47549175 1.16568155
9232 1 9.42954960 50.47549175 1.16568155
9233 1 0.85723178 48.45647208 16.31954170
9234 1 -0.00000000 48.45647208 13.98817860
9235 1 2.57169535 48.45647208 13.98817860
9236 1 1.71446356 48.45647208 11.65681550
9237 1 4.28615891 48.45647208 11.65681550
9238 1 3.42892713 48.45647208 9.32545240
9239 1 6.00062247 48.45647208 9.32545240
9240 1 5.14339069 48.45647208 6.99408930
9241 1 7.71508604 48.45647208 6.99408930
9242 1 6.85785425 48.45647208 4.66272620
9243 1 9.42954960 48.45647208 4.66272620
9244 1 8.57231782 48.45647208 2.33136310
9245 1 11.14401316 48.45647208 2.33136310
9246 1 10.28678138 48.45647208 -0.00000000
9247 1 12.85847673 48.45647208 -0.00000000
9248 1 0.85723178 46.43745241 19.81658635
9249 1 -0.00000000 46.43745241 17.48522325
9250 1 2.57169535 46.43745241 17.48522325
9251 1 1.71446356 46.43745241 15.15386015
9252 1 4.28615891 46.43745241 15.15386015
9253 1 3.42892713 46.43745241 12.82249705
9254 1 6.00062247 46.43745241 12.82249705
9255 1 5.14339069 46.43745241 10.49113395
9256 1 7.71508604 46.43745241 10.49113395
9257 1 6.85785425 46.43745241 8.15977085
9258 1 9.42954960 46.43745241 8.15977085
9259 1 8.57231782 46.43745241 5.82840775
9260 1 11.14401316 46.43745241 5.82840775
9261 1 10.28678138 46.43745241 3.49704465
9262 1 12.85847673 46.43745241 3.49704465
9263 1 12.00124495 46.43745241 1.16568155
9264 1 14.57294029 46.43745241 1.16568155
9265 1 0.85723178 44.41843274 23.31363100
9266 1 -0.00000000 44.41843274 20.98226790
9267 1 2.57169535 44.41843274 20.98226790
9268 1 1.71446356 44.41843274 18.65090480
9269 1 4.28615891 44.41843274 18.65090480
9270 1 3.42892713 44.41843274 16.31954170
9271 1 6.00062247 44.41843274 16.31954170
9272 1 5.14339069 44.41843274 13.98817860
9273 1 7.71508604 44.41843274 13.98817860
9274 1 6.85785425 44.41843274 11.65681550
9275 1 9.42954960 44.41843274 11.65681550
9276 1 8.57231782 44.41843274 9.32545240
9277 1 11.14401316 44.41843274 9.32545240
9278 1 10.28678138 44.41843274 6.99408930
9279 1 12.85847673 44.41843274 6.99408930
9280 1 12.00124495 44.41843274 4.66272620
9281 1 14.57294029 44.41843274 4.66272620
9282 1 13.71570851 44.41843274 2.33136310
9283 1 16.28740385 44.41843274 2.33136310
9284 1 15.43017207 44.41843274 0.00000000
9285 1 18.00186742 44.41843274 0.00000000
9286 1 0.85723178 42.39941307 26.81067565
9287 1 -0.00000000 42.39941307 24.47931255
9288 1 2.57169535 42.39941307 24.47931255
9289 1 1.71446356 42.39941307 22.14794945
9290 1 4.28615891 42.39941307 22.14794945
9291 1 3.42892713 42.39941307 19.81658635
9292 1 6.00062247 42.39941307 19.81658635
9293 1 5.14339069 42.39941307 17.48522325
9294 1 7.71508604 42.39941307 17.48522325
9295 1 6.85785425 42.39941307 15.15386015
9296 1 9.42954960 42.39941307 15.15386015
9297 1 8.57231782 42.39941307 12.82249705
9298 1 11.14401316 42.39941307 12.82249705
9299 1 10.28678138 42.39941307 10.49113395
9300 1 12.85847673 42.39941307 10.49113395
9301 1 12.00124495 42.39941307 8.15977085
9302 1 14.57294029 42.39941307 8.15977085
9303 1 13.71570851 42.39941307 5.82840775
9304 1 16.28740385 42.39941307 5.82840775
9305 1 15.43017207 42.39941307 3.49704465
9306 1 18.00186742 42.39941307 3.49704465
9307 1 17.14463564 42.39941307 1.16568155
9308 1 19.71633098 42.39941307 1.16568155
9309 1 0.85723178 40.38039340 30.30772030
9310 1 -0.00000000 40.38039340 27.97635720
9311 1 2.57169535 40.38039340 27.97635720
9312 1 1.71446356 40.38039340 25.64499410
9313 1 4.28615891 40.38039340 25.64499410
9314 1 3.42892713 40.38039340 23.31363100
9315 2 6.00062247 40.38039340 23.31363100
9316 2 5.14339069 40.38039340 20.98226790
9317 2 7.71508604 40.38039340 20.98226790
9318 2 6.85785425 40.38039340 18.65090480
9319 2 9.42954960 40.38039340 18.65090480
9320 1 8.57231782 40.38039340 16.31954170
9321 1 11.14401316 40.38039340 16.31954170
9322 1 10.28678138 40.38039340 13.98817860
9323 1 12.85847673 40.38039340 13.98817860
9324 1 12.00124495 40.38039340 11.65681550
9325 1 14.57294029 40.38039340 11.65681550
9326 1 13.71570851 40.38039340 9.32545240
9327 1 16.28740385 40.38039340 9.32545240
9328 1 15.43017207 40.38039340 6.99408930
9329 1 18.00186742 40.38039340 6.99408930
9330 1 17.14463564 40.38039340 4.66272620
9331 1 19.71633098 40.38039340 4.66272620
9332 1 18.85909920 40.38039340 2.33136310
9333 1 21.43079455 40.38039340 2.33136310
9334 1 20.57356276 40.38039340 -0.00000000
9335 1 23.14525811 40.38039340 -0.00000000
9336 1 0.85723178 38.36137373 33.80476495
9337 1 -0.00000000 38.36137373 31.47340185
9338 1 2.57169535 38.36137373 31.47340185
9339 1 1.71446356 38.36137373 29.14203875
9340 2 4.28615891 38.36137373 29.14203875
9341 2 3.42892713 38.36137373 26.81067565
9342 2 6.00062247 38.36137373 26.81067565
9343 2 5.14339069 38.36137373 24.47931255
9344 2 7.71508604 38.36137373 24.47931255
9345 2 6.85785425 38.36137373 22.14794945
9346 2 9.42954960 38.36137373 22.14794945
9347 2 8.57231782 38.36137373 19.81658635
9348 2 11.14401316 38.36137373 19.81658635
9349 2 10.28678138 38.36137373 17.48522325
9350 2 12.85847673 38.36137373 17.48522325
9351 2 12.00124495 38.36137373 15.15386015
9352 1 14.57294029 38.36137373 15.15386015
9353 1 13.71570851 38.36137373 12.82249705
9354 1 16.28740385 38.36137373 12.82249705
9355 1 15.43017207 38.36137373 10.49113395
9356 1 18.00186742 38.36137373 10.49113395
9357 1 17.14463564 38.36137373 8.15977085
9358 1 19.71633098 38.36137373 8.15977085
9359 1 18.85909920 38.36137373 5.82840775
9360 1 21.43079455 38.36137373 5.82840775
9361 1 20.57356276 38.36137373 3.49704465
9362 1 23.14525811 38.36137373 3.49704465
9363 1 22.28802633 38.36137373 1.16568155
9364 1 24.85972167 38.36137373 1.16568155
9365 1 0.85723178 36.34235406 37.30180960
9366 1 -0.00000000 36.34235406 34.97044650
9367 1 2.57169535 36.34235406 34.97044650
9368 1 1.71446356 36.34235406 32.63908340
9369 1 4.28615891 36.34235406 32.63908340
9370 2 3.42892713 36.34235406 30.30772030
9371 2 6.00062247 36.34235406 30.30772030
9372 2 5.14339069 36.34235406 27.97635720
9373 2 7.71508604 36.34235406 27.97635720
9374 2 6.85785425 36.34235406 25.64499410
9375 2 9.42954960 36.34235406 25.64499410
9376 2 8.57231782 36.34235406 23.31363100
9377 2 11.14401316 36.34235406 23.31363100
9378 2 10.28678138 36.34235406 20.98226790
9379 2 12.85847673 36.34235406 20.98226790
9380 2 12.00124495 36.34235406 18.65090480
9381 2 14.57294029 36.34235406 18.65090480
9382 2 13.71570851 36.34235406 16.31954170
9383 2 16.28740385 36.34235406 16.31954170
9384 1 15.43017207 36.34235406 13.98817860
9385 1 18.00186742 36.34235406 13.98817860
9386 1 17.14463564 36.34235406 11.65681550
9387 1 19.71633098 36.34235406 11.65681550
9388 1 18.85909920 36.34235406 9.32545240
9389 1 21.43079455 36.34235406 9.32545240
9390 1 20.57356276 36.34235406 6.99408930
9391 1 23.14525811 36.34235406 6.99408930
9392 1 22.28802633 36.34235406 4.66272620
9393 1 24.85972167 36.34235406 4.66272620
9394 1 24.00248989 36.34235406 2.33136310
9395 1 26.57418524 36.34235406 2.33136310
9396 1 25.71695346 36.34235406 0.00000000
9397 1 28.28864880 36.34235406 -0.00000000
9398 1 0.85723178 34.32333439 40.79885425
9399 1 -0.00000000 34.32333439 38.46749115
9400 1 2.57169535 34.32333439 38.46749115
9401 1 1.71446356 34.32333439 36.13612805
9402 1 4.28615891 34.32333439 36.13612805
9403 1 3.42892713 34.32333439 33.80476495
9404 2 6.00062247 34.32333439 33.80476495
9405 2 5.14339069 34.32333439 31.47340185
9406 2 7.71508604 34.32333439 31.47340185
9407 2 6.85785425 34.32333439 29.14203875
9408 2 9.42954960 34.32333439 29.14203875
9409 2 8.57231782 34.32333439 26.81067565
9410 2 11.14401316 34.32333439 26.81067565
9411 2 10.28678138 34.32333439 24.47931255
9412 2 12.85847673 34.32333439 24.47931255
9413 2 12.00124495 34.32333439 22.14794945
9414 2 14.57294029 34.32333439 22.14794945
9415 2 13.71570851 34.32333439 19.81658635
9416 2 16.28740385 34.32333439 19.81658635
9417 2 15.43017207 34.32333439 17.48522325
9418 2 18.00186742 34.32333439 17.48522325
9419 2 17.14463564 34.32333439 15.15386015
9420 1 19.71633098 34.32333439 15.15386015
9421 1 18.85909920 34.32333439 12.82249705
9422 1 21.43079455 34.32333439 12.82249705
9423 1 20.57356276 34.32333439 10.49113395
9424 1 23.14525811 34.32333439 10.49113395
9425 1 22.28802633 34.32333439 8.15977085
9426 1 24.85972167 34.32333439 8.15977085
9427 1 24.00248989 34.32333439 5.82840775
9428 1 26.57418524 34.32333439 5.82840775
9429 1 25.71695346 34.32333439 3.49704465
9430 1 28.28864880 34.32333439 3.49704465
9431 1 27.43141702 34.32333439 1.16568155
9432 1 30.00311236 34.32333439 1.16568155
9433 1 0.85723178 32.30431472 44.29589890
9434 1 -0.00000000 32.30431472 41.96453580
9435 1 2.57169535 32.30431472 41.96453580
9436 1 1.71446356 32.30431472 39.63317270
9437 1 4.28615891 32.30431472 39.63317270
9438 1 3.42892713 32.30431472 37.30180960
9439 1 6.00062247 32.30431472 37.30180960
9440 1 5.14339069 32.30431472 34.97044650
9441 2 7.71508604 32.30431472 34.97044650
9442 2 6.85785425 32.30431472 32.63908340
9443 2 9.42954960 32.30431472 32.63908340
9444 2 8.57231782 32.30431472 30.30772030
9445 2 11.14401316 32.30431472 30.30772030
9446 2 10.28678138 32.30431472 27.97635720
9447 2 12.85847673 32.30431472 27.97635720
9448 2 12.00124495 32.30431472 25.64499410
9449 2 14.57294029 32.30431472 25.64499410
9450 2 13.71570851 32.30431472 23.31363100
9451 2 16.28740385 32.30431472 23.31363100
9452 2 15.43017207 32.30431472 20.98226790
9453 2 18.00186742 32.30431472 20.98226790
9454 2 17.14463564 32.30431472 18.65090480
9455 2 19.71633098 32.30431472 18.65090480
9456 2 18.85909920 32.30431472 16.31954170
9457 1 21.43079455 32.30431472 16.31954170
9458 1 20.57356276 32.30431472 13.98817860
9459 1 23.14525811 32.30431472 13.98817860
9460 1 22.28802633 32.30431472 11.65681550
9461 1 24.85972167 32.30431472 11.65681550
9462 1 24.00248989 32.30431472 9.32545240
9463 1 26.57418524 32.30431472 9.32545240
9464 1 25.71695346 32.30431472 6.99408930
9465 1 28.28864880 32.30431472 6.99408930
9466 1 27.43141702 32.30431472 4.66272620
9467 1 30.00311236 32.30431472 4.66272620
9468 1 29.14588058 32.30431472 2.33136310
9469 1 31.71757593 32.30431472 2.33136310
9470 1 30.86034415 32.30431472 0.00000000
9471 1 33.43203949 32.30431472 -0.00000000
9472 1 0.85723178 60.57059010 2.33136310
9473 1 -0.00000000 60.57059010 0.00000000
9474 1 2.57169535 60.57059010 -0.00000000
9475 1 0.85723178 58.55157043 5.82840775
9476 1 0.00000000 58.55157043 3.49704465
9477 1 2.57169535 58.55157043 3.49704465
9478 1 1.71446356 58.55157043 1.16568155
9479 1 4.28615891 58.55157043 1.16568155
9480 1 0.85723178 56.53255076 9.32545240
9481 1 -0.00000000 56.53255076 6.99408930
9482 1 2.57169535 56.53255076 6.99408930
9483 1 1.71446356 56.53255076 4.66272620
9484 1 4.28615891 56.53255076 4.66272620
9485 1 3.42892713 56.53255076 2.33136310
9486 1 6.00062247 56.53255076 2.33136310
9487 1 5.14339069 56.53255076 -0.00000000
9488 1 7.71508604 56.53255076 -0.00000000
9489 1 0.85723178 54.51353109 12.82249705
9490 1 -0.00000000 54.51353109 10.49113395
9491 1 2.57169535 54.51353109 10.49113395
9492 1 1.71446356 54.51353109 8.15977085
9493 1 4.28615891 54.51353109 8.15977085
9494 1 3.42892713 54.51353109 5.82840775
9495 1 6.00062247 54.51353109 5.82840775
9496 1 5.14339069 54.51353109 3.49704465
9497 1 7.71508604 54.51353109 3.49704465
9498 1 6.85785425 54.51353109 1.16568155
9499 1 9.42954960 54.51353109 1.16568155
9500 1 0.85723178 52.49451142 16.31954170
9501 1 0.00000000 52.49451142 13.98817860
9502 1 2.57169535 52.49451142 13.98817860
9503 1 1.71446356 52.49451142 11.65681550
9504 1 4.28615891 52.49451142 11.65681550
9505 1 3.42892713 52.49451142 9.32545240
9506 1 6.00062247 52.49451142 9.32545240
9507 1 5.14339069 52.49451142 6.99408930
9508 1 7.71508604 52.49451142 6.99408930
9509 1 6.85785425 52.49451142 4.66272620
9510 1 9.42954960 52.49451142 4.66272620
9511 1 8.57231782 52.49451142 2.33136310
9512 1 11.14401316 52.49451142 2.33136310
9513 1 10.28678138 52.49451142 0.00000000
9514 1 12.85847673 52.49451142 -0.00000000
9515 1 0.85723178 50.47549175 19.81658635
9516 1 0.00000000 50.47549175 17.48522325
9517 1 2.57169535 50.47549175 17.48522325
9518 1 1.71446356 50.47549175 15.15386015
9519 1 4.28615891 50.47549175 15.15386015
9520 1 3.42892713 50.47549175 12.82249705
9521 1 6.00062247 50.47549175 12.82249705
9522 1 5.14339069 50.47549175 10.49113395
9523 1 7.71508604 50.47549175 10.49113395
9524 1 6.85785425 50.47549175 8.15977085
9525 1 9.42954960 50.47549175 8.15977085
9526 1 8.57231782 50.47549175 5.82840775
9527 1 11.14401316 50.47549175 5.82840775
9528 1 10.28678138 50.47549175 3.49704465
9529 1 12.85847673 50.47549175 3.49704465
9530 1 12.00124495 50.47549175 1.16568155
9531 1 14.57294029 50.47549175 1.16568155
9532 1 0.85723178 48.45647208 23.31363100
9533 1 -0.00000000 48.45647208 20.98226790
9534 1 2.57169535 48.45647208 20.98226790
9535 1 1.71446356 48.45647208 18.65090480
9536 1 4.28615891 48.45647208 18.65090480
9537 1 3.42892713 48.45647208 16.31954170
9538 1 6.00062247 48.45647208 16.31954170
9539 1 5.14339069 48.45647208 13.98817860
9540 1 7.71508604 48.45647208 13.98817860
9541 1 6.85785425 48.45647208 11.65681550
9542 1 9.42954960 48.45647208 11.65681550
9543 1 8.57231782 48.45647208 9.32545240
9544 1 11.14401316 48.45647208 9.32545240
9545 1 10.28678138 48.45647208 6.99408930
9546 1 12.85847673 48.45647208 6.99408930
9547 1 12.00124495 48.45647208 4.66272620
9548 1 14.57294029 48.45647208 4.66272620
9549 1 13.71570851 48.45647208 2.33136310
9550 1 16.28740385 48.45647208 2.33136310
9551 1 15.43017207 48.45647208 0.00000000
9552 1 18.00186742 48.45647208 -0.00000000
9553 1 0.85723178 46.43745241 26.81067565
9554 1 -0.00000000 46.43745241 24.47931255
9555 1 2.57169535 46.43745241 24.47931255
9556 1 1.71446356 46.43745241 22.14794945
9557 1 4.28615891 46.43745241 22.14794945
9558 1 3.42892713 46.43745241 19.81658635
9559 1 6.00062247 46.43745241 19.81658635
9560 1 5.14339069 46.43745241 17.48522325
9561 1 7.71508604 46.43745241 17.48522325
9562 1 6.85785425 46.43745241 15.15386015
9563 1 9.42954960 46.43745241 15.15386015
9564 1 8.57231782 46.43745241 12.82249705
9565 1 11.14401316 46.43745241 12.82249705
9566 1 10.28678138 46.43745241 10.49113395
9567 1 12.85847673 46.43745241 10.49113395
9568 1 12.00124495 46.43745241 8.15977085
9569 1 14.57294029 46.43745241 8.15977085
9570 1 13.71570851 46.43745241 5.82840775
9571 1 16.28740385 46.43745241 5.82840775
9572 1 15.43017207 46.43745241 3.49704465
9573 1 18.00186742 46.43745241 3.49704465
9574 1 17.14463564 46.43745241 1.16568155
9575 1 19.71633098 46.43745241 1.16568155
9576 1 0.85723178 44.41843274 30.30772030
9577 1 0.00000000 44.41843274 27.97635720
9578 1 2.57169535 44.41843274 27.97635720
9579 1 1.71446356 44.41843274 25.64499410
9580 1 4.28615891 44.41843274 25.64499410
9581 1 3.42892713 44.41843274 23.31363100
9582 1 6.00062247 44.41843274 23.31363100
9583 1 5.14339069 44.41843274 20.98226790
9584 1 7.71508604 44.41843274 20.98226790
9585 1 6.85785425 44.41843274 18.65090480
9586 1 9.42954960 44.41843274 18.65090480
9587 1 8.57231782 44.41843274 16.31954170
9588 1 11.14401316 44.41843274 16.31954170
9589 1 10.28678138 44.41843274 13.98817860
9590 1 12.85847673 44.41843274 13.98817860
9591 1 12.00124495 44.41843274 11.65681550
9592 1 14.57294029 44.41843274 11.65681550
9593 1 13.71570851 44.41843274 9.32545240
9594 1 16.28740385 44.41843274 9.32545240
9595 1 15.43017207 44.41843274 6.99408930
9596 1 18.00186742 44.41843274 6.99408930
9597 1 17.14463564 44.41843274 4.66272620
9598 1 19.71633098 44.41843274 4.66272620
9599 1 18.85909920 44.41843274 2.33136310
9600 1 21.43079455 44.41843274 2.33136310
9601 1 20.57356276 44.41843274 -0.00000000
9602 1 23.14525811 44.41843274 -0.00000000
9603 1 0.85723178 42.39941307 33.80476495
9604 1 -0.00000000 42.39941307 31.47340185
9605 1 2.57169535 42.39941307 31.47340185
9606 1 1.71446356 42.39941307 29.14203875
9607 1 4.28615891 42.39941307 29.14203875
9608 1 3.42892713 42.39941307 26.81067565
9609 1 6.00062247 42.39941307 26.81067565
9610 1 5.14339069 42.39941307 24.47931255
9611 2 7.71508604 42.39941307 24.47931255
9612 1 6.85785425 42.39941307 22.14794945
9613 2 9.42954960 42.39941307 22.14794945
9614 1 8.57231782 42.39941307 19.81658635
9615 1 11.14401316 42.39941307 19.81658635
9616 1 10.28678138 42.39941307 17.48522325
9617 1 12.85847673 42.39941307 17.48522325
9618 1 12.00124495 42.39941307 15.15386015
9619 1 14.57294029 42.39941307 15.15386015
9620 1 13.71570851 42.39941307 12.82249705
9621 1 16.28740385 42.39941307 12.82249705
9622 1 15.43017207 42.39941307 10.49113395
9623 1 18.00186742 42.39941307 10.49113395
9624 1 17.14463564 42.39941307 8.15977085
9625 1 19.71633098 42.39941307 8.15977085
9626 1 18.85909920 42.39941307 5.82840775
9627 1 21.43079455 42.39941307 5.82840775
9628 1 20.57356276 42.39941307 3.49704465
9629 1 23.14525811 42.39941307 3.49704465
9630 1 22.28802633 42.39941307 1.16568155
9631 1 24.85972167 42.39941307 1.16568155
9632 1 0.85723178 40.38039340 37.30180960
9633 1 0.00000000 40.38039340 34.97044650
9634 1 2.57169535 40.38039340 34.97044650
9635 1 1.71446356 40.38039340 32.63908340
9636 1 4.28615891 40.38039340 32.63908340
9637 1 3.42892713 40.38039340 30.30772030
9638 1 6.00062247 40.38039340 30.30772030
9639 2 5.14339069 40.38039340 27.97635720
9640 2 7.71508604 40.38039340 27.97635720
9641 2 6.85785425 40.38039340 25.64499410
9642 2 9.42954960 40.38039340 25.64499410
9643 2 8.57231782 40.38039340 23.31363100
9644 2 11.14401316 40.38039340 23.31363100
9645 2 10.28678138 40.38039340 20.98226790
9646 2 12.85847673 40.38039340 20.98226790
9647 2 12.00124495 40.38039340 18.65090480
9648 2 14.57294029 40.38039340 18.65090480
9649 1 13.71570851 40.38039340 16.31954170
9650 1 16.28740385 40.38039340 16.31954170
9651 1 15.43017207 40.38039340 13.98817860
9652 1 18.00186742 40.38039340 13.98817860
9653 1 17.14463564 40.38039340 11.65681550
9654 1 19.71633098 40.38039340 11.65681550
9655 1 18.85909920 40.38039340 9.32545240
9656 1 21.43079455 40.38039340 9.32545240
9657 1 20.57356276 40.38039340 6.99408930
9658 1 23.14525811 40.38039340 6.99408930
9659 1 22.28802633 40.38039340 4.66272620
9660 1 24.85972167 40.38039340 4.66272620
9661 1 24.00248989 40.38039340 2.33136310
9662 1 26.57418524 40.38039340 2.33136310
9663 1 25.71695346 40.38039340 0.00000000
9664 1 28.28864880 40.38039340 -0.00000000
9665 1 0.85723178 38.36137373 40.79885425
9666 1 -0.00000000 38.36137373 38.46749115
9667 1 2.57169535 38.36137373 38.46749115
9668 1 1.71446356 38.36137373 36.13612805
9669 1 4.28615891 38.36137373 36.13612805
9670 1 3.42892713 38.36137373 33.80476495
9671 1 6.00062247 38.36137373 33.80476495
9672 1 5.14339069 38.36137373 31.47340185
9673 2 7.71508604 38.36137373 31.47340185
9674 2 6.85785425 38.36137373 29.14203875
9675 2 9.42954960 38.36137373 29.14203875
9676 2 8.57231782 38.36137373 26.81067565
9677 2 11.14401316 38.36137373 26.81067565
9678 2 10.28678138 38.36137373 24.47931255
9679 2 12.85847673 38.36137373 24.47931255
9680 2 12.00124495 38.36137373 22.14794945
9681 2 14.57294029 38.36137373 22.14794945
9682 2 13.71570851 38.36137373 19.81658635
9683 2 16.28740385 38.36137373 19.81658635
9684 2 15.43017207 38.36137373 17.48522325
9685 2 18.00186742 38.36137373 17.48522325
9686 1 17.14463564 38.36137373 15.15386015
9687 1 19.71633098 38.36137373 15.15386015
9688 1 18.85909920 38.36137373 12.82249705
9689 1 21.43079455 38.36137373 12.82249705
9690 1 20.57356276 38.36137373 10.49113395
9691 1 23.14525811 38.36137373 10.49113395
9692 1 22.28802633 38.36137373 8.15977085
9693 1 24.85972167 38.36137373 8.15977085
9694 1 24.00248989 38.36137373 5.82840775
9695 1 26.57418524 38.36137373 5.82840775
9696 1 25.71695346 38.36137373 3.49704465
9697 1 28.28864880 38.36137373 3.49704465
9698 1 27.43141702 38.36137373 1.16568155
9699 1 30.00311236 38.36137373 1.16568155
9700 1 0.85723178 36.34235406 44.29589890
9701 1 -0.00000000 36.34235406 41.96453580
9702 1 2.57169535 36.34235406 41.96453580
9703 1 1.71446356 36.34235406 39.63317270
9704 1 4.28615891 36.34235406 39.63317270
9705 1 3.42892713 36.34235406 37.30180960
9706 1 6.00062247 36.34235406 37.30180960
9707 1 5.14339069 36.34235406 34.97044650
9708 1 7.71508604 36.34235406 34.97044650
9709 2 6.85785425 36.34235406 32.63908340
9710 2 9.42954960 36.34235406 32.63908340
9711 2 8.57231782 36.34235406 30.30772030
9712 2 11.14401316 36.34235406 30.30772030
9713 2 10.28678138 36.34235406 27.97635720
9714 2 12.85847673 36.34235406 27.97635720
9715 2 12.00124495 36.34235406 25.64499410
9716 2 14.57294029 36.34235406 25.64499410
9717 2 13.71570851 36.34235406 23.31363100
9718 2 16.28740385 36.34235406 23.31363100
9719 2 15.43017207 36.34235406 20.98226790
9720 2 18.00186742 36.34235406 20.98226790
9721 2 17.14463564 36.34235406 18.65090480
9722 2 19.71633098 36.34235406 18.65090480
9723 2 18.85909920 36.34235406 16.31954170
9724 1 21.43079455 36.34235406 16.31954170
9725 1 20.57356276 36.34235406 13.98817860
9726 1 23.14525811 36.34235406 13.98817860
9727 1 22.28802633 36.34235406 11.65681550
9728 1 24.85972167 36.34235406 11.65681550
9729 1 24.00248989 36.34235406 9.32545240
9730 1 26.57418524 36.34235406 9.32545240
9731 1 25.71695346 36.34235406 6.99408930
9732 1 28.28864880 36.34235406 6.99408930
9733 1 27.43141702 36.34235406 4.66272620
9734 1 30.00311236 36.34235406 4.66272620
9735 1 29.14588058 36.34235406 2.33136310
9736 1 31.71757593 36.34235406 2.33136310
9737 1 30.86034415 36.34235406 0.00000000
9738 1 33.43203949 36.34235406 -0.00000000
9739 1 0.85723178 34.32333439 47.79294355
9740 1 0.00000000 34.32333439 45.46158045
9741 1 2.57169535 34.32333439 45.46158045
9742 1 1.71446356 34.32333439 43.13021735
9743 1 4.28615891 34.32333439 43.13021735
9744 1 3.42892713 34.32333439 40.79885425
9745 1 6.00062247 34.32333439 40.79885425
9746 1 5.14339069 34.32333439 38.46749115
9747 1 7.71508604 34.32333439 38.46749115
9748 1 6.85785425 34.32333439 36.13612805
9749 1 9.42954960 34.32333439 36.13612805
9750 2 8.57231782 34.32333439 33.80476495
9751 2 11.14401316 34.32333439 33.80476495
9752 2 10.28678138 34.32333439 31.47340185
9753 2 12.85847673 34.32333439 31.47340185
9754 2 12.00124495 34.32333439 29.14203875
9755 2 14.57294029 34.32333439 29.14203875
9756 2 13.71570851 34.32333439 26.81067565
9757 2 16.28740385 34.32333439 26.81067565
9758 2 15.43017207 34.32333439 24.47931255
9759 2 18.00186742 34.32333439 24.47931255
9760 2 17.14463564 34.32333439 22.14794945
9761 2 19.71633098 34.32333439 22.14794945
9762 2 18.85909920 34.32333439 19.81658635
9763 2 21.43079455 34.32333439 19.81658635
9764 2 20.57356276 34.32333439 17.48522325
9765 1 23.14525811 34.32333439 17.48522325
9766 1 22.28802633 34.32333439 15.15386015
9767 1 24.85972167 34.32333439 15.15386015
9768 1 24.00248989 34.32333439 12.82249705
9769 1 26.57418524 34.32333439 12.82249705
9770 1 25.71695346 34.32333439 10.49113395
9771 1 28.28864880 34.32333439 10.49113395
9772 1 27.43141702 34.32333439 8.15977085
9773 1 30.00311236 34.32333439 8.15977085
9774 1 29.14588058 34.32333439 5.82840775
9775 1 31.71757593 34.32333439 5.82840775
9776 1 30.86034415 34.32333439 3.49704465
9777 1 33.43203949 34.32333439 3.49704465
9778 1 32.57480771 34.32333439 1.16568155
9779 1 35.14650306 34.32333439 1.16568155
9780 1 1.71446356 32.30431472 46.62726200
9781 1 4.28615891 32.30431472 46.62726200
9782 1 3.42892713 32.30431472 44.29589890
9783 1 6.00062247 32.30431472 44.29589890
9784 1 5.14339069 32.30431472 41.96453580
9785 1 7.71508604 32.30431472 41.96453580
9786 1 6.85785425 32.30431472 39.63317270
9787 1 9.42954960 32.30431472 39.63317270
9788 1 8.57231782 32.30431472 37.30180960
9789 1 11.14401316 32.30431472 37.30180960
9790 2 10.28678138 32.30431472 34.97044650
9791 2 12.85847673 32.30431472 34.97044650
9792 2 12.00124495 32.30431472 32.63908340
9793 2 14.57294029 32.30431472 32.63908340
9794 2 13.71570851 32.30431472 30.30772030
9795 2 16.28740385 32.30431472 30.30772030
9796 2 15.43017207 32.30431472 27.97635720
9797 2 18.00186742 32.30431472 27.97635720
9798 2 17.14463564 32.30431472 25.64499410
9799 2 19.71633098 32.30431472 25.64499410
9800 2 18.85909920 32.30431472 23.31363100
9801 2 21.43079455 32.30431472 23.31363100
9802 2 20.57356276 32.30431472 20.98226790
9803 2 23.14525811 32.30431472 20.98226790
9804 2 22.28802633 32.30431472 18.65090480
9805 1 24.85972167 32.30431472 18.65090480
9806 1 24.00248989 32.30431472 16.31954170
9807 1 26.57418524 32.30431472 16.31954170
9808 1 25.71695346 32.30431472 13.98817860
9809 1 28.28864880 32.30431472 13.98817860
9810 1 27.43141702 32.30431472 11.65681550
9811 1 30.00311236 32.30431472 11.65681550
9812 1 29.14588058 32.30431472 9.32545240
9813 1 31.71757593 32.30431472 9.32545240
9814 1 30.86034415 32.30431472 6.99408930
9815 1 33.43203949 32.30431472 6.99408930
9816 1 32.57480771 32.30431472 4.66272620
9817 1 35.14650306 32.30431472 4.66272620
9818 1 34.28927127 32.30431472 2.33136310
9819 1 36.86096662 32.30431472 2.33136310
9820 1 36.00373484 32.30431472 0.00000000
9821 1 38.57543018 32.30431472 -0.00000000
9822 1 0.85723178 62.58960977 5.82840775
9823 1 0.00000000 62.58960977 3.49704465
9824 1 2.57169535 62.58960977 3.49704465
9825 1 1.71446356 62.58960977 1.16568155
9826 1 4.28615891 62.58960977 1.16568155
9827 1 0.85723178 60.57059010 9.32545240
9828 1 0.00000000 60.57059010 6.99408930
9829 1 2.57169535 60.57059010 6.99408930
9830 1 1.71446356 60.57059010 4.66272620
9831 1 4.28615891 60.57059010 4.66272620
9832 1 3.42892713 60.57059010 2.33136310
9833 1 6.00062247 60.57059010 2.33136310
9834 1 5.14339069 60.57059010 0.00000000
9835 1 7.71508604 60.57059010 0.00000000
9836 1 0.85723178 58.55157043 12.82249705
9837 1 -0.00000000 58.55157043 10.49113395
9838 1 2.57169535 58.55157043 10.49113395
9839 1 1.71446356 58.55157043 8.15977085
9840 1 4.28615891 58.55157043 8.15977085
9841 1 3.42892713 58.55157043 5.82840775
9842 1 6.00062247 58.55157043 5.82840775
9843 1 5.14339069 58.55157043 3.49704465
9844 1 7.71508604 58.55157043 3.49704465
9845 1 6.85785425 58.55157043 1.16568155
9846 1 9.42954960 58.55157043 1.16568155
9847 1 0.85723178 56.53255076 16.31954170
9848 1 0.00000000 56.53255076 13.98817860
9849 1 2.57169535 56.53255076 13.98817860
9850 1 1.71446356 56.53255076 11.65681550
9851 1 4.28615891 56.53255076 11.65681550
9852 1 3.42892713 56.53255076 9.32545240
9853 1 6.00062247 56.53255076 9.32545240
9854 1 5.14339069 56.53255076 6.99408930
9855 1 7.71508604 56.53255076 6.99408930
9856 1 6.85785425 56.53255076 4.66272620
9857 1 9.42954960 56.53255076 4.66272620
9858 1 8.57231782 56.53255076 2.33136310
9859 1 11.14401316 56.53255076 2.33136310
9860 1 10.28678138 56.53255076 -0.00000000
9861 1 12.85847673 56.53255076 0.00000000
9862 1 0.85723178 54.51353109 19.81658635
9863 1 0.00000000 54.51353109 17.48522325
9864 1 2.57169535 54.51353109 17.48522325
9865 1 1.71446356 54.51353109 15.15386015
9866 1 4.28615891 54.51353109 15.15386015
9867 1 3.42892713 54.51353109 12.82249705
9868 1 6.00062247 54.51353109 12.82249705
9869 1 5.14339069 54.51353109 10.49113395
9870 1 7.71508604 54.51353109 10.49113395
9871 1 6.85785425 54.51353109 8.15977085
9872 1 9.42954960 54.51353109 8.15977085
9873 1 8.57231782 54.51353109 5.82840775
9874 1 11.14401316 54.51353109 5.82840775
9875 1 10.28678138 54.51353109 3.49704465
9876 1 12.85847673 54.51353109 3.49704465
9877 1 12.00124495 54.51353109 1.16568155
9878 1 14.57294029 54.51353109 1.16568155
9879 1 0.85723178 52.49451142 23.31363100
9880 1 0.00000000 52.49451142 20.98226790
9881 1 2.57169535 52.49451142 20.98226790
9882 1 1.71446356 52.49451142 18.65090480
9883 1 4.28615891 52.49451142 18.65090480
9884 1 3.42892713 52.49451142 16.31954170
9885 1 6.00062247 52.49451142 16.31954170
9886 1 5.14339069 52.49451142 13.98817860
9887 1 7.71508604 52.49451142 13.98817860
9888 1 6.85785425 52.49451142 11.65681550
9889 1 9.42954960 52.49451142 11.65681550
9890 1 8.57231782 52.49451142 9.32545240
9891 1 11.14401316 52.49451142 9.32545240
9892 1 10.28678138 52.49451142 6.99408930
9893 1 12.85847673 52.49451142 6.99408930
9894 1 12.00124495 52.49451142 4.66272620
9895 1 14.57294029 52.49451142 4.66272620
9896 1 13.71570851 52.49451142 2.33136310
9897 1 16.28740385 52.49451142 2.33136310
9898 1 15.43017207 52.49451142 0.00000000
9899 1 18.00186742 52.49451142 0.00000000
9900 1 0.85723178 50.47549175 26.81067565
9901 1 -0.00000000 50.47549175 24.47931255
9902 1 2.57169535 50.47549175 24.47931255
9903 1 1.71446356 50.47549175 22.14794945
9904 1 4.28615891 50.47549175 22.14794945
9905 1 3.42892713 50.47549175 19.81658635
9906 1 6.00062247 50.47549175 19.81658635
9907 1 5.14339069 50.47549175 17.48522325
9908 1 7.71508604 50.47549175 17.48522325
9909 1 6.85785425 50.47549175 15.15386015
9910 1 9.42954960 50.47549175 15.15386015
9911 1 8.57231782 50.47549175 12.82249705
9912 1 11.14401316 50.47549175 12.82249705
9913 1 10.28678138 50.47549175 10.49113395
9914 1 12.85847673 50.47549175 10.49113395
9915 1 12.00124495 50.47549175 8.15977085
9916 1 14.57294029 50.47549175 8.15977085
9917 1 13.71570851 50.47549175 5.82840775
9918 1 16.28740385 50.47549175 5.82840775
9919 1 15.43017207 50.47549175 3.49704465
9920 1 18.00186742 50.47549175 3.49704465
9921 1 17.14463564 50.47549175 1.16568155
9922 1 19.71633098 50.47549175 1.16568155
9923 1 0.85723178 48.45647208 30.30772030
9924 1 0.00000000 48.45647208 27.97635720
9925 1 2.57169535 48.45647208 27.97635720
9926 1 1.71446356 48.45647208 25.64499410
9927 1 4.28615891 48.45647208 25.64499410
9928 1 3.42892713 48.45647208 23.31363100
9929 1 6.00062247 48.45647208 23.31363100
9930 1 5.14339069 48.45647208 20.98226790
9931 1 7.71508604 48.45647208 20.98226790
9932 1 6.85785425 48.45647208 18.65090480
9933 1 9.42954960 48.45647208 18.65090480
9934 1 8.57231782 48.45647208 16.31954170
9935 1 11.14401316 48.45647208 16.31954170
9936 1 10.28678138 48.45647208 13.98817860
9937 1 12.85847673 48.45647208 13.98817860
9938 1 12.00124495 48.45647208 11.65681550
9939 1 14.57294029 48.45647208 11.65681550
9940 1 13.71570851 48.45647208 9.32545240
9941 1 16.28740385 48.45647208 9.32545240
9942 1 15.43017207 48.45647208 6.99408930
9943 1 18.00186742 48.45647208 6.99408930
9944 1 17.14463564 48.45647208 4.66272620
9945 1 19.71633098 48.45647208 4.66272620
9946 1 18.85909920 48.45647208 2.33136310
9947 1 21.43079455 48.45647208 2.33136310
9948 1 20.57356276 48.45647208 -0.00000000
9949 1 23.14525811 48.45647208 0.00000000
9950 1 0.85723178 46.43745241 33.80476495
9951 1 0.00000000 46.43745241 31.47340185
9952 1 2.57169535 46.43745241 31.47340185
9953 1 1.71446356 46.43745241 29.14203875
9954 1 4.28615891 46.43745241 29.14203875
9955 1 3.42892713 46.43745241 26.81067565
9956 1 6.00062247 46.43745241 26.81067565
9957 1 5.14339069 46.43745241 24.47931255
9958 1 7.71508604 46.43745241 24.47931255
9959 1 6.85785425 46.43745241 22.14794945
9960 1 9.42954960 46.43745241 22.14794945
9961 1 8.57231782 46.43745241 19.81658635
9962 1 11.14401316 46.43745241 19.81658635
9963 1 10.28678138 46.43745241 17.48522325
9964 1 12.85847673 46.43745241 17.48522325
9965 1 12.00124495 46.43745241 15.15386015
9966 1 14.57294029 46.43745241 15.15386015
9967 1 13.71570851 46.43745241 12.82249705
9968 1 16.28740385 46.43745241 12.82249705
9969 1 15.43017207 46.43745241 10.49113395
9970 1 18.00186742 46.43745241 10.49113395
9971 1 17.14463564 46.43745241 8.15977085
9972 1 19.71633098 46.43745241 8.15977085
9973 1 18.85909920 46.43745241 5.82840775
9974 1 21.43079455 46.43745241 5.82840775
9975 1 20.57356276 46.43745241 3.49704465
9976 1 23.14525811 46.43745241 3.49704465
9977 1 22.28802633 46.43745241 1.16568155
9978 1 24.85972167 46.43745241 1.16568155
9979 1 0.85723178 44.41843274 37.30180960
9980 1 0.00000000 44.41843274 34.97044650
9981 1 2.57169535 44.41843274 34.97044650
9982 1 1.71446356 44.41843274 32.63908340
9983 1 4.28615891 44.41843274 32.63908340
9984 1 3.42892713 44.41843274 30.30772030
9985 1 6.00062247 44.41843274 30.30772030
9986 1 5.14339069 44.41843274 27.97635720
9987 1 7.71508604 44.41843274 27.97635720
9988 1 6.85785425 44.41843274 25.64499410
9989 1 9.42954960 44.41843274 25.64499410
9990 1 8.57231782 44.41843274 23.31363100
9991 1 11.14401316 44.41843274 23.31363100
9992 1 10.28678138 44.41843274 20.98226790
9993 1 12.85847673 44.41843274 20.98226790
9994 1 12.00124495 44.41843274 18.65090480
9995 1 14.57294029 44.41843274 18.65090480
9996 1 13.71570851 44.41843274 16.31954170
9997 1 16.28740385 44.41843274 16.31954170
9998 1 15.43017207 44.41843274 13.98817860
9999 1 18.00186742 44.41843274 13.98817860
10000 1 17.14463564 44.41843274 11.65681550
10001 1 19.71633098 44.41843274 11.65681550
10002 1 18.85909920 44.41843274 9.32545240
10003 1 21.43079455 44.41843274 9.32545240
10004 1 20.57356276 44.41843274 6.99408930
10005 1 23.14525811 44.41843274 6.99408930
10006 1 22.28802633 44.41843274 4.66272620
10007 1 24.85972167 44.41843274 4.66272620
10008 1 24.00248989 44.41843274 2.33136310
10009 1 26.57418524 44.41843274 2.33136310
10010 1 25.71695346 44.41843274 0.00000000
10011 1 28.28864880 44.41843274 -0.00000000
10012 1 0.85723178 42.39941307 40.79885425
10013 1 -0.00000000 42.39941307 38.46749115
10014 1 2.57169535 42.39941307 38.46749115
10015 1 1.71446356 42.39941307 36.13612805
10016 1 4.28615891 42.39941307 36.13612805
10017 1 3.42892713 42.39941307 33.80476495
10018 1 6.00062247 42.39941307 33.80476495
10019 1 5.14339069 42.39941307 31.47340185
10020 1 7.71508604 42.39941307 31.47340185
10021 1 6.85785425 42.39941307 29.14203875
10022 1 9.42954960 42.39941307 29.14203875
10023 2 8.57231782 42.39941307 26.81067565
10024 2 11.14401316 42.39941307 26.81067565
10025 2 10.28678138 42.39941307 24.47931255
10026 2 12.85847673 42.39941307 24.47931255
10027 2 12.00124495 42.39941307 22.14794945
10028 2 14.57294029 42.39941307 22.14794945
10029 1 13.71570851 42.39941307 19.81658635
10030 1 16.28740385 42.39941307 19.81658635
10031 1 15.43017207 42.39941307 17.48522325
10032 1 18.00186742 42.39941307 17.48522325
10033 1 17.14463564 42.39941307 15.15386015
10034 1 19.71633098 42.39941307 15.15386015
10035 1 18.85909920 42.39941307 12.82249705
10036 1 21.43079455 42.39941307 12.82249705
10037 1 20.57356276 42.39941307 10.49113395
10038 1 23.14525811 42.39941307 10.49113395
10039 1 22.28802633 42.39941307 8.15977085
10040 1 24.85972167 42.39941307 8.15977085
10041 1 24.00248989 42.39941307 5.82840775
10042 1 26.57418524 42.39941307 5.82840775
10043 1 25.71695346 42.39941307 3.49704465
10044 1 28.28864880 42.39941307 3.49704465
10045 1 27.43141702 42.39941307 1.16568155
10046 1 30.00311236 42.39941307 1.16568155
10047 1 0.85723178 40.38039340 44.29589890
10048 1 -0.00000000 40.38039340 41.96453580
10049 1 2.57169535 40.38039340 41.96453580
10050 1 1.71446356 40.38039340 39.63317270
10051 1 4.28615891 40.38039340 39.63317270
10052 1 3.42892713 40.38039340 37.30180960
10053 1 6.00062247 40.38039340 37.30180960
10054 1 5.14339069 40.38039340 34.97044650
10055 1 7.71508604 40.38039340 34.97044650
10056 1 6.85785425 40.38039340 32.63908340
10057 1 9.42954960 40.38039340 32.63908340
10058 2 8.57231782 40.38039340 30.30772030
10059 2 11.14401316 40.38039340 30.30772030
10060 2 10.28678138 40.38039340 27.97635720
10061 2 12.85847673 40.38039340 27.97635720
10062 2 12.00124495 40.38039340 25.64499410
10063 2 14.57294029 40.38039340 25.64499410
10064 2 13.71570851 40.38039340 23.31363100
10065 2 16.28740385 40.38039340 23.31363100
10066 2 15.43017207 40.38039340 20.98226790
10067 2 18.00186742 40.38039340 20.98226790
10068 2 17.14463564 40.38039340 18.65090480
10069 1 19.71633098 40.38039340 18.65090480
10070 1 18.85909920 40.38039340 16.31954170
10071 1 21.43079455 40.38039340 16.31954170
10072 1 20.57356276 40.38039340 13.98817860
10073 1 23.14525811 40.38039340 13.98817860
10074 1 22.28802633 40.38039340 11.65681550
10075 1 24.85972167 40.38039340 11.65681550
10076 1 24.00248989 40.38039340 9.32545240
10077 1 26.57418524 40.38039340 9.32545240
10078 1 25.71695346 40.38039340 6.99408930
10079 1 28.28864880 40.38039340 6.99408930
10080 1 27.43141702 40.38039340 4.66272620
10081 1 30.00311236 40.38039340 4.66272620
10082 1 29.14588058 40.38039340 2.33136310
10083 1 31.71757593 40.38039340 2.33136310
10084 1 30.86034415 40.38039340 0.00000000
10085 1 33.43203949 40.38039340 0.00000000
10086 1 0.85723178 38.36137373 47.79294355
10087 1 0.00000000 38.36137373 45.46158045
10088 1 2.57169535 38.36137373 45.46158045
10089 1 1.71446356 38.36137373 43.13021735
10090 1 4.28615891 38.36137373 43.13021735
10091 1 3.42892713 38.36137373 40.79885425
10092 1 6.00062247 38.36137373 40.79885425
10093 1 5.14339069 38.36137373 38.46749115
10094 1 7.71508604 38.36137373 38.46749115
10095 1 6.85785425 38.36137373 36.13612805
10096 1 9.42954960 38.36137373 36.13612805
10097 1 8.57231782 38.36137373 33.80476495
10098 2 11.14401316 38.36137373 33.80476495
10099 2 10.28678138 38.36137373 31.47340185
10100 2 12.85847673 38.36137373 31.47340185
10101 2 12.00124495 38.36137373 29.14203875
10102 2 14.57294029 38.36137373 29.14203875
10103 2 13.71570851 38.36137373 26.81067565
10104 2 16.28740385 38.36137373 26.81067565
10105 2 15.43017207 38.36137373 24.47931255
10106 2 18.00186742 38.36137373 24.47931255
10107 2 17.14463564 38.36137373 22.14794945
10108 2 19.71633098 38.36137373 22.14794945
10109 2 18.85909920 38.36137373 19.81658635
10110 1 21.43079455 38.36137373 19.81658635
10111 1 20.57356276 38.36137373 17.48522325
10112 1 23.14525811 38.36137373 17.48522325
10113 1 22.28802633 38.36137373 15.15386015
10114 1 24.85972167 38.36137373 15.15386015
10115 1 24.00248989 38.36137373 12.82249705
10116 1 26.57418524 38.36137373 12.82249705
10117 1 25.71695346 38.36137373 10.49113395
10118 1 28.28864880 38.36137373 10.49113395
10119 1 27.43141702 38.36137373 8.15977085
10120 1 30.00311236 38.36137373 8.15977085
10121 1 29.14588058 38.36137373 5.82840775
10122 1 31.71757593 38.36137373 5.82840775
10123 1 30.86034415 38.36137373 3.49704465
10124 1 33.43203949 38.36137373 3.49704465
10125 1 32.57480771 38.36137373 1.16568155
10126 1 35.14650306 38.36137373 1.16568155
10127 1 1.71446356 36.34235406 46.62726200
10128 1 4.28615891 36.34235406 46.62726200
10129 1 3.42892713 36.34235406 44.29589890
10130 1 6.00062247 36.34235406 44.29589890
10131 1 5.14339069 36.34235406 41.96453580
10132 1 7.71508604 36.34235406 41.96453580
10133 1 6.85785425 36.34235406 39.63317270
10134 1 9.42954960 36.34235406 39.63317270
10135 1 8.57231782 36.34235406 37.30180960
10136 1 11.14401316 36.34235406 37.30180960
10137 2 10.28678138 36.34235406 34.97044650
10138 2 12.85847673 36.34235406 34.97044650
10139 2 12.00124495 36.34235406 32.63908340
10140 2 14.57294029 36.34235406 32.63908340
10141 2 13.71570851 36.34235406 30.30772030
10142 2 16.28740385 36.34235406 30.30772030
10143 2 15.43017207 36.34235406 27.97635720
10144 2 18.00186742 36.34235406 27.97635720
10145 2 17.14463564 36.34235406 25.64499410
10146 2 19.71633098 36.34235406 25.64499410
10147 2 18.85909920 36.34235406 23.31363100
10148 2 21.43079455 36.34235406 23.31363100
10149 2 20.57356276 36.34235406 20.98226790
10150 1 23.14525811 36.34235406 20.98226790
10151 1 22.28802633 36.34235406 18.65090480
10152 1 24.85972167 36.34235406 18.65090480
10153 1 24.00248989 36.34235406 16.31954170
10154 1 26.57418524 36.34235406 16.31954170
10155 1 25.71695346 36.34235406 13.98817860
10156 1 28.28864880 36.34235406 13.98817860
10157 1 27.43141702 36.34235406 11.65681550
10158 1 30.00311236 36.34235406 11.65681550
10159 1 29.14588058 36.34235406 9.32545240
10160 1 31.71757593 36.34235406 9.32545240
10161 1 30.86034415 36.34235406 6.99408930
10162 1 33.43203949 36.34235406 6.99408930
10163 1 32.57480771 36.34235406 4.66272620
10164 1 35.14650306 36.34235406 4.66272620
10165 1 34.28927127 36.34235406 2.33136310
10166 1 36.86096662 36.34235406 2.33136310
10167 1 36.00373484 36.34235406 0.00000000
10168 1 38.57543018 36.34235406 0.00000000
10169 1 3.42892713 34.32333439 47.79294355
10170 1 6.00062247 34.32333439 47.79294355
10171 1 5.14339069 34.32333439 45.46158045
10172 1 7.71508604 34.32333439 45.46158045
10173 1 6.85785425 34.32333439 43.13021735
10174 1 9.42954960 34.32333439 43.13021735
10175 1 8.57231782 34.32333439 40.79885425
10176 1 11.14401316 34.32333439 40.79885425
10177 1 10.28678138 34.32333439 38.46749115
10178 1 12.85847673 34.32333439 38.46749115
10179 1 12.00124495 34.32333439 36.13612805
10180 1 14.57294029 34.32333439 36.13612805
10181 2 13.71570851 34.32333439 33.80476495
10182 2 16.28740385 34.32333439 33.80476495
10183 2 15.43017207 34.32333439 31.47340185
10184 2 18.00186742 34.32333439 31.47340185
10185 2 17.14463564 34.32333439 29.14203875
10186 2 19.71633098 34.32333439 29.14203875
10187 2 18.85909920 34.32333439 26.81067565
10188 2 21.43079455 34.32333439 26.81067565
10189 2 20.57356276 34.32333439 24.47931255
10190 2 23.14525811 34.32333439 24.47931255
10191 2 22.28802633 34.32333439 22.14794945
10192 1 24.85972167 34.32333439 22.14794945
10193 1 24.00248989 34.32333439 19.81658635
10194 1 26.57418524 34.32333439 19.81658635
10195 1 25.71695346 34.32333439 17.48522325
10196 1 28.28864880 34.32333439 17.48522325
10197 1 27.43141702 34.32333439 15.15386015
10198 1 30.00311236 34.32333439 15.15386015
10199 1 29.14588058 34.32333439 12.82249705
10200 1 31.71757593 34.32333439 12.82249705
10201 1 30.86034415 34.32333439 10.49113395
10202 1 33.43203949 34.32333439 10.49113395
10203 1 32.57480771 34.32333439 8.15977085
10204 1 35.14650306 34.32333439 8.15977085
10205 1 34.28927127 34.32333439 5.82840775
10206 1 36.86096662 34.32333439 5.82840775
10207 1 36.00373484 34.32333439 3.49704465
10208 1 38.57543018 34.32333439 3.49704465
10209 1 37.71819840 34.32333439 1.16568155
10210 1 40.28989375 34.32333439 1.16568155
10211 1 6.85785425 32.30431472 46.62726200
10212 1 9.42954960 32.30431472 46.62726200
10213 1 8.57231782 32.30431472 44.29589890
10214 1 11.14401316 32.30431472 44.29589890
10215 1 10.28678138 32.30431472 41.96453580
10216 1 12.85847673 32.30431472 41.96453580
10217 1 12.00124495 32.30431472 39.63317270
10218 1 14.57294029 32.30431472 39.63317270
10219 1 13.71570851 32.30431472 37.30180960
10220 1 16.28740385 32.30431472 37.30180960
10221 2 15.43017207 32.30431472 34.97044650
10222 1 18.00186742 32.30431472 34.97044650
10223 2 17.14463564 32.30431472 32.63908340
10224 2 19.71633098 32.30431472 32.63908340
10225 2 18.85909920 32.30431472 30.30772030
10226 2 21.43079455 32.30431472 30.30772030
10227 2 20.57356276 32.30431472 27.97635720
10228 2 23.14525811 32.30431472 27.97635720
10229 2 22.28802633 32.30431472 25.64499410
10230 1 24.85972167 32.30431472 25.64499410
10231 1 24.00248989 32.30431472 23.31363100
10232 1 26.57418524 32.30431472 23.31363100
10233 1 25.71695346 32.30431472 20.98226790
10234 1 28.28864880 32.30431472 20.98226790
10235 1 27.43141702 32.30431472 18.65090480
10236 1 30.00311236 32.30431472 18.65090480
10237 1 29.14588058 32.30431472 16.31954170
10238 1 31.71757593 32.30431472 16.31954170
10239 1 30.86034415 32.30431472 13.98817860
10240 1 33.43203949 32.30431472 13.98817860
10241 1 32.57480771 32.30431472 11.65681550
10242 1 35.14650306 32.30431472 11.65681550
10243 1 34.28927127 32.30431472 9.32545240
10244 1 36.86096662 32.30431472 9.32545240
10245 1 36.00373484 32.30431472 6.99408930
10246 1 38.57543018 32.30431472 6.99408930
10247 1 37.71819840 32.30431472 4.66272620
10248 1 40.28989375 32.30431472 4.66272620
10249 1 39.43266196 32.30431472 2.33136310
10250 1 42.00435731 32.30431472 2.33136310
10251 1 41.14712553 32.30431472 -0.00000000
10252 1 43.71882087 32.30431472 0.00000000
10253 1 0.85723178 62.58960977 12.82249705
10254 1 0.00000000 62.58960977 10.49113395
10255 1 2.57169535 62.58960977 10.49113395
10256 1 1.71446356 62.58960977 8.15977085
10257 1 4.28615891 62.58960977 8.15977085
10258 1 3.42892713 62.58960977 5.82840775
10259 1 6.00062247 62.58960977 5.82840775
10260 1 5.14339069 62.58960977 3.49704465
10261 1 7.71508604 62.58960977 3.49704465
10262 1 6.85785425 62.58960977 1.16568155
10263 1 9.42954960 62.58960977 1.16568155
10264 1 0.85723178 60.57059010 16.31954170
10265 1 0.00000000 60.57059010 13.98817860
10266 1 2.57169535 60.57059010 13.98817860
10267 1 1.71446356 60.57059010 11.65681550
10268 1 4.28615891 60.57059010 11.65681550
10269 1 3.42892713 60.57059010 9.32545240
10270 1 6.00062247 60.57059010 9.32545240
10271 1 5.14339069 60.57059010 6.99408930
10272 1 7.71508604 60.57059010 6.99408930
10273 1 6.85785425 60.57059010 4.66272620
10274 1 9.42954960 60.57059010 4.66272620
10275 1 8.57231782 60.57059010 2.33136310
10276 1 11.14401316 60.57059010 2.33136310
10277 1 10.28678138 60.57059010 -0.00000000
10278 1 12.85847673 60.57059010 0.00000000
10279 1 0.85723178 58.55157043 19.81658635
10280 1 0.00000000 58.55157043 17.48522325
10281 1 2.57169535 58.55157043 17.48522325
10282 1 1.71446356 58.55157043 15.15386015
10283 1 4.28615891 58.55157043 15.15386015
10284 1 3.42892713 58.55157043 12.82249705
10285 1 6.00062247 58.55157043 12.82249705
10286 1 5.14339069 58.55157043 10.49113395
10287 1 7.71508604 58.55157043 10.49113395
10288 1 6.85785425 58.55157043 8.15977085
10289 1 9.42954960 58.55157043 8.15977085
10290 1 8.57231782 58.55157043 5.82840775
10291 1 11.14401316 58.55157043 5.82840775
10292 1 10.28678138 58.55157043 3.49704465
10293 1 12.85847673 58.55157043 3.49704465
10294 1 12.00124495 58.55157043 1.16568155
10295 1 14.57294029 58.55157043 1.16568155
10296 1 0.85723178 56.53255076 23.31363100
10297 1 0.00000000 56.53255076 20.98226790
10298 1 2.57169535 56.53255076 20.98226790
10299 1 1.71446356 56.53255076 18.65090480
10300 1 4.28615891 56.53255076 18.65090480
10301 1 3.42892713 56.53255076 16.31954170
10302 1 6.00062247 56.53255076 16.31954170
10303 1 5.14339069 56.53255076 13.98817860
10304 1 7.71508604 56.53255076 13.98817860
10305 1 6.85785425 56.53255076 11.65681550
10306 1 9.42954960 56.53255076 11.65681550
10307 1 8.57231782 56.53255076 9.32545240
10308 1 11.14401316 56.53255076 9.32545240
10309 1 10.28678138 56.53255076 6.99408930
10310 1 12.85847673 56.53255076 6.99408930
10311 1 12.00124495 56.53255076 4.66272620
10312 1 14.57294029 56.53255076 4.66272620
10313 1 13.71570851 56.53255076 2.33136310
10314 1 16.28740385 56.53255076 2.33136310
10315 1 15.43017207 56.53255076 0.00000000
10316 1 18.00186742 56.53255076 0.00000000
10317 1 0.85723178 54.51353109 26.81067565
10318 1 0.00000000 54.51353109 24.47931255
10319 1 2.57169535 54.51353109 24.47931255
10320 1 1.71446356 54.51353109 22.14794945
10321 1 4.28615891 54.51353109 22.14794945
10322 1 3.42892713 54.51353109 19.81658635
10323 1 6.00062247 54.51353109 19.81658635
10324 1 5.14339069 54.51353109 17.48522325
10325 1 7.71508604 54.51353109 17.48522325
10326 1 6.85785425 54.51353109 15.15386015
10327 1 9.42954960 54.51353109 15.15386015
10328 1 8.57231782 54.51353109 12.82249705
10329 1 11.14401316 54.51353109 12.82249705
10330 1 10.28678138 54.51353109 10.49113395
10331 1 12.85847673 54.51353109 10.49113395
10332 1 12.00124495 54.51353109 8.15977085
10333 1 14.57294029 54.51353109 8.15977085
10334 1 13.71570851 54.51353109 5.82840775
10335 1 16.28740385 54.51353109 5.82840775
10336 1 15.43017207 54.51353109 3.49704465
10337 1 18.00186742 54.51353109 3.49704465
10338 1 17.14463564 54.51353109 1.16568155
10339 1 19.71633098 54.51353109 1.16568155
10340 1 0.85723178 52.49451142 30.30772030
10341 1 0.00000000 52.49451142 27.97635720
10342 1 2.57169535 52.49451142 27.97635720
10343 1 1.71446356 52.49451142 25.64499410
10344 1 4.28615891 52.49451142 25.64499410
10345 1 3.42892713 52.49451142 23.31363100
10346 1 6.00062247 52.49451142 23.31363100
10347 1 5.14339069 52.49451142 20.98226790
10348 1 7.71508604 52.49451142 20.98226790
10349 1 6.85785425 52.49451142 18.65090480
10350 1 9.42954960 52.49451142 18.65090480
10351 1 8.57231782 52.49451142 16.31954170
10352 1 11.14401316 52.49451142 16.31954170
10353 1 10.28678138 52.49451142 13.98817860
10354 1 12.85847673 52.49451142 13.98817860
10355 1 12.00124495 52.49451142 11.65681550
10356 1 14.57294029 52.49451142 11.65681550
10357 1 13.71570851 52.49451142 9.32545240
10358 1 16.28740385 52.49451142 9.32545240
10359 1 15.43017207 52.49451142 6.99408930
10360 1 18.00186742 52.49451142 6.99408930
10361 1 17.14463564 52.49451142 4.66272620
10362 1 19.71633098 52.49451142 4.66272620
10363 1 18.85909920 52.49451142 2.33136310
10364 1 21.43079455 52.49451142 2.33136310
10365 1 20.57356276 52.49451142 -0.00000000
10366 1 23.14525811 52.49451142 -0.00000000
10367 1 0.85723178 50.47549175 33.80476495
10368 1 0.00000000 50.47549175 31.47340185
10369 1 2.57169535 50.47549175 31.47340185
10370 1 1.71446356 50.47549175 29.14203875
10371 1 4.28615891 50.47549175 29.14203875
10372 1 3.42892713 50.47549175 26.81067565
10373 1 6.00062247 50.47549175 26.81067565
10374 1 5.14339069 50.47549175 24.47931255
10375 1 7.71508604 50.47549175 24.47931255
10376 1 6.85785425 50.47549175 22.14794945
10377 1 9.42954960 50.47549175 22.14794945
10378 1 8.57231782 50.47549175 19.81658635
10379 1 11.14401316 50.47549175 19.81658635
10380 1 10.28678138 50.47549175 17.48522325
10381 1 12.85847673 50.47549175 17.48522325
10382 1 12.00124495 50.47549175 15.15386015
10383 1 14.57294029 50.47549175 15.15386015
10384 1 13.71570851 50.47549175 12.82249705
10385 1 16.28740385 50.47549175 12.82249705
10386 1 15.43017207 50.47549175 10.49113395
10387 1 18.00186742 50.47549175 10.49113395
10388 1 17.14463564 50.47549175 8.15977085
10389 1 19.71633098 50.47549175 8.15977085
10390 1 18.85909920 50.47549175 5.82840775
10391 1 21.43079455 50.47549175 5.82840775
10392 1 20.57356276 50.47549175 3.49704465
10393 1 23.14525811 50.47549175 3.49704465
10394 1 22.28802633 50.47549175 1.16568155
10395 1 24.85972167 50.47549175 1.16568155
10396 1 0.85723178 48.45647208 37.30180960
10397 1 0.00000000 48.45647208 34.97044650
10398 1 2.57169535 48.45647208 34.97044650
10399 1 1.71446356 48.45647208 32.63908340
10400 1 4.28615891 48.45647208 32.63908340
10401 1 3.42892713 48.45647208 30.30772030
10402 1 6.00062247 48.45647208 30.30772030
10403 1 5.14339069 48.45647208 27.97635720
10404 1 7.71508604 48.45647208 27.97635720
10405 1 6.85785425 48.45647208 25.64499410
10406 1 9.42954960 48.45647208 25.64499410
10407 1 8.57231782 48.45647208 23.31363100
10408 1 11.14401316 48.45647208 23.31363100
10409 1 10.28678138 48.45647208 20.98226790
10410 1 12.85847673 48.45647208 20.98226790
10411 1 12.00124495 48.45647208 18.65090480
10412 1 14.57294029 48.45647208 18.65090480
10413 1 13.71570851 48.45647208 16.31954170
10414 1 16.28740385 48.45647208 16.31954170
10415 1 15.43017207 48.45647208 13.98817860
10416 1 18.00186742 48.45647208 13.98817860
10417 1 17.14463564 48.45647208 11.65681550
10418 1 19.71633098 48.45647208 11.65681550
10419 1 18.85909920 48.45647208 9.32545240
10420 1 21.43079455 48.45647208 9.32545240
10421 1 20.57356276 48.45647208 6.99408930
10422 1 23.14525811 48.45647208 6.99408930
10423 1 22.28802633 48.45647208 4.66272620
10424 1 24.85972167 48.45647208 4.66272620
10425 1 24.00248989 48.45647208 2.33136310
10426 1 26.57418524 48.45647208 2.33136310
10427 1 25.71695346 48.45647208 -0.00000000
10428 1 28.28864880 48.45647208 -0.00000000
10429 1 0.85723178 46.43745241 40.79885425
10430 1 -0.00000000 46.43745241 38.46749115
10431 1 2.57169535 46.43745241 38.46749115
10432 1 1.71446356 46.43745241 36.13612805
10433 1 4.28615891 46.43745241 36.13612805
10434 1 3.42892713 46.43745241 33.80476495
10435 1 6.00062247 46.43745241 33.80476495
10436 1 5.14339069 46.43745241 31.47340185
10437 1 7.71508604 46.43745241 31.47340185
10438 1 6.85785425 46.43745241 29.14203875
10439 1 9.42954960 46.43745241 29.14203875
10440 1 8.57231782 46.43745241 26.81067565
10441 1 11.14401316 46.43745241 26.81067565
10442 1 10.28678138 46.43745241 24.47931255
10443 1 12.85847673 46.43745241 24.47931255
10444 1 12.00124495 46.43745241 22.14794945
10445 1 14.57294029 46.43745241 22.14794945
10446 1 13.71570851 46.43745241 19.81658635
10447 1 16.28740385 46.43745241 19.81658635
10448 1 15.43017207 46.43745241 17.48522325
10449 1 18.00186742 46.43745241 17.48522325
10450 1 17.14463564 46.43745241 15.15386015
10451 1 19.71633098 46.43745241 15.15386015
10452 1 18.85909920 46.43745241 12.82249705
10453 1 21.43079455 46.43745241 12.82249705
10454 1 20.57356276 46.43745241 10.49113395
10455 1 23.14525811 46.43745241 10.49113395
10456 1 22.28802633 46.43745241 8.15977085
10457 1 24.85972167 46.43745241 8.15977085
10458 1 24.00248989 46.43745241 5.82840775
10459 1 26.57418524 46.43745241 5.82840775
10460 1 25.71695346 46.43745241 3.49704465
10461 1 28.28864880 46.43745241 3.49704465
10462 1 27.43141702 46.43745241 1.16568155
10463 1 30.00311236 46.43745241 1.16568155
10464 1 0.85723178 44.41843274 44.29589890
10465 1 0.00000000 44.41843274 41.96453580
10466 1 2.57169535 44.41843274 41.96453580
10467 1 1.71446356 44.41843274 39.63317270
10468 1 4.28615891 44.41843274 39.63317270
10469 1 3.42892713 44.41843274 37.30180960
10470 1 6.00062247 44.41843274 37.30180960
10471 1 5.14339069 44.41843274 34.97044650
10472 1 7.71508604 44.41843274 34.97044650
10473 1 6.85785425 44.41843274 32.63908340
10474 1 9.42954960 44.41843274 32.63908340
10475 1 8.57231782 44.41843274 30.30772030
10476 1 11.14401316 44.41843274 30.30772030
10477 1 10.28678138 44.41843274 27.97635720
10478 1 12.85847673 44.41843274 27.97635720
10479 1 12.00124495 44.41843274 25.64499410
10480 1 14.57294029 44.41843274 25.64499410
10481 1 13.71570851 44.41843274 23.31363100
10482 1 16.28740385 44.41843274 23.31363100
10483 1 15.43017207 44.41843274 20.98226790
10484 1 18.00186742 44.41843274 20.98226790
10485 1 17.14463564 44.41843274 18.65090480
10486 1 19.71633098 44.41843274 18.65090480
10487 1 18.85909920 44.41843274 16.31954170
10488 1 21.43079455 44.41843274 16.31954170
10489 1 20.57356276 44.41843274 13.98817860
10490 1 23.14525811 44.41843274 13.98817860
10491 1 22.28802633 44.41843274 11.65681550
10492 1 24.85972167 44.41843274 11.65681550
10493 1 24.00248989 44.41843274 9.32545240
10494 1 26.57418524 44.41843274 9.32545240
10495 1 25.71695346 44.41843274 6.99408930
10496 1 28.28864880 44.41843274 6.99408930
10497 1 27.43141702 44.41843274 4.66272620
10498 1 30.00311236 44.41843274 4.66272620
10499 1 29.14588058 44.41843274 2.33136310
10500 1 31.71757593 44.41843274 2.33136310
10501 1 30.86034415 44.41843274 0.00000000
10502 1 33.43203949 44.41843274 -0.00000000
10503 1 0.85723178 42.39941307 47.79294355
10504 1 0.00000000 42.39941307 45.46158045
10505 1 2.57169535 42.39941307 45.46158045
10506 1 1.71446356 42.39941307 43.13021735
10507 1 4.28615891 42.39941307 43.13021735
10508 1 3.42892713 42.39941307 40.79885425
10509 1 6.00062247 42.39941307 40.79885425
10510 1 5.14339069 42.39941307 38.46749115
10511 1 7.71508604 42.39941307 38.46749115
10512 1 6.85785425 42.39941307 36.13612805
10513 1 9.42954960 42.39941307 36.13612805
10514 1 8.57231782 42.39941307 33.80476495
10515 1 11.14401316 42.39941307 33.80476495
10516 1 10.28678138 42.39941307 31.47340185
10517 1 12.85847673 42.39941307 31.47340185
10518 1 12.00124495 42.39941307 29.14203875
10519 1 14.57294029 42.39941307 29.14203875
10520 2 13.71570851 42.39941307 26.81067565
10521 1 16.28740385 42.39941307 26.81067565
10522 2 15.43017207 42.39941307 24.47931255
10523 1 18.00186742 42.39941307 24.47931255
10524 1 17.14463564 42.39941307 22.14794945
10525 1 19.71633098 42.39941307 22.14794945
10526 1 18.85909920 42.39941307 19.81658635
10527 1 21.43079455 42.39941307 19.81658635
10528 1 20.57356276 42.39941307 17.48522325
10529 1 23.14525811 42.39941307 17.48522325
10530 1 22.28802633 42.39941307 15.15386015
10531 1 24.85972167 42.39941307 15.15386015
10532 1 24.00248989 42.39941307 12.82249705
10533 1 26.57418524 42.39941307 12.82249705
10534 1 25.71695346 42.39941307 10.49113395
10535 1 28.28864880 42.39941307 10.49113395
10536 1 27.43141702 42.39941307 8.15977085
10537 1 30.00311236 42.39941307 8.15977085
10538 1 29.14588058 42.39941307 5.82840775
10539 1 31.71757593 42.39941307 5.82840775
10540 1 30.86034415 42.39941307 3.49704465
10541 1 33.43203949 42.39941307 3.49704465
10542 1 32.57480771 42.39941307 1.16568155
10543 1 35.14650306 42.39941307 1.16568155
10544 1 1.71446356 40.38039340 46.62726200
10545 1 4.28615891 40.38039340 46.62726200
10546 1 3.42892713 40.38039340 44.29589890
10547 1 6.00062247 40.38039340 44.29589890
10548 1 5.14339069 40.38039340 41.96453580
10549 1 7.71508604 40.38039340 41.96453580
10550 1 6.85785425 40.38039340 39.63317270
10551 1 9.42954960 40.38039340 39.63317270
10552 1 8.57231782 40.38039340 37.30180960
10553 1 11.14401316 40.38039340 37.30180960
10554 1 10.28678138 40.38039340 34.97044650
10555 1 12.85847673 40.38039340 34.97044650
10556 1 12.00124495 40.38039340 32.63908340
10557 1 14.57294029 40.38039340 32.63908340
10558 2 13.71570851 40.38039340 30.30772030
10559 2 16.28740385 40.38039340 30.30772030
10560 2 15.43017207 40.38039340 27.97635720
10561 2 18.00186742 40.38039340 27.97635720
10562 2 17.14463564 40.38039340 25.64499410
10563 1 19.71633098 40.38039340 25.64499410
10564 2 18.85909920 40.38039340 23.31363100
10565 1 21.43079455 40.38039340 23.31363100
10566 1 20.57356276 40.38039340 20.98226790
10567 1 23.14525811 40.38039340 20.98226790
10568 1 22.28802633 40.38039340 18.65090480
10569 1 24.85972167 40.38039340 18.65090480
10570 1 24.00248989 40.38039340 16.31954170
10571 1 26.57418524 40.38039340 16.31954170
10572 1 25.71695346 40.38039340 13.98817860
10573 1 28.28864880 40.38039340 13.98817860
10574 1 27.43141702 40.38039340 11.65681550
10575 1 30.00311236 40.38039340 11.65681550
10576 1 29.14588058 40.38039340 9.32545240
10577 1 31.71757593 40.38039340 9.32545240
10578 1 30.86034415 40.38039340 6.99408930
10579 1 33.43203949 40.38039340 6.99408930
10580 1 32.57480771 40.38039340 4.66272620
10581 1 35.14650306 40.38039340 4.66272620
10582 1 34.28927127 40.38039340 2.33136310
10583 1 36.86096662 40.38039340 2.33136310
10584 1 36.00373484 40.38039340 0.00000000
10585 1 38.57543018 40.38039340 0.00000000
10586 1 3.42892713 38.36137373 47.79294355
10587 1 6.00062247 38.36137373 47.79294355
10588 1 5.14339069 38.36137373 45.46158045
10589 1 7.71508604 38.36137373 45.46158045
10590 1 6.85785425 38.36137373 43.13021735
10591 1 9.42954960 38.36137373 43.13021735
10592 1 8.57231782 38.36137373 40.79885425
10593 1 11.14401316 38.36137373 40.79885425
10594 1 10.28678138 38.36137373 38.46749115
10595 1 12.85847673 38.36137373 38.46749115
10596 1 12.00124495 38.36137373 36.13612805
10597 1 14.57294029 38.36137373 36.13612805
10598 2 13.71570851 38.36137373 33.80476495
10599 1 16.28740385 38.36137373 33.80476495
10600 2 15.43017207 38.36137373 31.47340185
10601 2 18.00186742 38.36137373 31.47340185
10602 2 17.14463564 38.36137373 29.14203875
10603 2 19.71633098 38.36137373 29.14203875
10604 2 18.85909920 38.36137373 26.81067565
10605 1 21.43079455 38.36137373 26.81067565
10606 2 20.57356276 38.36137373 24.47931255
10607 1 23.14525811 38.36137373 24.47931255
10608 1 22.28802633 38.36137373 22.14794945
10609 1 24.85972167 38.36137373 22.14794945
10610 1 24.00248989 38.36137373 19.81658635
10611 1 26.57418524 38.36137373 19.81658635
10612 1 25.71695346 38.36137373 17.48522325
10613 1 28.28864880 38.36137373 17.48522325
10614 1 27.43141702 38.36137373 15.15386015
10615 1 30.00311236 38.36137373 15.15386015
10616 1 29.14588058 38.36137373 12.82249705
10617 1 31.71757593 38.36137373 12.82249705
10618 1 30.86034415 38.36137373 10.49113395
10619 1 33.43203949 38.36137373 10.49113395
10620 1 32.57480771 38.36137373 8.15977085
10621 1 35.14650306 38.36137373 8.15977085
10622 1 34.28927127 38.36137373 5.82840775
10623 1 36.86096662 38.36137373 5.82840775
10624 1 36.00373484 38.36137373 3.49704465
10625 1 38.57543018 38.36137373 3.49704465
10626 1 37.71819840 38.36137373 1.16568155
10627 1 40.28989375 38.36137373 1.16568155
10628 1 6.85785425 36.34235406 46.62726200
10629 1 9.42954960 36.34235406 46.62726200
10630 1 8.57231782 36.34235406 44.29589890
10631 1 11.14401316 36.34235406 44.29589890
10632 1 10.28678138 36.34235406 41.96453580
10633 1 12.85847673 36.34235406 41.96453580
10634 1 12.00124495 36.34235406 39.63317270
10635 1 14.57294029 36.34235406 39.63317270
10636 1 13.71570851 36.34235406 37.30180960
10637 1 16.28740385 36.34235406 37.30180960
10638 1 15.43017207 36.34235406 34.97044650
10639 1 18.00186742 36.34235406 34.97044650
10640 2 17.14463564 36.34235406 32.63908340
10641 1 19.71633098 36.34235406 32.63908340
10642 2 18.85909920 36.34235406 30.30772030
10643 1 21.43079455 36.34235406 30.30772030
10644 2 20.57356276 36.34235406 27.97635720
10645 1 23.14525811 36.34235406 27.97635720
10646 2 22.28802633 36.34235406 25.64499410
10647 1 24.85972167 36.34235406 25.64499410
10648 1 24.00248989 36.34235406 23.31363100
10649 1 26.57418524 36.34235406 23.31363100
10650 1 25.71695346 36.34235406 20.98226790
10651 1 28.28864880 36.34235406 20.98226790
10652 1 27.43141702 36.34235406 18.65090480
10653 1 30.00311236 36.34235406 18.65090480
10654 1 29.14588058 36.34235406 16.31954170
10655 1 31.71757593 36.34235406 16.31954170
10656 1 30.86034415 36.34235406 13.98817860
10657 1 33.43203949 36.34235406 13.98817860
10658 1 32.57480771 36.34235406 11.65681550
10659 1 35.14650306 36.34235406 11.65681550
10660 1 34.28927127 36.34235406 9.32545240
10661 1 36.86096662 36.34235406 9.32545240
10662 1 36.00373484 36.34235406 6.99408930
10663 1 38.57543018 36.34235406 6.99408930
10664 1 37.71819840 36.34235406 4.66272620
10665 1 40.28989375 36.34235406 4.66272620
10666 1 39.43266196 36.34235406 2.33136310
10667 1 42.00435731 36.34235406 2.33136310
10668 1 41.14712553 36.34235406 -0.00000000
10669 1 43.71882087 36.34235406 0.00000000
10670 1 8.57231782 34.32333439 47.79294355
10671 1 11.14401316 34.32333439 47.79294355
10672 1 10.28678138 34.32333439 45.46158045
10673 1 12.85847673 34.32333439 45.46158045
10674 1 12.00124495 34.32333439 43.13021735
10675 1 14.57294029 34.32333439 43.13021735
10676 1 13.71570851 34.32333439 40.79885425
10677 1 16.28740385 34.32333439 40.79885425
10678 1 15.43017207 34.32333439 38.46749115
10679 1 18.00186742 34.32333439 38.46749115
10680 1 17.14463564 34.32333439 36.13612805
10681 1 19.71633098 34.32333439 36.13612805
10682 2 18.85909920 34.32333439 33.80476495
10683 1 21.43079455 34.32333439 33.80476495
10684 2 20.57356276 34.32333439 31.47340185
10685 1 23.14525811 34.32333439 31.47340185
10686 2 22.28802633 34.32333439 29.14203875
10687 1 24.85972167 34.32333439 29.14203875
10688 1 24.00248989 34.32333439 26.81067565
10689 1 26.57418524 34.32333439 26.81067565
10690 1 25.71695346 34.32333439 24.47931255
10691 1 28.28864880 34.32333439 24.47931255
10692 1 27.43141702 34.32333439 22.14794945
10693 1 30.00311236 34.32333439 22.14794945
10694 1 29.14588058 34.32333439 19.81658635
10695 1 31.71757593 34.32333439 19.81658635
10696 1 30.86034415 34.32333439 17.48522325
10697 1 33.43203949 34.32333439 17.48522325
10698 1 32.57480771 34.32333439 15.15386015
10699 1 35.14650306 34.32333439 15.15386015
10700 1 34.28927127 34.32333439 12.82249705
10701 1 36.86096662 34.32333439 12.82249705
10702 1 36.00373484 34.32333439 10.49113395
10703 1 38.57543018 34.32333439 10.49113395
10704 1 37.71819840 34.32333439 8.15977085
10705 1 40.28989375 34.32333439 8.15977085
10706 1 39.43266196 34.32333439 5.82840775
10707 1 42.00435731 34.32333439 5.82840775
10708 1 41.14712553 34.32333439 3.49704465
10709 1 43.71882087 34.32333439 3.49704465
10710 1 42.86158909 34.32333439 1.16568155
10711 1 45.43328444 34.32333439 1.16568155
10712 1 12.00124495 32.30431472 46.62726200
10713 1 14.57294029 32.30431472 46.62726200
10714 1 13.71570851 32.30431472 44.29589890
10715 1 16.28740385 32.30431472 44.29589890
10716 1 15.43017207 32.30431472 41.96453580
10717 1 18.00186742 32.30431472 41.96453580
10718 1 17.14463564 32.30431472 39.63317270
10719 1 19.71633098 32.30431472 39.63317270
10720 1 18.85909920 32.30431472 37.30180960
10721 1 21.43079455 32.30431472 37.30180960
10722 1 20.57356276 32.30431472 34.97044650
10723 1 23.14525811 32.30431472 34.97044650
10724 1 22.28802633 32.30431472 32.63908340
10725 1 24.85972167 32.30431472 32.63908340
10726 1 24.00248989 32.30431472 30.30772030
10727 1 26.57418524 32.30431472 30.30772030
10728 1 25.71695346 32.30431472 27.97635720
10729 1 28.28864880 32.30431472 27.97635720
10730 1 27.43141702 32.30431472 25.64499410
10731 1 30.00311236 32.30431472 25.64499410
10732 1 29.14588058 32.30431472 23.31363100
10733 1 31.71757593 32.30431472 23.31363100
10734 1 30.86034415 32.30431472 20.98226790
10735 1 33.43203949 32.30431472 20.98226790
10736 1 32.57480771 32.30431472 18.65090480
10737 1 35.14650306 32.30431472 18.65090480
10738 1 34.28927127 32.30431472 16.31954170
10739 1 36.86096662 32.30431472 16.31954170
10740 1 36.00373484 32.30431472 13.98817860
10741 1 38.57543018 32.30431472 13.98817860
10742 1 37.71819840 32.30431472 11.65681550
10743 1 40.28989375 32.30431472 11.65681550
10744 1 39.43266196 32.30431472 9.32545240
10745 1 42.00435731 32.30431472 9.32545240
10746 1 41.14712553 32.30431472 6.99408930
10747 1 43.71882087 32.30431472 6.99408930
10748 1 42.86158909 32.30431472 4.66272620
10749 1 45.43328444 32.30431472 4.66272620
10750 1 44.57605266 32.30431472 2.33136310
10751 1 47.14774800 32.30431472 2.33136310
10752 1 46.29051622 32.30431472 -0.00000000
10753 1 48.86221156 32.30431472 -0.00000000
10754 1 0.85723178 62.58960977 19.81658635
10755 1 0.00000000 62.58960977 17.48522325
10756 1 2.57169535 62.58960977 17.48522325
10757 1 1.71446356 62.58960977 15.15386015
10758 1 4.28615891 62.58960977 15.15386015
10759 1 3.42892713 62.58960977 12.82249705
10760 1 6.00062247 62.58960977 12.82249705
10761 1 5.14339069 62.58960977 10.49113395
10762 1 7.71508604 62.58960977 10.49113395
10763 1 6.85785425 62.58960977 8.15977085
10764 1 9.42954960 62.58960977 8.15977085
10765 1 8.57231782 62.58960977 5.82840775
10766 1 11.14401316 62.58960977 5.82840775
10767 1 10.28678138 62.58960977 3.49704465
10768 1 12.85847673 62.58960977 3.49704465
10769 1 12.00124495 62.58960977 1.16568155
10770 1 14.57294029 62.58960977 1.16568155
10771 1 0.85723178 60.57059010 23.31363100
10772 1 0.00000000 60.57059010 20.98226790
10773 1 2.57169535 60.57059010 20.98226790
10774 1 1.71446356 60.57059010 18.65090480
10775 1 4.28615891 60.57059010 18.65090480
10776 1 3.42892713 60.57059010 16.31954170
10777 1 6.00062247 60.57059010 16.31954170
10778 1 5.14339069 60.57059010 13.98817860
10779 1 7.71508604 60.57059010 13.98817860
10780 1 6.85785425 60.57059010 11.65681550
10781 1 9.42954960 60.57059010 11.65681550
10782 1 8.57231782 60.57059010 9.32545240
10783 1 11.14401316 60.57059010 9.32545240
10784 1 10.28678138 60.57059010 6.99408930
10785 1 12.85847673 60.57059010 6.99408930
10786 1 12.00124495 60.57059010 4.66272620
10787 1 14.57294029 60.57059010 4.66272620
10788 1 13.71570851 60.57059010 2.33136310
10789 1 16.28740385 60.57059010 2.33136310
10790 1 15.43017207 60.57059010 0.00000000
10791 1 18.00186742 60.57059010 0.00000000
10792 1 0.85723178 58.55157043 26.81067565
10793 1 0.00000000 58.55157043 24.47931255
10794 1 2.57169535 58.55157043 24.47931255
10795 1 1.71446356 58.55157043 22.14794945
10796 1 4.28615891 58.55157043 22.14794945
10797 1 3.42892713 58.55157043 19.81658635
10798 1 6.00062247 58.55157043 19.81658635
10799 1 5.14339069 58.55157043 17.48522325
10800 1 7.71508604 58.55157043 17.48522325
10801 1 6.85785425 58.55157043 15.15386015
10802 1 9.42954960 58.55157043 15.15386015
10803 1 8.57231782 58.55157043 12.82249705
10804 1 11.14401316 58.55157043 12.82249705
10805 1 10.28678138 58.55157043 10.49113395
10806 1 12.85847673 58.55157043 10.49113395
10807 1 12.00124495 58.55157043 8.15977085
10808 1 14.57294029 58.55157043 8.15977085
10809 1 13.71570851 58.55157043 5.82840775
10810 1 16.28740385 58.55157043 5.82840775
10811 1 15.43017207 58.55157043 3.49704465
10812 1 18.00186742 58.55157043 3.49704465
10813 1 17.14463564 58.55157043 1.16568155
10814 1 19.71633098 58.55157043 1.16568155
10815 1 0.85723178 56.53255076 30.30772030
10816 1 0.00000000 56.53255076 27.97635720
10817 1 2.57169535 56.53255076 27.97635720
10818 1 1.71446356 56.53255076 25.64499410
10819 1 4.28615891 56.53255076 25.64499410
10820 1 3.42892713 56.53255076 23.31363100
10821 1 6.00062247 56.53255076 23.31363100
10822 1 5.14339069 56.53255076 20.98226790
10823 1 7.71508604 56.53255076 20.98226790
10824 1 6.85785425 56.53255076 18.65090480
10825 1 9.42954960 56.53255076 18.65090480
10826 1 8.57231782 56.53255076 16.31954170
10827 1 11.14401316 56.53255076 16.31954170
10828 1 10.28678138 56.53255076 13.98817860
10829 1 12.85847673 56.53255076 13.98817860
10830 1 12.00124495 56.53255076 11.65681550
10831 1 14.57294029 56.53255076 11.65681550
10832 1 13.71570851 56.53255076 9.32545240
10833 1 16.28740385 56.53255076 9.32545240
10834 1 15.43017207 56.53255076 6.99408930
10835 1 18.00186742 56.53255076 6.99408930
10836 1 17.14463564 56.53255076 4.66272620
10837 1 19.71633098 56.53255076 4.66272620
10838 1 18.85909920 56.53255076 2.33136310
10839 1 21.43079455 56.53255076 2.33136310
10840 1 20.57356276 56.53255076 -0.00000000
10841 1 23.14525811 56.53255076 -0.00000000
10842 1 0.85723178 54.51353109 33.80476495
10843 1 0.00000000 54.51353109 31.47340185
10844 1 2.57169535 54.51353109 31.47340185
10845 1 1.71446356 54.51353109 29.14203875
10846 1 4.28615891 54.51353109 29.14203875
10847 1 3.42892713 54.51353109 26.81067565
10848 1 6.00062247 54.51353109 26.81067565
10849 1 5.14339069 54.51353109 24.47931255
10850 1 7.71508604 54.51353109 24.47931255
10851 1 6.85785425 54.51353109 22.14794945
10852 1 9.42954960 54.51353109 22.14794945
10853 1 8.57231782 54.51353109 19.81658635
10854 1 11.14401316 54.51353109 19.81658635
10855 1 10.28678138 54.51353109 17.48522325
10856 1 12.85847673 54.51353109 17.48522325
10857 1 12.00124495 54.51353109 15.15386015
10858 1 14.57294029 54.51353109 15.15386015
10859 1 13.71570851 54.51353109 12.82249705
10860 1 16.28740385 54.51353109 12.82249705
10861 1 15.43017207 54.51353109 10.49113395
10862 1 18.00186742 54.51353109 10.49113395
10863 1 17.14463564 54.51353109 8.15977085
10864 1 19.71633098 54.51353109 8.15977085
10865 1 18.85909920 54.51353109 5.82840775
10866 1 21.43079455 54.51353109 5.82840775
10867 1 20.57356276 54.51353109 3.49704465
10868 1 23.14525811 54.51353109 3.49704465
10869 1 22.28802633 54.51353109 1.16568155
10870 1 24.85972167 54.51353109 1.16568155
10871 1 0.85723178 52.49451142 37.30180960
10872 1 0.00000000 52.49451142 34.97044650
10873 1 2.57169535 52.49451142 34.97044650
10874 1 1.71446356 52.49451142 32.63908340
10875 1 4.28615891 52.49451142 32.63908340
10876 1 3.42892713 52.49451142 30.30772030
10877 1 6.00062247 52.49451142 30.30772030
10878 1 5.14339069 52.49451142 27.97635720
10879 1 7.71508604 52.49451142 27.97635720
10880 1 6.85785425 52.49451142 25.64499410
10881 1 9.42954960 52.49451142 25.64499410
10882 1 8.57231782 52.49451142 23.31363100
10883 1 11.14401316 52.49451142 23.31363100
10884 1 10.28678138 52.49451142 20.98226790
10885 1 12.85847673 52.49451142 20.98226790
10886 1 12.00124495 52.49451142 18.65090480
10887 1 14.57294029 52.49451142 18.65090480
10888 1 13.71570851 52.49451142 16.31954170
10889 1 16.28740385 52.49451142 16.31954170
10890 1 15.43017207 52.49451142 13.98817860
10891 1 18.00186742 52.49451142 13.98817860
10892 1 17.14463564 52.49451142 11.65681550
10893 1 19.71633098 52.49451142 11.65681550
10894 1 18.85909920 52.49451142 9.32545240
10895 1 21.43079455 52.49451142 9.32545240
10896 1 20.57356276 52.49451142 6.99408930
10897 1 23.14525811 52.49451142 6.99408930
10898 1 22.28802633 52.49451142 4.66272620
10899 1 24.85972167 52.49451142 4.66272620
10900 1 24.00248989 52.49451142 2.33136310
10901 1 26.57418524 52.49451142 2.33136310
10902 1 25.71695346 52.49451142 0.00000000
10903 1 28.28864880 52.49451142 -0.00000000
10904 1 0.85723178 50.47549175 40.79885425
10905 1 -0.00000000 50.47549175 38.46749115
10906 1 2.57169535 50.47549175 38.46749115
10907 1 1.71446356 50.47549175 36.13612805
10908 1 4.28615891 50.47549175 36.13612805
10909 1 3.42892713 50.47549175 33.80476495
10910 1 6.00062247 50.47549175 33.80476495
10911 1 5.14339069 50.47549175 31.47340185
10912 1 7.71508604 50.47549175 31.47340185
10913 1 6.85785425 50.47549175 29.14203875
10914 1 9.42954960 50.47549175 29.14203875
10915 1 8.57231782 50.47549175 26.81067565
10916 1 11.14401316 50.47549175 26.81067565
10917 1 10.28678138 50.47549175 24.47931255
10918 1 12.85847673 50.47549175 24.47931255
10919 1 12.00124495 50.47549175 22.14794945
10920 1 14.57294029 50.47549175 22.14794945
10921 1 13.71570851 50.47549175 19.81658635
10922 1 16.28740385 50.47549175 19.81658635
10923 1 15.43017207 50.47549175 17.48522325
10924 1 18.00186742 50.47549175 17.48522325
10925 1 17.14463564 50.47549175 15.15386015
10926 1 19.71633098 50.47549175 15.15386015
10927 1 18.85909920 50.47549175 12.82249705
10928 1 21.43079455 50.47549175 12.82249705
10929 1 20.57356276 50.47549175 10.49113395
10930 1 23.14525811 50.47549175 10.49113395
10931 1 22.28802633 50.47549175 8.15977085
10932 1 24.85972167 50.47549175 8.15977085
10933 1 24.00248989 50.47549175 5.82840775
10934 1 26.57418524 50.47549175 5.82840775
10935 1 25.71695346 50.47549175 3.49704465
10936 1 28.28864880 50.47549175 3.49704465
10937 1 27.43141702 50.47549175 1.16568155
10938 1 30.00311236 50.47549175 1.16568155
10939 1 0.85723178 48.45647208 44.29589890
10940 1 0.00000000 48.45647208 41.96453580
10941 1 2.57169535 48.45647208 41.96453580
10942 1 1.71446356 48.45647208 39.63317270
10943 1 4.28615891 48.45647208 39.63317270
10944 1 3.42892713 48.45647208 37.30180960
10945 1 6.00062247 48.45647208 37.30180960
10946 1 5.14339069 48.45647208 34.97044650
10947 1 7.71508604 48.45647208 34.97044650
10948 1 6.85785425 48.45647208 32.63908340
10949 1 9.42954960 48.45647208 32.63908340
10950 1 8.57231782 48.45647208 30.30772030
10951 1 11.14401316 48.45647208 30.30772030
10952 1 10.28678138 48.45647208 27.97635720
10953 1 12.85847673 48.45647208 27.97635720
10954 1 12.00124495 48.45647208 25.64499410
10955 1 14.57294029 48.45647208 25.64499410
10956 1 13.71570851 48.45647208 23.31363100
10957 1 16.28740385 48.45647208 23.31363100
10958 1 15.43017207 48.45647208 20.98226790
10959 1 18.00186742 48.45647208 20.98226790
10960 1 17.14463564 48.45647208 18.65090480
10961 1 19.71633098 48.45647208 18.65090480
10962 1 18.85909920 48.45647208 16.31954170
10963 1 21.43079455 48.45647208 16.31954170
10964 1 20.57356276 48.45647208 13.98817860
10965 1 23.14525811 48.45647208 13.98817860
10966 1 22.28802633 48.45647208 11.65681550
10967 1 24.85972167 48.45647208 11.65681550
10968 1 24.00248989 48.45647208 9.32545240
10969 1 26.57418524 48.45647208 9.32545240
10970 1 25.71695346 48.45647208 6.99408930
10971 1 28.28864880 48.45647208 6.99408930
10972 1 27.43141702 48.45647208 4.66272620
10973 1 30.00311236 48.45647208 4.66272620
10974 1 29.14588058 48.45647208 2.33136310
10975 1 31.71757593 48.45647208 2.33136310
10976 1 30.86034415 48.45647208 0.00000000
10977 1 33.43203949 48.45647208 -0.00000000
10978 1 0.85723178 46.43745241 47.79294355
10979 1 0.00000000 46.43745241 45.46158045
10980 1 2.57169535 46.43745241 45.46158045
10981 1 1.71446356 46.43745241 43.13021735
10982 1 4.28615891 46.43745241 43.13021735
10983 1 3.42892713 46.43745241 40.79885425
10984 1 6.00062247 46.43745241 40.79885425
10985 1 5.14339069 46.43745241 38.46749115
10986 1 7.71508604 46.43745241 38.46749115
10987 1 6.85785425 46.43745241 36.13612805
10988 1 9.42954960 46.43745241 36.13612805
10989 1 8.57231782 46.43745241 33.80476495
10990 1 11.14401316 46.43745241 33.80476495
10991 1 10.28678138 46.43745241 31.47340185
10992 1 12.85847673 46.43745241 31.47340185
10993 1 12.00124495 46.43745241 29.14203875
10994 1 14.57294029 46.43745241 29.14203875
10995 1 13.71570851 46.43745241 26.81067565
10996 1 16.28740385 46.43745241 26.81067565
10997 1 15.43017207 46.43745241 24.47931255
10998 1 18.00186742 46.43745241 24.47931255
10999 1 17.14463564 46.43745241 22.14794945
11000 1 19.71633098 46.43745241 22.14794945
11001 1 18.85909920 46.43745241 19.81658635
11002 1 21.43079455 46.43745241 19.81658635
11003 1 20.57356276 46.43745241 17.48522325
11004 1 23.14525811 46.43745241 17.48522325
11005 1 22.28802633 46.43745241 15.15386015
11006 1 24.85972167 46.43745241 15.15386015
11007 1 24.00248989 46.43745241 12.82249705
11008 1 26.57418524 46.43745241 12.82249705
11009 1 25.71695346 46.43745241 10.49113395
11010 1 28.28864880 46.43745241 10.49113395
11011 1 27.43141702 46.43745241 8.15977085
11012 1 30.00311236 46.43745241 8.15977085
11013 1 29.14588058 46.43745241 5.82840775
11014 1 31.71757593 46.43745241 5.82840775
11015 1 30.86034415 46.43745241 3.49704465
11016 1 33.43203949 46.43745241 3.49704465
11017 1 32.57480771 46.43745241 1.16568155
11018 1 35.14650306 46.43745241 1.16568155
11019 1 1.71446356 44.41843274 46.62726200
11020 1 4.28615891 44.41843274 46.62726200
11021 1 3.42892713 44.41843274 44.29589890
11022 1 6.00062247 44.41843274 44.29589890
11023 1 5.14339069 44.41843274 41.96453580
11024 1 7.71508604 44.41843274 41.96453580
11025 1 6.85785425 44.41843274 39.63317270
11026 1 9.42954960 44.41843274 39.63317270
11027 1 8.57231782 44.41843274 37.30180960
11028 1 11.14401316 44.41843274 37.30180960
11029 1 10.28678138 44.41843274 34.97044650
11030 1 12.85847673 44.41843274 34.97044650
11031 1 12.00124495 44.41843274 32.63908340
11032 1 14.57294029 44.41843274 32.63908340
11033 1 13.71570851 44.41843274 30.30772030
11034 1 16.28740385 44.41843274 30.30772030
11035 1 15.43017207 44.41843274 27.97635720
11036 1 18.00186742 44.41843274 27.97635720
11037 1 17.14463564 44.41843274 25.64499410
11038 1 19.71633098 44.41843274 25.64499410
11039 1 18.85909920 44.41843274 23.31363100
11040 1 21.43079455 44.41843274 23.31363100
11041 1 20.57356276 44.41843274 20.98226790
11042 1 23.14525811 44.41843274 20.98226790
11043 1 22.28802633 44.41843274 18.65090480
11044 1 24.85972167 44.41843274 18.65090480
11045 1 24.00248989 44.41843274 16.31954170
11046 1 26.57418524 44.41843274 16.31954170
11047 1 25.71695346 44.41843274 13.98817860
11048 1 28.28864880 44.41843274 13.98817860
11049 1 27.43141702 44.41843274 11.65681550
11050 1 30.00311236 44.41843274 11.65681550
11051 1 29.14588058 44.41843274 9.32545240
11052 1 31.71757593 44.41843274 9.32545240
11053 1 30.86034415 44.41843274 6.99408930
11054 1 33.43203949 44.41843274 6.99408930
11055 1 32.57480771 44.41843274 4.66272620
11056 1 35.14650306 44.41843274 4.66272620
11057 1 34.28927127 44.41843274 2.33136310
11058 1 36.86096662 44.41843274 2.33136310
11059 1 36.00373484 44.41843274 0.00000000
11060 1 38.57543018 44.41843274 -0.00000000
11061 1 3.42892713 42.39941307 47.79294355
11062 1 6.00062247 42.39941307 47.79294355
11063 1 5.14339069 42.39941307 45.46158045
11064 1 7.71508604 42.39941307 45.46158045
11065 1 6.85785425 42.39941307 43.13021735
11066 1 9.42954960 42.39941307 43.13021735
11067 1 8.57231782 42.39941307 40.79885425
11068 1 11.14401316 42.39941307 40.79885425
11069 1 10.28678138 42.39941307 38.46749115
11070 1 12.85847673 42.39941307 38.46749115
11071 1 12.00124495 42.39941307 36.13612805
11072 1 14.57294029 42.39941307 36.13612805
11073 1 13.71570851 42.39941307 33.80476495
11074 1 16.28740385 42.39941307 33.80476495
11075 1 15.43017207 42.39941307 31.47340185
11076 1 18.00186742 42.39941307 31.47340185
11077 1 17.14463564 42.39941307 29.14203875
11078 1 19.71633098 42.39941307 29.14203875
11079 1 18.85909920 42.39941307 26.81067565
11080 1 21.43079455 42.39941307 26.81067565
11081 1 20.57356276 42.39941307 24.47931255
11082 1 23.14525811 42.39941307 24.47931255
11083 1 22.28802633 42.39941307 22.14794945
11084 1 24.85972167 42.39941307 22.14794945
11085 1 24.00248989 42.39941307 19.81658635
11086 1 26.57418524 42.39941307 19.81658635
11087 1 25.71695346 42.39941307 17.48522325
11088 1 28.28864880 42.39941307 17.48522325
11089 1 27.43141702 42.39941307 15.15386015
11090 1 30.00311236 42.39941307 15.15386015
11091 1 29.14588058 42.39941307 12.82249705
11092 1 31.71757593 42.39941307 12.82249705
11093 1 30.86034415 42.39941307 10.49113395
11094 1 33.43203949 42.39941307 10.49113395
11095 1 32.57480771 42.39941307 8.15977085
11096 1 35.14650306 42.39941307 8.15977085
11097 1 34.28927127 42.39941307 5.82840775
11098 1 36.86096662 42.39941307 5.82840775
11099 1 36.00373484 42.39941307 3.49704465
11100 1 38.57543018 42.39941307 3.49704465
11101 1 37.71819840 42.39941307 1.16568155
11102 1 40.28989375 42.39941307 1.16568155
11103 1 6.85785425 40.38039340 46.62726200
11104 1 9.42954960 40.38039340 46.62726200
11105 1 8.57231782 40.38039340 44.29589890
11106 1 11.14401316 40.38039340 44.29589890
11107 1 10.28678138 40.38039340 41.96453580
11108 1 12.85847673 40.38039340 41.96453580
11109 1 12.00124495 40.38039340 39.63317270
11110 1 14.57294029 40.38039340 39.63317270
11111 1 13.71570851 40.38039340 37.30180960
11112 1 16.28740385 40.38039340 37.30180960
11113 1 15.43017207 40.38039340 34.97044650
11114 1 18.00186742 40.38039340 34.97044650
11115 1 17.14463564 40.38039340 32.63908340
11116 1 19.71633098 40.38039340 32.63908340
11117 1 18.85909920 40.38039340 30.30772030
11118 1 21.43079455 40.38039340 30.30772030
11119 1 20.57356276 40.38039340 27.97635720
11120 1 23.14525811 40.38039340 27.97635720
11121 1 22.28802633 40.38039340 25.64499410
11122 1 24.85972167 40.38039340 25.64499410
11123 1 24.00248989 40.38039340 23.31363100
11124 1 26.57418524 40.38039340 23.31363100
11125 1 25.71695346 40.38039340 20.98226790
11126 1 28.28864880 40.38039340 20.98226790
11127 1 27.43141702 40.38039340 18.65090480
11128 1 30.00311236 40.38039340 18.65090480
11129 1 29.14588058 40.38039340 16.31954170
11130 1 31.71757593 40.38039340 16.31954170
11131 1 30.86034415 40.38039340 13.98817860
11132 1 33.43203949 40.38039340 13.98817860
11133 1 32.57480771 40.38039340 11.65681550
11134 1 35.14650306 40.38039340 11.65681550
11135 1 34.28927127 40.38039340 9.32545240
11136 1 36.86096662 40.38039340 9.32545240
11137 1 36.00373484 40.38039340 6.99408930
11138 1 38.57543018 40.38039340 6.99408930
11139 1 37.71819840 40.38039340 4.66272620
11140 1 40.28989375 40.38039340 4.66272620
11141 1 39.43266196 40.38039340 2.33136310
11142 1 42.00435731 40.38039340 2.33136310
11143 1 41.14712553 40.38039340 -0.00000000
11144 1 43.71882087 40.38039340 0.00000000
11145 1 8.57231782 38.36137373 47.79294355
11146 1 11.14401316 38.36137373 47.79294355
11147 1 10.28678138 38.36137373 45.46158045
11148 1 12.85847673 38.36137373 45.46158045
11149 1 12.00124495 38.36137373 43.13021735
11150 1 14.57294029 38.36137373 43.13021735
11151 1 13.71570851 38.36137373 40.79885425
11152 1 16.28740385 38.36137373 40.79885425
11153 1 15.43017207 38.36137373 38.46749115
11154 1 18.00186742 38.36137373 38.46749115
11155 1 17.14463564 38.36137373 36.13612805
11156 1 19.71633098 38.36137373 36.13612805
11157 1 18.85909920 38.36137373 33.80476495
11158 1 21.43079455 38.36137373 33.80476495
11159 1 20.57356276 38.36137373 31.47340185
11160 1 23.14525811 38.36137373 31.47340185
11161 1 22.28802633 38.36137373 29.14203875
11162 1 24.85972167 38.36137373 29.14203875
11163 1 24.00248989 38.36137373 26.81067565
11164 1 26.57418524 38.36137373 26.81067565
11165 1 25.71695346 38.36137373 24.47931255
11166 1 28.28864880 38.36137373 24.47931255
11167 1 27.43141702 38.36137373 22.14794945
11168 1 30.00311236 38.36137373 22.14794945
11169 1 29.14588058 38.36137373 19.81658635
11170 1 31.71757593 38.36137373 19.81658635
11171 1 30.86034415 38.36137373 17.48522325
11172 1 33.43203949 38.36137373 17.48522325
11173 1 32.57480771 38.36137373 15.15386015
11174 1 35.14650306 38.36137373 15.15386015
11175 1 34.28927127 38.36137373 12.82249705
11176 1 36.86096662 38.36137373 12.82249705
11177 1 36.00373484 38.36137373 10.49113395
11178 1 38.57543018 38.36137373 10.49113395
11179 1 37.71819840 38.36137373 8.15977085
11180 1 40.28989375 38.36137373 8.15977085
11181 1 39.43266196 38.36137373 5.82840775
11182 1 42.00435731 38.36137373 5.82840775
11183 1 41.14712553 38.36137373 3.49704465
11184 1 43.71882087 38.36137373 3.49704465
11185 1 42.86158909 38.36137373 1.16568155
11186 1 45.43328444 38.36137373 1.16568155
11187 1 12.00124495 36.34235406 46.62726200
11188 1 14.57294029 36.34235406 46.62726200
11189 1 13.71570851 36.34235406 44.29589890
11190 1 16.28740385 36.34235406 44.29589890
11191 1 15.43017207 36.34235406 41.96453580
11192 1 18.00186742 36.34235406 41.96453580
11193 1 17.14463564 36.34235406 39.63317270
11194 1 19.71633098 36.34235406 39.63317270
11195 1 18.85909920 36.34235406 37.30180960
11196 1 21.43079455 36.34235406 37.30180960
11197 1 20.57356276 36.34235406 34.97044650
11198 1 23.14525811 36.34235406 34.97044650
11199 1 22.28802633 36.34235406 32.63908340
11200 1 24.85972167 36.34235406 32.63908340
11201 1 24.00248989 36.34235406 30.30772030
11202 1 26.57418524 36.34235406 30.30772030
11203 1 25.71695346 36.34235406 27.97635720
11204 1 28.28864880 36.34235406 27.97635720
11205 1 27.43141702 36.34235406 25.64499410
11206 1 30.00311236 36.34235406 25.64499410
11207 1 29.14588058 36.34235406 23.31363100
11208 1 31.71757593 36.34235406 23.31363100
11209 1 30.86034415 36.34235406 20.98226790
11210 1 33.43203949 36.34235406 20.98226790
11211 1 32.57480771 36.34235406 18.65090480
11212 1 35.14650306 36.34235406 18.65090480
11213 1 34.28927127 36.34235406 16.31954170
11214 1 36.86096662 36.34235406 16.31954170
11215 1 36.00373484 36.34235406 13.98817860
11216 1 38.57543018 36.34235406 13.98817860
11217 1 37.71819840 36.34235406 11.65681550
11218 1 40.28989375 36.34235406 11.65681550
11219 1 39.43266196 36.34235406 9.32545240
11220 1 42.00435731 36.34235406 9.32545240
11221 1 41.14712553 36.34235406 6.99408930
11222 1 43.71882087 36.34235406 6.99408930
11223 1 42.86158909 36.34235406 4.66272620
11224 1 45.43328444 36.34235406 4.66272620
11225 1 44.57605266 36.34235406 2.33136310
11226 1 47.14774800 36.34235406 2.33136310
11227 1 46.29051622 36.34235406 0.00000000
11228 1 48.86221156 36.34235406 -0.00000000
11229 1 13.71570851 34.32333439 47.79294355
11230 1 16.28740385 34.32333439 47.79294355
11231 1 15.43017207 34.32333439 45.46158045
11232 1 18.00186742 34.32333439 45.46158045
11233 1 17.14463564 34.32333439 43.13021735
11234 1 19.71633098 34.32333439 43.13021735
11235 1 18.85909920 34.32333439 40.79885425
11236 1 21.43079455 34.32333439 40.79885425
11237 1 20.57356276 34.32333439 38.46749115
11238 1 23.14525811 34.32333439 38.46749115
11239 1 22.28802633 34.32333439 36.13612805
11240 1 24.85972167 34.32333439 36.13612805
11241 1 24.00248989 34.32333439 33.80476495
11242 1 26.57418524 34.32333439 33.80476495
11243 1 25.71695346 34.32333439 31.47340185
11244 1 28.28864880 34.32333439 31.47340185
11245 1 27.43141702 34.32333439 29.14203875
11246 1 30.00311236 34.32333439 29.14203875
11247 1 29.14588058 34.32333439 26.81067565
11248 1 31.71757593 34.32333439 26.81067565
11249 1 30.86034415 34.32333439 24.47931255
11250 1 33.43203949 34.32333439 24.47931255
11251 1 32.57480771 34.32333439 22.14794945
11252 1 35.14650306 34.32333439 22.14794945
11253 1 34.28927127 34.32333439 19.81658635
11254 1 36.86096662 34.32333439 19.81658635
11255 1 36.00373484 34.32333439 17.48522325
11256 1 38.57543018 34.32333439 17.48522325
11257 1 37.71819840 34.32333439 15.15386015
11258 1 40.28989375 34.32333439 15.15386015
11259 1 39.43266196 34.32333439 12.82249705
11260 1 42.00435731 34.32333439 12.82249705
11261 1 41.14712553 34.32333439 10.49113395
11262 1 43.71882087 34.32333439 10.49113395
11263 1 42.86158909 34.32333439 8.15977085
11264 1 45.43328444 34.32333439 8.15977085
11265 1 44.57605266 34.32333439 5.82840775
11266 1 47.14774800 34.32333439 5.82840775
11267 1 46.29051622 34.32333439 3.49704465
11268 1 48.86221156 34.32333439 3.49704465
11269 1 48.00497978 34.32333439 1.16568155
11270 1 50.57667513 34.32333439 1.16568155
11271 1 17.14463564 32.30431472 46.62726200
11272 1 19.71633098 32.30431472 46.62726200
11273 1 18.85909920 32.30431472 44.29589890
11274 1 21.43079455 32.30431472 44.29589890
11275 1 20.57356276 32.30431472 41.96453580
11276 1 23.14525811 32.30431472 41.96453580
11277 1 22.28802633 32.30431472 39.63317270
11278 1 24.85972167 32.30431472 39.63317270
11279 1 24.00248989 32.30431472 37.30180960
11280 1 26.57418524 32.30431472 37.30180960
11281 1 25.71695346 32.30431472 34.97044650
11282 1 28.28864880 32.30431472 34.97044650
11283 1 27.43141702 32.30431472 32.63908340
11284 1 30.00311236 32.30431472 32.63908340
11285 1 29.14588058 32.30431472 30.30772030
11286 1 31.71757593 32.30431472 30.30772030
11287 1 30.86034415 32.30431472 27.97635720
11288 1 33.43203949 32.30431472 27.97635720
11289 1 32.57480771 32.30431472 25.64499410
11290 1 35.14650306 32.30431472 25.64499410
11291 1 34.28927127 32.30431472 23.31363100
11292 1 36.86096662 32.30431472 23.31363100
11293 1 36.00373484 32.30431472 20.98226790
11294 1 38.57543018 32.30431472 20.98226790
11295 1 37.71819840 32.30431472 18.65090480
11296 1 40.28989375 32.30431472 18.65090480
11297 1 39.43266196 32.30431472 16.31954170
11298 1 42.00435731 32.30431472 16.31954170
11299 1 41.14712553 32.30431472 13.98817860
11300 1 43.71882087 32.30431472 13.98817860
11301 1 42.86158909 32.30431472 11.65681550
11302 1 45.43328444 32.30431472 11.65681550
11303 1 44.57605266 32.30431472 9.32545240
11304 1 47.14774800 32.30431472 9.32545240
11305 1 46.29051622 32.30431472 6.99408930
11306 1 48.86221156 32.30431472 6.99408930
11307 1 48.00497978 32.30431472 4.66272620
11308 1 50.57667513 32.30431472 4.66272620
11309 1 49.71944335 32.30431472 2.33136310
11310 1 52.29113869 32.30431472 2.33136310
11311 1 51.43390691 32.30431472 0.00000000
11312 1 54.00560226 32.30431472 -0.00000000
11313 1 0.85723178 62.58960977 26.81067565
11314 1 -0.00000000 62.58960977 24.47931255
11315 1 2.57169535 62.58960977 24.47931255
11316 1 1.71446356 62.58960977 22.14794945
11317 1 4.28615891 62.58960977 22.14794945
11318 1 3.42892713 62.58960977 19.81658635
11319 1 6.00062247 62.58960977 19.81658635
11320 1 5.14339069 62.58960977 17.48522325
11321 1 7.71508604 62.58960977 17.48522325
11322 1 6.85785425 62.58960977 15.15386015
11323 1 9.42954960 62.58960977 15.15386015
11324 1 8.57231782 62.58960977 12.82249705
11325 1 11.14401316 62.58960977 12.82249705
11326 1 10.28678138 62.58960977 10.49113395
11327 1 12.85847673 62.58960977 10.49113395
11328 1 12.00124495 62.58960977 8.15977085
11329 1 14.57294029 62.58960977 8.15977085
11330 1 13.71570851 62.58960977 5.82840775
11331 1 16.28740385 62.58960977 5.82840775
11332 1 15.43017207 62.58960977 3.49704465
11333 1 18.00186742 62.58960977 3.49704465
11334 1 17.14463564 62.58960977 1.16568155
11335 1 19.71633098 62.58960977 1.16568155
11336 1 0.85723178 60.57059010 30.30772030
11337 1 0.00000000 60.57059010 27.97635720
11338 1 2.57169535 60.57059010 27.97635720
11339 1 1.71446356 60.57059010 25.64499410
11340 1 4.28615891 60.57059010 25.64499410
11341 1 3.42892713 60.57059010 23.31363100
11342 1 6.00062247 60.57059010 23.31363100
11343 1 5.14339069 60.57059010 20.98226790
11344 1 7.71508604 60.57059010 20.98226790
11345 1 6.85785425 60.57059010 18.65090480
11346 1 9.42954960 60.57059010 18.65090480
11347 1 8.57231782 60.57059010 16.31954170
11348 1 11.14401316 60.57059010 16.31954170
11349 1 10.28678138 60.57059010 13.98817860
11350 1 12.85847673 60.57059010 13.98817860
11351 1 12.00124495 60.57059010 11.65681550
11352 1 14.57294029 60.57059010 11.65681550
11353 1 13.71570851 60.57059010 9.32545240
11354 1 16.28740385 60.57059010 9.32545240
11355 1 15.43017207 60.57059010 6.99408930
11356 1 18.00186742 60.57059010 6.99408930
11357 1 17.14463564 60.57059010 4.66272620
11358 1 19.71633098 60.57059010 4.66272620
11359 1 18.85909920 60.57059010 2.33136310
11360 1 21.43079455 60.57059010 2.33136310
11361 1 20.57356276 60.57059010 -0.00000000
11362 1 23.14525811 60.57059010 0.00000000
11363 1 0.85723178 58.55157043 33.80476495
11364 1 0.00000000 58.55157043 31.47340185
11365 1 2.57169535 58.55157043 31.47340185
11366 1 1.71446356 58.55157043 29.14203875
11367 1 4.28615891 58.55157043 29.14203875
11368 1 3.42892713 58.55157043 26.81067565
11369 1 6.00062247 58.55157043 26.81067565
11370 1 5.14339069 58.55157043 24.47931255
11371 1 7.71508604 58.55157043 24.47931255
11372 1 6.85785425 58.55157043 22.14794945
11373 1 9.42954960 58.55157043 22.14794945
11374 1 8.57231782 58.55157043 19.81658635
11375 1 11.14401316 58.55157043 19.81658635
11376 1 10.28678138 58.55157043 17.48522325
11377 1 12.85847673 58.55157043 17.48522325
11378 1 12.00124495 58.55157043 15.15386015
11379 1 14.57294029 58.55157043 15.15386015
11380 1 13.71570851 58.55157043 12.82249705
11381 1 16.28740385 58.55157043 12.82249705
11382 1 15.43017207 58.55157043 10.49113395
11383 1 18.00186742 58.55157043 10.49113395
11384 1 17.14463564 58.55157043 8.15977085
11385 1 19.71633098 58.55157043 8.15977085
11386 1 18.85909920 58.55157043 5.82840775
11387 1 21.43079455 58.55157043 5.82840775
11388 1 20.57356276 58.55157043 3.49704465
11389 1 23.14525811 58.55157043 3.49704465
11390 1 22.28802633 58.55157043 1.16568155
11391 1 24.85972167 58.55157043 1.16568155
11392 1 0.85723178 56.53255076 37.30180960
11393 1 0.00000000 56.53255076 34.97044650
11394 1 2.57169535 56.53255076 34.97044650
11395 1 1.71446356 56.53255076 32.63908340
11396 1 4.28615891 56.53255076 32.63908340
11397 1 3.42892713 56.53255076 30.30772030
11398 1 6.00062247 56.53255076 30.30772030
11399 1 5.14339069 56.53255076 27.97635720
11400 1 7.71508604 56.53255076 27.97635720
11401 1 6.85785425 56.53255076 25.64499410
11402 1 9.42954960 56.53255076 25.64499410
11403 1 8.57231782 56.53255076 23.31363100
11404 1 11.14401316 56.53255076 23.31363100
11405 1 10.28678138 56.53255076 20.98226790
11406 1 12.85847673 56.53255076 20.98226790
11407 1 12.00124495 56.53255076 18.65090480
11408 1 14.57294029 56.53255076 18.65090480
11409 1 13.71570851 56.53255076 16.31954170
11410 1 16.28740385 56.53255076 16.31954170
11411 1 15.43017207 56.53255076 13.98817860
11412 1 18.00186742 56.53255076 13.98817860
11413 1 17.14463564 56.53255076 11.65681550
11414 1 19.71633098 56.53255076 11.65681550
11415 1 18.85909920 56.53255076 9.32545240
11416 1 21.43079455 56.53255076 9.32545240
11417 1 20.57356276 56.53255076 6.99408930
11418 1 23.14525811 56.53255076 6.99408930
11419 1 22.28802633 56.53255076 4.66272620
11420 1 24.85972167 56.53255076 4.66272620
11421 1 24.00248989 56.53255076 2.33136310
11422 1 26.57418524 56.53255076 2.33136310
11423 1 25.71695346 56.53255076 0.00000000
11424 1 28.28864880 56.53255076 -0.00000000
11425 1 0.85723178 54.51353109 40.79885425
11426 1 -0.00000000 54.51353109 38.46749115
11427 1 2.57169535 54.51353109 38.46749115
11428 1 1.71446356 54.51353109 36.13612805
11429 1 4.28615891 54.51353109 36.13612805
11430 1 3.42892713 54.51353109 33.80476495
11431 1 6.00062247 54.51353109 33.80476495
11432 1 5.14339069 54.51353109 31.47340185
11433 1 7.71508604 54.51353109 31.47340185
11434 1 6.85785425 54.51353109 29.14203875
11435 1 9.42954960 54.51353109 29.14203875
11436 1 8.57231782 54.51353109 26.81067565
11437 1 11.14401316 54.51353109 26.81067565
11438 1 10.28678138 54.51353109 24.47931255
11439 1 12.85847673 54.51353109 24.47931255
11440 1 12.00124495 54.51353109 22.14794945
11441 1 14.57294029 54.51353109 22.14794945
11442 1 13.71570851 54.51353109 19.81658635
11443 1 16.28740385 54.51353109 19.81658635
11444 1 15.43017207 54.51353109 17.48522325
11445 1 18.00186742 54.51353109 17.48522325
11446 1 17.14463564 54.51353109 15.15386015
11447 1 19.71633098 54.51353109 15.15386015
11448 1 18.85909920 54.51353109 12.82249705
11449 1 21.43079455 54.51353109 12.82249705
11450 1 20.57356276 54.51353109 10.49113395
11451 1 23.14525811 54.51353109 10.49113395
11452 1 22.28802633 54.51353109 8.15977085
11453 1 24.85972167 54.51353109 8.15977085
11454 1 24.00248989 54.51353109 5.82840775
11455 1 26.57418524 54.51353109 5.82840775
11456 1 25.71695346 54.51353109 3.49704465
11457 1 28.28864880 54.51353109 3.49704465
11458 1 27.43141702 54.51353109 1.16568155
11459 1 30.00311236 54.51353109 1.16568155
11460 1 0.85723178 52.49451142 44.29589890
11461 1 -0.00000000 52.49451142 41.96453580
11462 1 2.57169535 52.49451142 41.96453580
11463 1 1.71446356 52.49451142 39.63317270
11464 1 4.28615891 52.49451142 39.63317270
11465 1 3.42892713 52.49451142 37.30180960
11466 1 6.00062247 52.49451142 37.30180960
11467 1 5.14339069 52.49451142 34.97044650
11468 1 7.71508604 52.49451142 34.97044650
11469 1 6.85785425 52.49451142 32.63908340
11470 1 9.42954960 52.49451142 32.63908340
11471 1 8.57231782 52.49451142 30.30772030
11472 1 11.14401316 52.49451142 30.30772030
11473 1 10.28678138 52.49451142 27.97635720
11474 1 12.85847673 52.49451142 27.97635720
11475 1 12.00124495 52.49451142 25.64499410
11476 1 14.57294029 52.49451142 25.64499410
11477 1 13.71570851 52.49451142 23.31363100
11478 1 16.28740385 52.49451142 23.31363100
11479 1 15.43017207 52.49451142 20.98226790
11480 1 18.00186742 52.49451142 20.98226790
11481 1 17.14463564 52.49451142 18.65090480
11482 1 19.71633098 52.49451142 18.65090480
11483 1 18.85909920 52.49451142 16.31954170
11484 1 21.43079455 52.49451142 16.31954170
11485 1 20.57356276 52.49451142 13.98817860
11486 1 23.14525811 52.49451142 13.98817860
11487 1 22.28802633 52.49451142 11.65681550
11488 1 24.85972167 52.49451142 11.65681550
11489 1 24.00248989 52.49451142 9.32545240
11490 1 26.57418524 52.49451142 9.32545240
11491 1 25.71695346 52.49451142 6.99408930
11492 1 28.28864880 52.49451142 6.99408930
11493 1 27.43141702 52.49451142 4.66272620
11494 1 30.00311236 52.49451142 4.66272620
11495 1 29.14588058 52.49451142 2.33136310
11496 1 31.71757593 52.49451142 2.33136310
11497 1 30.86034415 52.49451142 0.00000000
11498 1 33.43203949 52.49451142 0.00000000
11499 1 0.85723178 50.47549175 47.79294355
11500 1 0.00000000 50.47549175 45.46158045
11501 1 2.57169535 50.47549175 45.46158045
11502 1 1.71446356 50.47549175 43.13021735
11503 1 4.28615891 50.47549175 43.13021735
11504 1 3.42892713 50.47549175 40.79885425
11505 1 6.00062247 50.47549175 40.79885425
11506 1 5.14339069 50.47549175 38.46749115
11507 1 7.71508604 50.47549175 38.46749115
11508 1 6.85785425 50.47549175 36.13612805
11509 1 9.42954960 50.47549175 36.13612805
11510 1 8.57231782 50.47549175 33.80476495
11511 1 11.14401316 50.47549175 33.80476495
11512 1 10.28678138 50.47549175 31.47340185
11513 1 12.85847673 50.47549175 31.47340185
11514 1 12.00124495 50.47549175 29.14203875
11515 1 14.57294029 50.47549175 29.14203875
11516 1 13.71570851 50.47549175 26.81067565
11517 1 16.28740385 50.47549175 26.81067565
11518 1 15.43017207 50.47549175 24.47931255
11519 1 18.00186742 50.47549175 24.47931255
11520 1 17.14463564 50.47549175 22.14794945
11521 1 19.71633098 50.47549175 22.14794945
11522 1 18.85909920 50.47549175 19.81658635
11523 1 21.43079455 50.47549175 19.81658635
11524 1 20.57356276 50.47549175 17.48522325
11525 1 23.14525811 50.47549175 17.48522325
11526 1 22.28802633 50.47549175 15.15386015
11527 1 24.85972167 50.47549175 15.15386015
11528 1 24.00248989 50.47549175 12.82249705
11529 1 26.57418524 50.47549175 12.82249705
11530 1 25.71695346 50.47549175 10.49113395
11531 1 28.28864880 50.47549175 10.49113395
11532 1 27.43141702 50.47549175 8.15977085
11533 1 30.00311236 50.47549175 8.15977085
11534 1 29.14588058 50.47549175 5.82840775
11535 1 31.71757593 50.47549175 5.82840775
11536 1 30.86034415 50.47549175 3.49704465
11537 1 33.43203949 50.47549175 3.49704465
11538 1 32.57480771 50.47549175 1.16568155
11539 1 35.14650306 50.47549175 1.16568155
11540 1 1.71446356 48.45647208 46.62726200
11541 1 4.28615891 48.45647208 46.62726200
11542 1 3.42892713 48.45647208 44.29589890
11543 1 6.00062247 48.45647208 44.29589890
11544 1 5.14339069 48.45647208 41.96453580
11545 1 7.71508604 48.45647208 41.96453580
11546 1 6.85785425 48.45647208 39.63317270
11547 1 9.42954960 48.45647208 39.63317270
11548 1 8.57231782 48.45647208 37.30180960
11549 1 11.14401316 48.45647208 37.30180960
11550 1 10.28678138 48.45647208 34.97044650
11551 1 12.85847673 48.45647208 34.97044650
11552 1 12.00124495 48.45647208 32.63908340
11553 1 14.57294029 48.45647208 32.63908340
11554 1 13.71570851 48.45647208 30.30772030
11555 1 16.28740385 48.45647208 30.30772030
11556 1 15.43017207 48.45647208 27.97635720
11557 1 18.00186742 48.45647208 27.97635720
11558 1 17.14463564 48.45647208 25.64499410
11559 1 19.71633098 48.45647208 25.64499410
11560 1 18.85909920 48.45647208 23.31363100
11561 1 21.43079455 48.45647208 23.31363100
11562 1 20.57356276 48.45647208 20.98226790
11563 1 23.14525811 48.45647208 20.98226790
11564 1 22.28802633 48.45647208 18.65090480
11565 1 24.85972167 48.45647208 18.65090480
11566 1 24.00248989 48.45647208 16.31954170
11567 1 26.57418524 48.45647208 16.31954170
11568 1 25.71695346 48.45647208 13.98817860
11569 1 28.28864880 48.45647208 13.98817860
11570 1 27.43141702 48.45647208 11.65681550
11571 1 30.00311236 48.45647208 11.65681550
11572 1 29.14588058 48.45647208 9.32545240
11573 1 31.71757593 48.45647208 9.32545240
11574 1 30.86034415 48.45647208 6.99408930
11575 1 33.43203949 48.45647208 6.99408930
11576 1 32.57480771 48.45647208 4.66272620
11577 1 35.14650306 48.45647208 4.66272620
11578 1 34.28927127 48.45647208 2.33136310
11579 1 36.86096662 48.45647208 2.33136310
11580 1 36.00373484 48.45647208 0.00000000
11581 1 38.57543018 48.45647208 0.00000000
11582 1 3.42892713 46.43745241 47.79294355
11583 1 6.00062247 46.43745241 47.79294355
11584 1 5.14339069 46.43745241 45.46158045
11585 1 7.71508604 46.43745241 45.46158045
11586 1 6.85785425 46.43745241 43.13021735
11587 1 9.42954960 46.43745241 43.13021735
11588 1 8.57231782 46.43745241 40.79885425
11589 1 11.14401316 46.43745241 40.79885425
11590 1 10.28678138 46.43745241 38.46749115
11591 1 12.85847673 46.43745241 38.46749115
11592 1 12.00124495 46.43745241 36.13612805
11593 1 14.57294029 46.43745241 36.13612805
11594 1 13.71570851 46.43745241 33.80476495
11595 1 16.28740385 46.43745241 33.80476495
11596 1 15.43017207 46.43745241 31.47340185
11597 1 18.00186742 46.43745241 31.47340185
11598 1 17.14463564 46.43745241 29.14203875
11599 1 19.71633098 46.43745241 29.14203875
11600 1 18.85909920 46.43745241 26.81067565
11601 1 21.43079455 46.43745241 26.81067565
11602 1 20.57356276 46.43745241 24.47931255
11603 1 23.14525811 46.43745241 24.47931255
11604 1 22.28802633 46.43745241 22.14794945
11605 1 24.85972167 46.43745241 22.14794945
11606 1 24.00248989 46.43745241 19.81658635
11607 1 26.57418524 46.43745241 19.81658635
11608 1 25.71695346 46.43745241 17.48522325
11609 1 28.28864880 46.43745241 17.48522325
11610 1 27.43141702 46.43745241 15.15386015
11611 1 30.00311236 46.43745241 15.15386015
11612 1 29.14588058 46.43745241 12.82249705
11613 1 31.71757593 46.43745241 12.82249705
11614 1 30.86034415 46.43745241 10.49113395
11615 1 33.43203949 46.43745241 10.49113395
11616 1 32.57480771 46.43745241 8.15977085
11617 1 35.14650306 46.43745241 8.15977085
11618 1 34.28927127 46.43745241 5.82840775
11619 1 36.86096662 46.43745241 5.82840775
11620 1 36.00373484 46.43745241 3.49704465
11621 1 38.57543018 46.43745241 3.49704465
11622 1 37.71819840 46.43745241 1.16568155
11623 1 40.28989375 46.43745241 1.16568155
11624 1 6.85785425 44.41843274 46.62726200
11625 1 9.42954960 44.41843274 46.62726200
11626 1 8.57231782 44.41843274 44.29589890
11627 1 11.14401316 44.41843274 44.29589890
11628 1 10.28678138 44.41843274 41.96453580
11629 1 12.85847673 44.41843274 41.96453580
11630 1 12.00124495 44.41843274 39.63317270
11631 1 14.57294029 44.41843274 39.63317270
11632 1 13.71570851 44.41843274 37.30180960
11633 1 16.28740385 44.41843274 37.30180960
11634 1 15.43017207 44.41843274 34.97044650
11635 1 18.00186742 44.41843274 34.97044650
11636 1 17.14463564 44.41843274 32.63908340
11637 1 19.71633098 44.41843274 32.63908340
11638 1 18.85909920 44.41843274 30.30772030
11639 1 21.43079455 44.41843274 30.30772030
11640 1 20.57356276 44.41843274 27.97635720
11641 1 23.14525811 44.41843274 27.97635720
11642 1 22.28802633 44.41843274 25.64499410
11643 1 24.85972167 44.41843274 25.64499410
11644 1 24.00248989 44.41843274 23.31363100
11645 1 26.57418524 44.41843274 23.31363100
11646 1 25.71695346 44.41843274 20.98226790
11647 1 28.28864880 44.41843274 20.98226790
11648 1 27.43141702 44.41843274 18.65090480
11649 1 30.00311236 44.41843274 18.65090480
11650 1 29.14588058 44.41843274 16.31954170
11651 1 31.71757593 44.41843274 16.31954170
11652 1 30.86034415 44.41843274 13.98817860
11653 1 33.43203949 44.41843274 13.98817860
11654 1 32.57480771 44.41843274 11.65681550
11655 1 35.14650306 44.41843274 11.65681550
11656 1 34.28927127 44.41843274 9.32545240
11657 1 36.86096662 44.41843274 9.32545240
11658 1 36.00373484 44.41843274 6.99408930
11659 1 38.57543018 44.41843274 6.99408930
11660 1 37.71819840 44.41843274 4.66272620
11661 1 40.28989375 44.41843274 4.66272620
11662 1 39.43266196 44.41843274 2.33136310
11663 1 42.00435731 44.41843274 2.33136310
11664 1 41.14712553 44.41843274 -0.00000000
11665 1 43.71882087 44.41843274 0.00000000
11666 1 8.57231782 42.39941307 47.79294355
11667 1 11.14401316 42.39941307 47.79294355
11668 1 10.28678138 42.39941307 45.46158045
11669 1 12.85847673 42.39941307 45.46158045
11670 1 12.00124495 42.39941307 43.13021735
11671 1 14.57294029 42.39941307 43.13021735
11672 1 13.71570851 42.39941307 40.79885425
11673 1 16.28740385 42.39941307 40.79885425
11674 1 15.43017207 42.39941307 38.46749115
11675 1 18.00186742 42.39941307 38.46749115
11676 1 17.14463564 42.39941307 36.13612805
11677 1 19.71633098 42.39941307 36.13612805
11678 1 18.85909920 42.39941307 33.80476495
11679 1 21.43079455 42.39941307 33.80476495
11680 1 20.57356276 42.39941307 31.47340185
11681 1 23.14525811 42.39941307 31.47340185
11682 1 22.28802633 42.39941307 29.14203875
11683 1 24.85972167 42.39941307 29.14203875
11684 1 24.00248989 42.39941307 26.81067565
11685 1 26.57418524 42.39941307 26.81067565
11686 1 25.71695346 42.39941307 24.47931255
11687 1 28.28864880 42.39941307 24.47931255
11688 1 27.43141702 42.39941307 22.14794945
11689 1 30.00311236 42.39941307 22.14794945
11690 1 29.14588058 42.39941307 19.81658635
11691 1 31.71757593 42.39941307 19.81658635
11692 1 30.86034415 42.39941307 17.48522325
11693 1 33.43203949 42.39941307 17.48522325
11694 1 32.57480771 42.39941307 15.15386015
11695 1 35.14650306 42.39941307 15.15386015
11696 1 34.28927127 42.39941307 12.82249705
11697 1 36.86096662 42.39941307 12.82249705
11698 1 36.00373484 42.39941307 10.49113395
11699 1 38.57543018 42.39941307 10.49113395
11700 1 37.71819840 42.39941307 8.15977085
11701 1 40.28989375 42.39941307 8.15977085
11702 1 39.43266196 42.39941307 5.82840775
11703 1 42.00435731 42.39941307 5.82840775
11704 1 41.14712553 42.39941307 3.49704465
11705 1 43.71882087 42.39941307 3.49704465
11706 1 42.86158909 42.39941307 1.16568155
11707 1 45.43328444 42.39941307 1.16568155
11708 1 12.00124495 40.38039340 46.62726200
11709 1 14.57294029 40.38039340 46.62726200
11710 1 13.71570851 40.38039340 44.29589890
11711 1 16.28740385 40.38039340 44.29589890
11712 1 15.43017207 40.38039340 41.96453580
11713 1 18.00186742 40.38039340 41.96453580
11714 1 17.14463564 40.38039340 39.63317270
11715 1 19.71633098 40.38039340 39.63317270
11716 1 18.85909920 40.38039340 37.30180960
11717 1 21.43079455 40.38039340 37.30180960
11718 1 20.57356276 40.38039340 34.97044650
11719 1 23.14525811 40.38039340 34.97044650
11720 1 22.28802633 40.38039340 32.63908340
11721 1 24.85972167 40.38039340 32.63908340
11722 1 24.00248989 40.38039340 30.30772030
11723 1 26.57418524 40.38039340 30.30772030
11724 1 25.71695346 40.38039340 27.97635720
11725 1 28.28864880 40.38039340 27.97635720
11726 1 27.43141702 40.38039340 25.64499410
11727 1 30.00311236 40.38039340 25.64499410
11728 1 29.14588058 40.38039340 23.31363100
11729 1 31.71757593 40.38039340 23.31363100
11730 1 30.86034415 40.38039340 20.98226790
11731 1 33.43203949 40.38039340 20.98226790
11732 1 32.57480771 40.38039340 18.65090480
11733 1 35.14650306 40.38039340 18.65090480
11734 1 34.28927127 40.38039340 16.31954170
11735 1 36.86096662 40.38039340 16.31954170
11736 1 36.00373484 40.38039340 13.98817860
11737 1 38.57543018 40.38039340 13.98817860
11738 1 37.71819840 40.38039340 11.65681550
11739 1 40.28989375 40.38039340 11.65681550
11740 1 39.43266196 40.38039340 9.32545240
11741 1 42.00435731 40.38039340 9.32545240
11742 1 41.14712553 40.38039340 6.99408930
11743 1 43.71882087 40.38039340 6.99408930
11744 1 42.86158909 40.38039340 4.66272620
11745 1 45.43328444 40.38039340 4.66272620
11746 1 44.57605266 40.38039340 2.33136310
11747 1 47.14774800 40.38039340 2.33136310
11748 1 46.29051622 40.38039340 -0.00000000
11749 1 48.86221156 40.38039340 -0.00000000
11750 1 13.71570851 38.36137373 47.79294355
11751 1 16.28740385 38.36137373 47.79294355
11752 1 15.43017207 38.36137373 45.46158045
11753 1 18.00186742 38.36137373 45.46158045
11754 1 17.14463564 38.36137373 43.13021735
11755 1 19.71633098 38.36137373 43.13021735
11756 1 18.85909920 38.36137373 40.79885425
11757 1 21.43079455 38.36137373 40.79885425
11758 1 20.57356276 38.36137373 38.46749115
11759 1 23.14525811 38.36137373 38.46749115
11760 1 22.28802633 38.36137373 36.13612805
11761 1 24.85972167 38.36137373 36.13612805
11762 1 24.00248989 38.36137373 33.80476495
11763 1 26.57418524 38.36137373 33.80476495
11764 1 25.71695346 38.36137373 31.47340185
11765 1 28.28864880 38.36137373 31.47340185
11766 1 27.43141702 38.36137373 29.14203875
11767 1 30.00311236 38.36137373 29.14203875
11768 1 29.14588058 38.36137373 26.81067565
11769 1 31.71757593 38.36137373 26.81067565
11770 1 30.86034415 38.36137373 24.47931255
11771 1 33.43203949 38.36137373 24.47931255
11772 1 32.57480771 38.36137373 22.14794945
11773 1 35.14650306 38.36137373 22.14794945
11774 1 34.28927127 38.36137373 19.81658635
11775 1 36.86096662 38.36137373 19.81658635
11776 1 36.00373484 38.36137373 17.48522325
11777 1 38.57543018 38.36137373 17.48522325
11778 1 37.71819840 38.36137373 15.15386015
11779 1 40.28989375 38.36137373 15.15386015
11780 1 39.43266196 38.36137373 12.82249705
11781 1 42.00435731 38.36137373 12.82249705
11782 1 41.14712553 38.36137373 10.49113395
11783 1 43.71882087 38.36137373 10.49113395
11784 1 42.86158909 38.36137373 8.15977085
11785 1 45.43328444 38.36137373 8.15977085
11786 1 44.57605266 38.36137373 5.82840775
11787 1 47.14774800 38.36137373 5.82840775
11788 1 46.29051622 38.36137373 3.49704465
11789 1 48.86221156 38.36137373 3.49704465
11790 1 48.00497978 38.36137373 1.16568155
11791 1 50.57667513 38.36137373 1.16568155
11792 1 17.14463564 36.34235406 46.62726200
11793 1 19.71633098 36.34235406 46.62726200
11794 1 18.85909920 36.34235406 44.29589890
11795 1 21.43079455 36.34235406 44.29589890
11796 1 20.57356276 36.34235406 41.96453580
11797 1 23.14525811 36.34235406 41.96453580
11798 1 22.28802633 36.34235406 39.63317270
11799 1 24.85972167 36.34235406 39.63317270
11800 1 24.00248989 36.34235406 37.30180960
11801 1 26.57418524 36.34235406 37.30180960
11802 1 25.71695346 36.34235406 34.97044650
11803 1 28.28864880 36.34235406 34.97044650
11804 1 27.43141702 36.34235406 32.63908340
11805 1 30.00311236 36.34235406 32.63908340
11806 1 29.14588058 36.34235406 30.30772030
11807 1 31.71757593 36.34235406 30.30772030
11808 1 30.86034415 36.34235406 27.97635720
11809 1 33.43203949 36.34235406 27.97635720
11810 1 32.57480771 36.34235406 25.64499410
11811 1 35.14650306 36.34235406 25.64499410
11812 1 34.28927127 36.34235406 23.31363100
11813 1 36.86096662 36.34235406 23.31363100
11814 1 36.00373484 36.34235406 20.98226790
11815 1 38.57543018 36.34235406 20.98226790
11816 1 37.71819840 36.34235406 18.65090480
11817 1 40.28989375 36.34235406 18.65090480
11818 1 39.43266196 36.34235406 16.31954170
11819 1 42.00435731 36.34235406 16.31954170
11820 1 41.14712553 36.34235406 13.98817860
11821 1 43.71882087 36.34235406 13.98817860
11822 1 42.86158909 36.34235406 11.65681550
11823 1 45.43328444 36.34235406 11.65681550
11824 1 44.57605266 36.34235406 9.32545240
11825 1 47.14774800 36.34235406 9.32545240
11826 1 46.29051622 36.34235406 6.99408930
11827 1 48.86221156 36.34235406 6.99408930
11828 1 48.00497978 36.34235406 4.66272620
11829 1 50.57667513 36.34235406 4.66272620
11830 1 49.71944335 36.34235406 2.33136310
11831 1 52.29113869 36.34235406 2.33136310
11832 1 51.43390691 36.34235406 0.00000000
11833 1 54.00560226 36.34235406 0.00000000
11834 1 18.85909920 34.32333439 47.79294355
11835 1 21.43079455 34.32333439 47.79294355
11836 1 20.57356276 34.32333439 45.46158045
11837 1 23.14525811 34.32333439 45.46158045
11838 1 22.28802633 34.32333439 43.13021735
11839 1 24.85972167 34.32333439 43.13021735
11840 1 24.00248989 34.32333439 40.79885425
11841 1 26.57418524 34.32333439 40.79885425
11842 1 25.71695346 34.32333439 38.46749115
11843 1 28.28864880 34.32333439 38.46749115
11844 1 27.43141702 34.32333439 36.13612805
11845 1 30.00311236 34.32333439 36.13612805
11846 1 29.14588058 34.32333439 33.80476495
11847 1 31.71757593 34.32333439 33.80476495
11848 1 30.86034415 34.32333439 31.47340185
11849 1 33.43203949 34.32333439 31.47340185
11850 1 32.57480771 34.32333439 29.14203875
11851 1 35.14650306 34.32333439 29.14203875
11852 1 34.28927127 34.32333439 26.81067565
11853 1 36.86096662 34.32333439 26.81067565
11854 1 36.00373484 34.32333439 24.47931255
11855 1 38.57543018 34.32333439 24.47931255
11856 1 37.71819840 34.32333439 22.14794945
11857 1 40.28989375 34.32333439 22.14794945
11858 1 39.43266196 34.32333439 19.81658635
11859 1 42.00435731 34.32333439 19.81658635
11860 1 41.14712553 34.32333439 17.48522325
11861 1 43.71882087 34.32333439 17.48522325
11862 1 42.86158909 34.32333439 15.15386015
11863 1 45.43328444 34.32333439 15.15386015
11864 1 44.57605266 34.32333439 12.82249705
11865 1 47.14774800 34.32333439 12.82249705
11866 1 46.29051622 34.32333439 10.49113395
11867 1 48.86221156 34.32333439 10.49113395
11868 1 48.00497978 34.32333439 8.15977085
11869 1 50.57667513 34.32333439 8.15977085
11870 1 49.71944335 34.32333439 5.82840775
11871 1 52.29113869 34.32333439 5.82840775
11872 1 51.43390691 34.32333439 3.49704465
11873 1 54.00560226 34.32333439 3.49704465
11874 1 53.14837047 34.32333439 1.16568155
11875 1 55.72006582 34.32333439 1.16568155
11876 1 22.28802633 32.30431472 46.62726200
11877 1 24.85972167 32.30431472 46.62726200
11878 1 24.00248989 32.30431472 44.29589890
11879 1 26.57418524 32.30431472 44.29589890
11880 1 25.71695346 32.30431472 41.96453580
11881 1 28.28864880 32.30431472 41.96453580
11882 1 27.43141702 32.30431472 39.63317270
11883 1 30.00311236 32.30431472 39.63317270
11884 1 29.14588058 32.30431472 37.30180960
11885 1 31.71757593 32.30431472 37.30180960
11886 1 30.86034415 32.30431472 34.97044650
11887 1 33.43203949 32.30431472 34.97044650
11888 1 32.57480771 32.30431472 32.63908340
11889 1 35.14650306 32.30431472 32.63908340
11890 1 34.28927127 32.30431472 30.30772030
11891 1 36.86096662 32.30431472 30.30772030
11892 1 36.00373484 32.30431472 27.97635720
11893 1 38.57543018 32.30431472 27.97635720
11894 1 37.71819840 32.30431472 25.64499410
11895 1 40.28989375 32.30431472 25.64499410
11896 1 39.43266196 32.30431472 23.31363100
11897 1 42.00435731 32.30431472 23.31363100
11898 1 41.14712553 32.30431472 20.98226790
11899 1 43.71882087 32.30431472 20.98226790
11900 1 42.86158909 32.30431472 18.65090480
11901 1 45.43328444 32.30431472 18.65090480
11902 1 44.57605266 32.30431472 16.31954170
11903 1 47.14774800 32.30431472 16.31954170
11904 1 46.29051622 32.30431472 13.98817860
11905 1 48.86221156 32.30431472 13.98817860
11906 1 48.00497978 32.30431472 11.65681550
11907 1 50.57667513 32.30431472 11.65681550
11908 1 49.71944335 32.30431472 9.32545240
11909 1 52.29113869 32.30431472 9.32545240
11910 1 51.43390691 32.30431472 6.99408930
11911 1 54.00560226 32.30431472 6.99408930
11912 1 53.14837047 32.30431472 4.66272620
11913 1 55.72006582 32.30431472 4.66272620
11914 1 54.86283404 32.30431472 2.33136310
11915 1 57.43452938 32.30431472 2.33136310
11916 1 56.57729760 32.30431472 -0.00000000
11917 1 59.14899295 32.30431472 0.00000000
11918 1 0.85723178 62.58960977 33.80476495
11919 1 -0.00000000 62.58960977 31.47340185
11920 1 2.57169535 62.58960977 31.47340185
11921 1 1.71446356 62.58960977 29.14203875
11922 1 4.28615891 62.58960977 29.14203875
11923 1 3.42892713 62.58960977 26.81067565
11924 1 6.00062247 62.58960977 26.81067565
11925 1 5.14339069 62.58960977 24.47931255
11926 1 7.71508604 62.58960977 24.47931255
11927 1 6.85785425 62.58960977 22.14794945
11928 1 9.42954960 62.58960977 22.14794945
11929 1 8.57231782 62.58960977 19.81658635
11930 1 11.14401316 62.58960977 19.81658635
11931 1 10.28678138 62.58960977 17.48522325
11932 1 12.85847673 62.58960977 17.48522325
11933 1 12.00124495 62.58960977 15.15386015
11934 1 14.57294029 62.58960977 15.15386015
11935 1 13.71570851 62.58960977 12.82249705
11936 1 16.28740385 62.58960977 12.82249705
11937 1 15.43017207 62.58960977 10.49113395
11938 1 18.00186742 62.58960977 10.49113395
11939 1 17.14463564 62.58960977 8.15977085
11940 1 19.71633098 62.58960977 8.15977085
11941 1 18.85909920 62.58960977 5.82840775
11942 1 21.43079455 62.58960977 5.82840775
11943 1 20.57356276 62.58960977 3.49704465
11944 1 23.14525811 62.58960977 3.49704465
11945 1 22.28802633 62.58960977 1.16568155
11946 1 24.85972167 62.58960977 1.16568155
11947 1 0.85723178 60.57059010 37.30180960
11948 1 -0.00000000 60.57059010 34.97044650
11949 1 2.57169535 60.57059010 34.97044650
11950 1 1.71446356 60.57059010 32.63908340
11951 1 4.28615891 60.57059010 32.63908340
11952 1 3.42892713 60.57059010 30.30772030
11953 1 6.00062247 60.57059010 30.30772030
11954 1 5.14339069 60.57059010 27.97635720
11955 1 7.71508604 60.57059010 27.97635720
11956 1 6.85785425 60.57059010 25.64499410
11957 1 9.42954960 60.57059010 25.64499410
11958 1 8.57231782 60.57059010 23.31363100
11959 1 11.14401316 60.57059010 23.31363100
11960 1 10.28678138 60.57059010 20.98226790
11961 1 12.85847673 60.57059010 20.98226790
11962 1 12.00124495 60.57059010 18.65090480
11963 1 14.57294029 60.57059010 18.65090480
11964 1 13.71570851 60.57059010 16.31954170
11965 1 16.28740385 60.57059010 16.31954170
11966 1 15.43017207 60.57059010 13.98817860
11967 1 18.00186742 60.57059010 13.98817860
11968 1 17.14463564 60.57059010 11.65681550
11969 1 19.71633098 60.57059010 11.65681550
11970 1 18.85909920 60.57059010 9.32545240
11971 1 21.43079455 60.57059010 9.32545240
11972 1 20.57356276 60.57059010 6.99408930
11973 1 23.14525811 60.57059010 6.99408930
11974 1 22.28802633 60.57059010 4.66272620
11975 1 24.85972167 60.57059010 4.66272620
11976 1 24.00248989 60.57059010 2.33136310
11977 1 26.57418524 60.57059010 2.33136310
11978 1 25.71695346 60.57059010 -0.00000000
11979 1 28.28864880 60.57059010 -0.00000000
11980 1 0.85723178 58.55157043 40.79885425
11981 1 -0.00000000 58.55157043 38.46749115
11982 1 2.57169535 58.55157043 38.46749115
11983 1 1.71446356 58.55157043 36.13612805
11984 1 4.28615891 58.55157043 36.13612805
11985 1 3.42892713 58.55157043 33.80476495
11986 1 6.00062247 58.55157043 33.80476495
11987 1 5.14339069 58.55157043 31.47340185
11988 1 7.71508604 58.55157043 31.47340185
11989 1 6.85785425 58.55157043 29.14203875
11990 1 9.42954960 58.55157043 29.14203875
11991 1 8.57231782 58.55157043 26.81067565
11992 1 11.14401316 58.55157043 26.81067565
11993 1 10.28678138 58.55157043 24.47931255
11994 1 12.85847673 58.55157043 24.47931255
11995 1 12.00124495 58.55157043 22.14794945
11996 1 14.57294029 58.55157043 22.14794945
11997 1 13.71570851 58.55157043 19.81658635
11998 1 16.28740385 58.55157043 19.81658635
11999 1 15.43017207 58.55157043 17.48522325
12000 1 18.00186742 58.55157043 17.48522325
12001 1 17.14463564 58.55157043 15.15386015
12002 1 19.71633098 58.55157043 15.15386015
12003 1 18.85909920 58.55157043 12.82249705
12004 1 21.43079455 58.55157043 12.82249705
12005 1 20.57356276 58.55157043 10.49113395
12006 1 23.14525811 58.55157043 10.49113395
12007 1 22.28802633 58.55157043 8.15977085
12008 1 24.85972167 58.55157043 8.15977085
12009 1 24.00248989 58.55157043 5.82840775
12010 1 26.57418524 58.55157043 5.82840775
12011 1 25.71695346 58.55157043 3.49704465
12012 1 28.28864880 58.55157043 3.49704465
12013 1 27.43141702 58.55157043 1.16568155
12014 1 30.00311236 58.55157043 1.16568155
12015 1 0.85723178 56.53255076 44.29589890
12016 1 -0.00000000 56.53255076 41.96453580
12017 1 2.57169535 56.53255076 41.96453580
12018 1 1.71446356 56.53255076 39.63317270
12019 1 4.28615891 56.53255076 39.63317270
12020 1 3.42892713 56.53255076 37.30180960
12021 1 6.00062247 56.53255076 37.30180960
12022 1 5.14339069 56.53255076 34.97044650
12023 1 7.71508604 56.53255076 34.97044650
12024 1 6.85785425 56.53255076 32.63908340
12025 1 9.42954960 56.53255076 32.63908340
12026 1 8.57231782 56.53255076 30.30772030
12027 1 11.14401316 56.53255076 30.30772030
12028 1 10.28678138 56.53255076 27.97635720
12029 1 12.85847673 56.53255076 27.97635720
12030 1 12.00124495 56.53255076 25.64499410
12031 1 14.57294029 56.53255076 25.64499410
12032 1 13.71570851 56.53255076 23.31363100
12033 1 16.28740385 56.53255076 23.31363100
12034 1 15.43017207 56.53255076 20.98226790
12035 1 18.00186742 56.53255076 20.98226790
12036 1 17.14463564 56.53255076 18.65090480
12037 1 19.71633098 56.53255076 18.65090480
12038 1 18.85909920 56.53255076 16.31954170
12039 1 21.43079455 56.53255076 16.31954170
12040 1 20.57356276 56.53255076 13.98817860
12041 1 23.14525811 56.53255076 13.98817860
12042 1 22.28802633 56.53255076 11.65681550
12043 1 24.85972167 56.53255076 11.65681550
12044 1 24.00248989 56.53255076 9.32545240
12045 1 26.57418524 56.53255076 9.32545240
12046 1 25.71695346 56.53255076 6.99408930
12047 1 28.28864880 56.53255076 6.99408930
12048 1 27.43141702 56.53255076 4.66272620
12049 1 30.00311236 56.53255076 4.66272620
12050 1 29.14588058 56.53255076 2.33136310
12051 1 31.71757593 56.53255076 2.33136310
12052 1 30.86034415 56.53255076 0.00000000
12053 1 33.43203949 56.53255076 -0.00000000
12054 1 0.85723178 54.51353109 47.79294355
12055 1 -0.00000000 54.51353109 45.46158045
12056 1 2.57169535 54.51353109 45.46158045
12057 1 1.71446356 54.51353109 43.13021735
12058 1 4.28615891 54.51353109 43.13021735
12059 1 3.42892713 54.51353109 40.79885425
12060 1 6.00062247 54.51353109 40.79885425
12061 1 5.14339069 54.51353109 38.46749115
12062 1 7.71508604 54.51353109 38.46749115
12063 1 6.85785425 54.51353109 36.13612805
12064 1 9.42954960 54.51353109 36.13612805
12065 1 8.57231782 54.51353109 33.80476495
12066 1 11.14401316 54.51353109 33.80476495
12067 1 10.28678138 54.51353109 31.47340185
12068 1 12.85847673 54.51353109 31.47340185
12069 1 12.00124495 54.51353109 29.14203875
12070 1 14.57294029 54.51353109 29.14203875
12071 1 13.71570851 54.51353109 26.81067565
12072 1 16.28740385 54.51353109 26.81067565
12073 1 15.43017207 54.51353109 24.47931255
12074 1 18.00186742 54.51353109 24.47931255
12075 1 17.14463564 54.51353109 22.14794945
12076 1 19.71633098 54.51353109 22.14794945
12077 1 18.85909920 54.51353109 19.81658635
12078 1 21.43079455 54.51353109 19.81658635
12079 1 20.57356276 54.51353109 17.48522325
12080 1 23.14525811 54.51353109 17.48522325
12081 1 22.28802633 54.51353109 15.15386015
12082 1 24.85972167 54.51353109 15.15386015
12083 1 24.00248989 54.51353109 12.82249705
12084 1 26.57418524 54.51353109 12.82249705
12085 1 25.71695346 54.51353109 10.49113395
12086 1 28.28864880 54.51353109 10.49113395
12087 1 27.43141702 54.51353109 8.15977085
12088 1 30.00311236 54.51353109 8.15977085
12089 1 29.14588058 54.51353109 5.82840775
12090 1 31.71757593 54.51353109 5.82840775
12091 1 30.86034415 54.51353109 3.49704465
12092 1 33.43203949 54.51353109 3.49704465
12093 1 32.57480771 54.51353109 1.16568155
12094 1 35.14650306 54.51353109 1.16568155
12095 1 1.71446356 52.49451142 46.62726200
12096 1 4.28615891 52.49451142 46.62726200
12097 1 3.42892713 52.49451142 44.29589890
12098 1 6.00062247 52.49451142 44.29589890
12099 1 5.14339069 52.49451142 41.96453580
12100 1 7.71508604 52.49451142 41.96453580
12101 1 6.85785425 52.49451142 39.63317270
12102 1 9.42954960 52.49451142 39.63317270
12103 1 8.57231782 52.49451142 37.30180960
12104 1 11.14401316 52.49451142 37.30180960
12105 1 10.28678138 52.49451142 34.97044650
12106 1 12.85847673 52.49451142 34.97044650
12107 1 12.00124495 52.49451142 32.63908340
12108 1 14.57294029 52.49451142 32.63908340
12109 1 13.71570851 52.49451142 30.30772030
12110 1 16.28740385 52.49451142 30.30772030
12111 1 15.43017207 52.49451142 27.97635720
12112 1 18.00186742 52.49451142 27.97635720
12113 1 17.14463564 52.49451142 25.64499410
12114 1 19.71633098 52.49451142 25.64499410
12115 1 18.85909920 52.49451142 23.31363100
12116 1 21.43079455 52.49451142 23.31363100
12117 1 20.57356276 52.49451142 20.98226790
12118 1 23.14525811 52.49451142 20.98226790
12119 1 22.28802633 52.49451142 18.65090480
12120 1 24.85972167 52.49451142 18.65090480
12121 1 24.00248989 52.49451142 16.31954170
12122 1 26.57418524 52.49451142 16.31954170
12123 1 25.71695346 52.49451142 13.98817860
12124 1 28.28864880 52.49451142 13.98817860
12125 1 27.43141702 52.49451142 11.65681550
12126 1 30.00311236 52.49451142 11.65681550
12127 1 29.14588058 52.49451142 9.32545240
12128 1 31.71757593 52.49451142 9.32545240
12129 1 30.86034415 52.49451142 6.99408930
12130 1 33.43203949 52.49451142 6.99408930
12131 1 32.57480771 52.49451142 4.66272620
12132 1 35.14650306 52.49451142 4.66272620
12133 1 34.28927127 52.49451142 2.33136310
12134 1 36.86096662 52.49451142 2.33136310
12135 1 36.00373484 52.49451142 0.00000000
12136 1 38.57543018 52.49451142 -0.00000000
12137 1 3.42892713 50.47549175 47.79294355
12138 1 6.00062247 50.47549175 47.79294355
12139 1 5.14339069 50.47549175 45.46158045
12140 1 7.71508604 50.47549175 45.46158045
12141 1 6.85785425 50.47549175 43.13021735
12142 1 9.42954960 50.47549175 43.13021735
12143 1 8.57231782 50.47549175 40.79885425
12144 1 11.14401316 50.47549175 40.79885425
12145 1 10.28678138 50.47549175 38.46749115
12146 1 12.85847673 50.47549175 38.46749115
12147 1 12.00124495 50.47549175 36.13612805
12148 1 14.57294029 50.47549175 36.13612805
12149 1 13.71570851 50.47549175 33.80476495
12150 1 16.28740385 50.47549175 33.80476495
12151 1 15.43017207 50.47549175 31.47340185
12152 1 18.00186742 50.47549175 31.47340185
12153 1 17.14463564 50.47549175 29.14203875
12154 1 19.71633098 50.47549175 29.14203875
12155 1 18.85909920 50.47549175 26.81067565
12156 1 21.43079455 50.47549175 26.81067565
12157 1 20.57356276 50.47549175 24.47931255
12158 1 23.14525811 50.47549175 24.47931255
12159 1 22.28802633 50.47549175 22.14794945
12160 1 24.85972167 50.47549175 22.14794945
12161 1 24.00248989 50.47549175 19.81658635
12162 1 26.57418524 50.47549175 19.81658635
12163 1 25.71695346 50.47549175 17.48522325
12164 1 28.28864880 50.47549175 17.48522325
12165 1 27.43141702 50.47549175 15.15386015
12166 1 30.00311236 50.47549175 15.15386015
12167 1 29.14588058 50.47549175 12.82249705
12168 1 31.71757593 50.47549175 12.82249705
12169 1 30.86034415 50.47549175 10.49113395
12170 1 33.43203949 50.47549175 10.49113395
12171 1 32.57480771 50.47549175 8.15977085
12172 1 35.14650306 50.47549175 8.15977085
12173 1 34.28927127 50.47549175 5.82840775
12174 1 36.86096662 50.47549175 5.82840775
12175 1 36.00373484 50.47549175 3.49704465
12176 1 38.57543018 50.47549175 3.49704465
12177 1 37.71819840 50.47549175 1.16568155
12178 1 40.28989375 50.47549175 1.16568155
12179 1 6.85785425 48.45647208 46.62726200
12180 1 9.42954960 48.45647208 46.62726200
12181 1 8.57231782 48.45647208 44.29589890
12182 1 11.14401316 48.45647208 44.29589890
12183 1 10.28678138 48.45647208 41.96453580
12184 1 12.85847673 48.45647208 41.96453580
12185 1 12.00124495 48.45647208 39.63317270
12186 1 14.57294029 48.45647208 39.63317270
12187 1 13.71570851 48.45647208 37.30180960
12188 1 16.28740385 48.45647208 37.30180960
12189 1 15.43017207 48.45647208 34.97044650
12190 1 18.00186742 48.45647208 34.97044650
12191 1 17.14463564 48.45647208 32.63908340
12192 1 19.71633098 48.45647208 32.63908340
12193 1 18.85909920 48.45647208 30.30772030
12194 1 21.43079455 48.45647208 30.30772030
12195 1 20.57356276 48.45647208 27.97635720
12196 1 23.14525811 48.45647208 27.97635720
12197 1 22.28802633 48.45647208 25.64499410
12198 1 24.85972167 48.45647208 25.64499410
12199 1 24.00248989 48.45647208 23.31363100
12200 1 26.57418524 48.45647208 23.31363100
12201 1 25.71695346 48.45647208 20.98226790
12202 1 28.28864880 48.45647208 20.98226790
12203 1 27.43141702 48.45647208 18.65090480
12204 1 30.00311236 48.45647208 18.65090480
12205 1 29.14588058 48.45647208 16.31954170
12206 1 31.71757593 48.45647208 16.31954170
12207 1 30.86034415 48.45647208 13.98817860
12208 1 33.43203949 48.45647208 13.98817860
12209 1 32.57480771 48.45647208 11.65681550
12210 1 35.14650306 48.45647208 11.65681550
12211 1 34.28927127 48.45647208 9.32545240
12212 1 36.86096662 48.45647208 9.32545240
12213 1 36.00373484 48.45647208 6.99408930
12214 1 38.57543018 48.45647208 6.99408930
12215 1 37.71819840 48.45647208 4.66272620
12216 1 40.28989375 48.45647208 4.66272620
12217 1 39.43266196 48.45647208 2.33136310
12218 1 42.00435731 48.45647208 2.33136310
12219 1 41.14712553 48.45647208 -0.00000000
12220 1 43.71882087 48.45647208 -0.00000000
12221 1 8.57231782 46.43745241 47.79294355
12222 1 11.14401316 46.43745241 47.79294355
12223 1 10.28678138 46.43745241 45.46158045
12224 1 12.85847673 46.43745241 45.46158045
12225 1 12.00124495 46.43745241 43.13021735
12226 1 14.57294029 46.43745241 43.13021735
12227 1 13.71570851 46.43745241 40.79885425
12228 1 16.28740385 46.43745241 40.79885425
12229 1 15.43017207 46.43745241 38.46749115
12230 1 18.00186742 46.43745241 38.46749115
12231 1 17.14463564 46.43745241 36.13612805
12232 1 19.71633098 46.43745241 36.13612805
12233 1 18.85909920 46.43745241 33.80476495
12234 1 21.43079455 46.43745241 33.80476495
12235 1 20.57356276 46.43745241 31.47340185
12236 1 23.14525811 46.43745241 31.47340185
12237 1 22.28802633 46.43745241 29.14203875
12238 1 24.85972167 46.43745241 29.14203875
12239 1 24.00248989 46.43745241 26.81067565
12240 1 26.57418524 46.43745241 26.81067565
12241 1 25.71695346 46.43745241 24.47931255
12242 1 28.28864880 46.43745241 24.47931255
12243 1 27.43141702 46.43745241 22.14794945
12244 1 30.00311236 46.43745241 22.14794945
12245 1 29.14588058 46.43745241 19.81658635
12246 1 31.71757593 46.43745241 19.81658635
12247 1 30.86034415 46.43745241 17.48522325
12248 1 33.43203949 46.43745241 17.48522325
12249 1 32.57480771 46.43745241 15.15386015
12250 1 35.14650306 46.43745241 15.15386015
12251 1 34.28927127 46.43745241 12.82249705
12252 1 36.86096662 46.43745241 12.82249705
12253 1 36.00373484 46.43745241 10.49113395
12254 1 38.57543018 46.43745241 10.49113395
12255 1 37.71819840 46.43745241 8.15977085
12256 1 40.28989375 46.43745241 8.15977085
12257 1 39.43266196 46.43745241 5.82840775
12258 1 42.00435731 46.43745241 5.82840775
12259 1 41.14712553 46.43745241 3.49704465
12260 1 43.71882087 46.43745241 3.49704465
12261 1 42.86158909 46.43745241 1.16568155
12262 1 45.43328444 46.43745241 1.16568155
12263 1 12.00124495 44.41843274 46.62726200
12264 1 14.57294029 44.41843274 46.62726200
12265 1 13.71570851 44.41843274 44.29589890
12266 1 16.28740385 44.41843274 44.29589890
12267 1 15.43017207 44.41843274 41.96453580
12268 1 18.00186742 44.41843274 41.96453580
12269 1 17.14463564 44.41843274 39.63317270
12270 1 19.71633098 44.41843274 39.63317270
12271 1 18.85909920 44.41843274 37.30180960
12272 1 21.43079455 44.41843274 37.30180960
12273 1 20.57356276 44.41843274 34.97044650
12274 1 23.14525811 44.41843274 34.97044650
12275 1 22.28802633 44.41843274 32.63908340
12276 1 24.85972167 44.41843274 32.63908340
12277 1 24.00248989 44.41843274 30.30772030
12278 1 26.57418524 44.41843274 30.30772030
12279 1 25.71695346 44.41843274 27.97635720
12280 1 28.28864880 44.41843274 27.97635720
12281 1 27.43141702 44.41843274 25.64499410
12282 1 30.00311236 44.41843274 25.64499410
12283 1 29.14588058 44.41843274 23.31363100
12284 1 31.71757593 44.41843274 23.31363100
12285 1 30.86034415 44.41843274 20.98226790
12286 1 33.43203949 44.41843274 20.98226790
12287 1 32.57480771 44.41843274 18.65090480
12288 1 35.14650306 44.41843274 18.65090480
12289 1 34.28927127 44.41843274 16.31954170
12290 1 36.86096662 44.41843274 16.31954170
12291 1 36.00373484 44.41843274 13.98817860
12292 1 38.57543018 44.41843274 13.98817860
12293 1 37.71819840 44.41843274 11.65681550
12294 1 40.28989375 44.41843274 11.65681550
12295 1 39.43266196 44.41843274 9.32545240
12296 1 42.00435731 44.41843274 9.32545240
12297 1 41.14712553 44.41843274 6.99408930
12298 1 43.71882087 44.41843274 6.99408930
12299 1 42.86158909 44.41843274 4.66272620
12300 1 45.43328444 44.41843274 4.66272620
12301 1 44.57605266 44.41843274 2.33136310
12302 1 47.14774800 44.41843274 2.33136310
12303 1 46.29051622 44.41843274 -0.00000000
12304 1 48.86221156 44.41843274 -0.00000000
12305 1 13.71570851 42.39941307 47.79294355
12306 1 16.28740385 42.39941307 47.79294355
12307 1 15.43017207 42.39941307 45.46158045
12308 1 18.00186742 42.39941307 45.46158045
12309 1 17.14463564 42.39941307 43.13021735
12310 1 19.71633098 42.39941307 43.13021735
12311 1 18.85909920 42.39941307 40.79885425
12312 1 21.43079455 42.39941307 40.79885425
12313 1 20.57356276 42.39941307 38.46749115
12314 1 23.14525811 42.39941307 38.46749115
12315 1 22.28802633 42.39941307 36.13612805
12316 1 24.85972167 42.39941307 36.13612805
12317 1 24.00248989 42.39941307 33.80476495
12318 1 26.57418524 42.39941307 33.80476495
12319 1 25.71695346 42.39941307 31.47340185
12320 1 28.28864880 42.39941307 31.47340185
12321 1 27.43141702 42.39941307 29.14203875
12322 1 30.00311236 42.39941307 29.14203875
12323 1 29.14588058 42.39941307 26.81067565
12324 1 31.71757593 42.39941307 26.81067565
12325 1 30.86034415 42.39941307 24.47931255
12326 1 33.43203949 42.39941307 24.47931255
12327 1 32.57480771 42.39941307 22.14794945
12328 1 35.14650306 42.39941307 22.14794945
12329 1 34.28927127 42.39941307 19.81658635
12330 1 36.86096662 42.39941307 19.81658635
12331 1 36.00373484 42.39941307 17.48522325
12332 1 38.57543018 42.39941307 17.48522325
12333 1 37.71819840 42.39941307 15.15386015
12334 1 40.28989375 42.39941307 15.15386015
12335 1 39.43266196 42.39941307 12.82249705
12336 1 42.00435731 42.39941307 12.82249705
12337 1 41.14712553 42.39941307 10.49113395
12338 1 43.71882087 42.39941307 10.49113395
12339 1 42.86158909 42.39941307 8.15977085
12340 1 45.43328444 42.39941307 8.15977085
12341 1 44.57605266 42.39941307 5.82840775
12342 1 47.14774800 42.39941307 5.82840775
12343 1 46.29051622 42.39941307 3.49704465
12344 1 48.86221156 42.39941307 3.49704465
12345 1 48.00497978 42.39941307 1.16568155
12346 1 50.57667513 42.39941307 1.16568155
12347 1 17.14463564 40.38039340 46.62726200
12348 1 19.71633098 40.38039340 46.62726200
12349 1 18.85909920 40.38039340 44.29589890
12350 1 21.43079455 40.38039340 44.29589890
12351 1 20.57356276 40.38039340 41.96453580
12352 1 23.14525811 40.38039340 41.96453580
12353 1 22.28802633 40.38039340 39.63317270
12354 1 24.85972167 40.38039340 39.63317270
12355 1 24.00248989 40.38039340 37.30180960
12356 1 26.57418524 40.38039340 37.30180960
12357 1 25.71695346 40.38039340 34.97044650
12358 1 28.28864880 40.38039340 34.97044650
12359 1 27.43141702 40.38039340 32.63908340
12360 1 30.00311236 40.38039340 32.63908340
12361 1 29.14588058 40.38039340 30.30772030
12362 1 31.71757593 40.38039340 30.30772030
12363 1 30.86034415 40.38039340 27.97635720
12364 1 33.43203949 40.38039340 27.97635720
12365 1 32.57480771 40.38039340 25.64499410
12366 1 35.14650306 40.38039340 25.64499410
12367 1 34.28927127 40.38039340 23.31363100
12368 1 36.86096662 40.38039340 23.31363100
12369 1 36.00373484 40.38039340 20.98226790
12370 1 38.57543018 40.38039340 20.98226790
12371 1 37.71819840 40.38039340 18.65090480
12372 1 40.28989375 40.38039340 18.65090480
12373 1 39.43266196 40.38039340 16.31954170
12374 1 42.00435731 40.38039340 16.31954170
12375 1 41.14712553 40.38039340 13.98817860
12376 1 43.71882087 40.38039340 13.98817860
12377 1 42.86158909 40.38039340 11.65681550
12378 1 45.43328444 40.38039340 11.65681550
12379 1 44.57605266 40.38039340 9.32545240
12380 1 47.14774800 40.38039340 9.32545240
12381 1 46.29051622 40.38039340 6.99408930
12382 1 48.86221156 40.38039340 6.99408930
12383 1 48.00497978 40.38039340 4.66272620
12384 1 50.57667513 40.38039340 4.66272620
12385 1 49.71944335 40.38039340 2.33136310
12386 1 52.29113869 40.38039340 2.33136310
12387 1 51.43390691 40.38039340 0.00000000
12388 1 54.00560226 40.38039340 -0.00000000
12389 1 18.85909920 38.36137373 47.79294355
12390 1 21.43079455 38.36137373 47.79294355
12391 1 20.57356276 38.36137373 45.46158045
12392 1 23.14525811 38.36137373 45.46158045
12393 1 22.28802633 38.36137373 43.13021735
12394 1 24.85972167 38.36137373 43.13021735
12395 1 24.00248989 38.36137373 40.79885425
12396 1 26.57418524 38.36137373 40.79885425
12397 1 25.71695346 38.36137373 38.46749115
12398 1 28.28864880 38.36137373 38.46749115
12399 1 27.43141702 38.36137373 36.13612805
12400 1 30.00311236 38.36137373 36.13612805
12401 1 29.14588058 38.36137373 33.80476495
12402 1 31.71757593 38.36137373 33.80476495
12403 1 30.86034415 38.36137373 31.47340185
12404 1 33.43203949 38.36137373 31.47340185
12405 1 32.57480771 38.36137373 29.14203875
12406 1 35.14650306 38.36137373 29.14203875
12407 1 34.28927127 38.36137373 26.81067565
12408 1 36.86096662 38.36137373 26.81067565
12409 1 36.00373484 38.36137373 24.47931255
12410 1 38.57543018 38.36137373 24.47931255
12411 1 37.71819840 38.36137373 22.14794945
12412 1 40.28989375 38.36137373 22.14794945
12413 1 39.43266196 38.36137373 19.81658635
12414 1 42.00435731 38.36137373 19.81658635
12415 1 41.14712553 38.36137373 17.48522325
12416 1 43.71882087 38.36137373 17.48522325
12417 1 42.86158909 38.36137373 15.15386015
12418 1 45.43328444 38.36137373 15.15386015
12419 1 44.57605266 38.36137373 12.82249705
12420 1 47.14774800 38.36137373 12.82249705
12421 1 46.29051622 38.36137373 10.49113395
12422 1 48.86221156 38.36137373 10.49113395
12423 1 48.00497978 38.36137373 8.15977085
12424 1 50.57667513 38.36137373 8.15977085
12425 1 49.71944335 38.36137373 5.82840775
12426 1 52.29113869 38.36137373 5.82840775
12427 1 51.43390691 38.36137373 3.49704465
12428 1 54.00560226 38.36137373 3.49704465
12429 1 53.14837047 38.36137373 1.16568155
12430 1 55.72006582 38.36137373 1.16568155
12431 1 22.28802633 36.34235406 46.62726200
12432 1 24.85972167 36.34235406 46.62726200
12433 1 24.00248989 36.34235406 44.29589890
12434 1 26.57418524 36.34235406 44.29589890
12435 1 25.71695346 36.34235406 41.96453580
12436 1 28.28864880 36.34235406 41.96453580
12437 1 27.43141702 36.34235406 39.63317270
12438 1 30.00311236 36.34235406 39.63317270
12439 1 29.14588058 36.34235406 37.30180960
12440 1 31.71757593 36.34235406 37.30180960
12441 1 30.86034415 36.34235406 34.97044650
12442 1 33.43203949 36.34235406 34.97044650
12443 1 32.57480771 36.34235406 32.63908340
12444 1 35.14650306 36.34235406 32.63908340
12445 1 34.28927127 36.34235406 30.30772030
12446 1 36.86096662 36.34235406 30.30772030
12447 1 36.00373484 36.34235406 27.97635720
12448 1 38.57543018 36.34235406 27.97635720
12449 1 37.71819840 36.34235406 25.64499410
12450 1 40.28989375 36.34235406 25.64499410
12451 1 39.43266196 36.34235406 23.31363100
12452 1 42.00435731 36.34235406 23.31363100
12453 1 41.14712553 36.34235406 20.98226790
12454 1 43.71882087 36.34235406 20.98226790
12455 1 42.86158909 36.34235406 18.65090480
12456 1 45.43328444 36.34235406 18.65090480
12457 1 44.57605266 36.34235406 16.31954170
12458 1 47.14774800 36.34235406 16.31954170
12459 1 46.29051622 36.34235406 13.98817860
12460 1 48.86221156 36.34235406 13.98817860
12461 1 48.00497978 36.34235406 11.65681550
12462 1 50.57667513 36.34235406 11.65681550
12463 1 49.71944335 36.34235406 9.32545240
12464 1 52.29113869 36.34235406 9.32545240
12465 1 51.43390691 36.34235406 6.99408930
12466 1 54.00560226 36.34235406 6.99408930
12467 1 53.14837047 36.34235406 4.66272620
12468 1 55.72006582 36.34235406 4.66272620
12469 1 54.86283404 36.34235406 2.33136310
12470 1 57.43452938 36.34235406 2.33136310
12471 1 56.57729760 36.34235406 -0.00000000
12472 1 59.14899295 36.34235406 -0.00000000
12473 1 24.00248989 34.32333439 47.79294355
12474 1 26.57418524 34.32333439 47.79294355
12475 1 25.71695346 34.32333439 45.46158045
12476 1 28.28864880 34.32333439 45.46158045
12477 1 27.43141702 34.32333439 43.13021735
12478 1 30.00311236 34.32333439 43.13021735
12479 1 29.14588058 34.32333439 40.79885425
12480 1 31.71757593 34.32333439 40.79885425
12481 1 30.86034415 34.32333439 38.46749115
12482 1 33.43203949 34.32333439 38.46749115
12483 1 32.57480771 34.32333439 36.13612805
12484 1 35.14650306 34.32333439 36.13612805
12485 1 34.28927127 34.32333439 33.80476495
12486 1 36.86096662 34.32333439 33.80476495
12487 1 36.00373484 34.32333439 31.47340185
12488 1 38.57543018 34.32333439 31.47340185
12489 1 37.71819840 34.32333439 29.14203875
12490 1 40.28989375 34.32333439 29.14203875
12491 1 39.43266196 34.32333439 26.81067565
12492 1 42.00435731 34.32333439 26.81067565
12493 1 41.14712553 34.32333439 24.47931255
12494 1 43.71882087 34.32333439 24.47931255
12495 1 42.86158909 34.32333439 22.14794945
12496 1 45.43328444 34.32333439 22.14794945
12497 1 44.57605266 34.32333439 19.81658635
12498 1 47.14774800 34.32333439 19.81658635
12499 1 46.29051622 34.32333439 17.48522325
12500 1 48.86221156 34.32333439 17.48522325
12501 1 48.00497978 34.32333439 15.15386015
12502 1 50.57667513 34.32333439 15.15386015
12503 1 49.71944335 34.32333439 12.82249705
12504 1 52.29113869 34.32333439 12.82249705
12505 1 51.43390691 34.32333439 10.49113395
12506 1 54.00560226 34.32333439 10.49113395
12507 1 53.14837047 34.32333439 8.15977085
12508 1 55.72006582 34.32333439 8.15977085
12509 1 54.86283404 34.32333439 5.82840775
12510 1 57.43452938 34.32333439 5.82840775
12511 1 56.57729760 34.32333439 3.49704465
12512 1 59.14899295 34.32333439 3.49704465
12513 1 58.29176116 34.32333439 1.16568155
12514 1 60.86345651 34.32333439 1.16568155
12515 1 27.43141702 32.30431472 46.62726200
12516 1 30.00311236 32.30431472 46.62726200
12517 1 29.14588058 32.30431472 44.29589890
12518 1 31.71757593 32.30431472 44.29589890
12519 1 30.86034415 32.30431472 41.96453580
12520 1 33.43203949 32.30431472 41.96453580
12521 1 32.57480771 32.30431472 39.63317270
12522 1 35.14650306 32.30431472 39.63317270
12523 1 34.28927127 32.30431472 37.30180960
12524 1 36.86096662 32.30431472 37.30180960
12525 1 36.00373484 32.30431472 34.97044650
12526 1 38.57543018 32.30431472 34.97044650
12527 1 37.71819840 32.30431472 32.63908340
12528 1 40.28989375 32.30431472 32.63908340
12529 1 39.43266196 32.30431472 30.30772030
12530 1 42.00435731 32.30431472 30.30772030
12531 1 41.14712553 32.30431472 27.97635720
12532 1 43.71882087 32.30431472 27.97635720
12533 1 42.86158909 32.30431472 25.64499410
12534 1 45.43328444 32.30431472 25.64499410
12535 1 44.57605266 32.30431472 23.31363100
12536 1 47.14774800 32.30431472 23.31363100
12537 1 46.29051622 32.30431472 20.98226790
12538 1 48.86221156 32.30431472 20.98226790
12539 1 48.00497978 32.30431472 18.65090480
12540 1 50.57667513 32.30431472 18.65090480
12541 1 49.71944335 32.30431472 16.31954170
12542 1 52.29113869 32.30431472 16.31954170
12543 1 51.43390691 32.30431472 13.98817860
12544 1 54.00560226 32.30431472 13.98817860
12545 1 53.14837047 32.30431472 11.65681550
12546 1 55.72006582 32.30431472 11.65681550
12547 1 54.86283404 32.30431472 9.32545240
12548 1 57.43452938 32.30431472 9.32545240
12549 1 56.57729760 32.30431472 6.99408930
12550 1 59.14899295 32.30431472 6.99408930
12551 1 58.29176116 32.30431472 4.66272620
12552 1 60.86345651 32.30431472 4.66272620
12553 1 60.00622473 32.30431472 2.33136310
12554 1 62.57792007 32.30431472 2.33136310
12555 1 61.72068829 32.30431472 0.00000000
12556 1 0.85723178 62.58960977 40.79885425
12557 1 -0.00000000 62.58960977 38.46749115
12558 1 2.57169535 62.58960977 38.46749115
12559 1 1.71446356 62.58960977 36.13612805
12560 1 4.28615891 62.58960977 36.13612805
12561 1 3.42892713 62.58960977 33.80476495
12562 1 6.00062247 62.58960977 33.80476495
12563 1 5.14339069 62.58960977 31.47340185
12564 1 7.71508604 62.58960977 31.47340185
12565 1 6.85785425 62.58960977 29.14203875
12566 1 9.42954960 62.58960977 29.14203875
12567 1 8.57231782 62.58960977 26.81067565
12568 1 11.14401316 62.58960977 26.81067565
12569 1 10.28678138 62.58960977 24.47931255
12570 1 12.85847673 62.58960977 24.47931255
12571 1 12.00124495 62.58960977 22.14794945
12572 1 14.57294029 62.58960977 22.14794945
12573 1 13.71570851 62.58960977 19.81658635
12574 1 16.28740385 62.58960977 19.81658635
12575 1 15.43017207 62.58960977 17.48522325
12576 1 18.00186742 62.58960977 17.48522325
12577 1 17.14463564 62.58960977 15.15386015
12578 1 19.71633098 62.58960977 15.15386015
12579 1 18.85909920 62.58960977 12.82249705
12580 1 21.43079455 62.58960977 12.82249705
12581 1 20.57356276 62.58960977 10.49113395
12582 1 23.14525811 62.58960977 10.49113395
12583 1 22.28802633 62.58960977 8.15977085
12584 1 24.85972167 62.58960977 8.15977085
12585 1 24.00248989 62.58960977 5.82840775
12586 1 26.57418524 62.58960977 5.82840775
12587 1 25.71695346 62.58960977 3.49704465
12588 1 28.28864880 62.58960977 3.49704465
12589 1 27.43141702 62.58960977 1.16568155
12590 1 30.00311236 62.58960977 1.16568155
12591 1 0.85723178 60.57059010 44.29589890
12592 1 0.00000000 60.57059010 41.96453580
12593 1 2.57169535 60.57059010 41.96453580
12594 1 1.71446356 60.57059010 39.63317270
12595 1 4.28615891 60.57059010 39.63317270
12596 1 3.42892713 60.57059010 37.30180960
12597 1 6.00062247 60.57059010 37.30180960
12598 1 5.14339069 60.57059010 34.97044650
12599 1 7.71508604 60.57059010 34.97044650
12600 1 6.85785425 60.57059010 32.63908340
12601 1 9.42954960 60.57059010 32.63908340
12602 1 8.57231782 60.57059010 30.30772030
12603 1 11.14401316 60.57059010 30.30772030
12604 1 10.28678138 60.57059010 27.97635720
12605 1 12.85847673 60.57059010 27.97635720
12606 1 12.00124495 60.57059010 25.64499410
12607 1 14.57294029 60.57059010 25.64499410
12608 1 13.71570851 60.57059010 23.31363100
12609 1 16.28740385 60.57059010 23.31363100
12610 1 15.43017207 60.57059010 20.98226790
12611 1 18.00186742 60.57059010 20.98226790
12612 1 17.14463564 60.57059010 18.65090480
12613 1 19.71633098 60.57059010 18.65090480
12614 1 18.85909920 60.57059010 16.31954170
12615 1 21.43079455 60.57059010 16.31954170
12616 1 20.57356276 60.57059010 13.98817860
12617 1 23.14525811 60.57059010 13.98817860
12618 1 22.28802633 60.57059010 11.65681550
12619 1 24.85972167 60.57059010 11.65681550
12620 1 24.00248989 60.57059010 9.32545240
12621 1 26.57418524 60.57059010 9.32545240
12622 1 25.71695346 60.57059010 6.99408930
12623 1 28.28864880 60.57059010 6.99408930
12624 1 27.43141702 60.57059010 4.66272620
12625 1 30.00311236 60.57059010 4.66272620
12626 1 29.14588058 60.57059010 2.33136310
12627 1 31.71757593 60.57059010 2.33136310
12628 1 30.86034415 60.57059010 0.00000000
12629 1 33.43203949 60.57059010 -0.00000000
12630 1 0.85723178 58.55157043 47.79294355
12631 1 0.00000000 58.55157043 45.46158045
12632 1 2.57169535 58.55157043 45.46158045
12633 1 1.71446356 58.55157043 43.13021735
12634 1 4.28615891 58.55157043 43.13021735
12635 1 3.42892713 58.55157043 40.79885425
12636 1 6.00062247 58.55157043 40.79885425
12637 1 5.14339069 58.55157043 38.46749115
12638 1 7.71508604 58.55157043 38.46749115
12639 1 6.85785425 58.55157043 36.13612805
12640 1 9.42954960 58.55157043 36.13612805
12641 1 8.57231782 58.55157043 33.80476495
12642 1 11.14401316 58.55157043 33.80476495
12643 1 10.28678138 58.55157043 31.47340185
12644 1 12.85847673 58.55157043 31.47340185
12645 1 12.00124495 58.55157043 29.14203875
12646 1 14.57294029 58.55157043 29.14203875
12647 1 13.71570851 58.55157043 26.81067565
12648 1 16.28740385 58.55157043 26.81067565
12649 1 15.43017207 58.55157043 24.47931255
12650 1 18.00186742 58.55157043 24.47931255
12651 1 17.14463564 58.55157043 22.14794945
12652 1 19.71633098 58.55157043 22.14794945
12653 1 18.85909920 58.55157043 19.81658635
12654 1 21.43079455 58.55157043 19.81658635
12655 1 20.57356276 58.55157043 17.48522325
12656 1 23.14525811 58.55157043 17.48522325
12657 1 22.28802633 58.55157043 15.15386015
12658 1 24.85972167 58.55157043 15.15386015
12659 1 24.00248989 58.55157043 12.82249705
12660 1 26.57418524 58.55157043 12.82249705
12661 1 25.71695346 58.55157043 10.49113395
12662 1 28.28864880 58.55157043 10.49113395
12663 1 27.43141702 58.55157043 8.15977085
12664 1 30.00311236 58.55157043 8.15977085
12665 1 29.14588058 58.55157043 5.82840775
12666 1 31.71757593 58.55157043 5.82840775
12667 1 30.86034415 58.55157043 3.49704465
12668 1 33.43203949 58.55157043 3.49704465
12669 1 32.57480771 58.55157043 1.16568155
12670 1 35.14650306 58.55157043 1.16568155
12671 1 1.71446356 56.53255076 46.62726200
12672 1 4.28615891 56.53255076 46.62726200
12673 1 3.42892713 56.53255076 44.29589890
12674 1 6.00062247 56.53255076 44.29589890
12675 1 5.14339069 56.53255076 41.96453580
12676 1 7.71508604 56.53255076 41.96453580
12677 1 6.85785425 56.53255076 39.63317270
12678 1 9.42954960 56.53255076 39.63317270
12679 1 8.57231782 56.53255076 37.30180960
12680 1 11.14401316 56.53255076 37.30180960
12681 1 10.28678138 56.53255076 34.97044650
12682 1 12.85847673 56.53255076 34.97044650
12683 1 12.00124495 56.53255076 32.63908340
12684 1 14.57294029 56.53255076 32.63908340
12685 1 13.71570851 56.53255076 30.30772030
12686 1 16.28740385 56.53255076 30.30772030
12687 1 15.43017207 56.53255076 27.97635720
12688 1 18.00186742 56.53255076 27.97635720
12689 1 17.14463564 56.53255076 25.64499410
12690 1 19.71633098 56.53255076 25.64499410
12691 1 18.85909920 56.53255076 23.31363100
12692 1 21.43079455 56.53255076 23.31363100
12693 1 20.57356276 56.53255076 20.98226790
12694 1 23.14525811 56.53255076 20.98226790
12695 1 22.28802633 56.53255076 18.65090480
12696 1 24.85972167 56.53255076 18.65090480
12697 1 24.00248989 56.53255076 16.31954170
12698 1 26.57418524 56.53255076 16.31954170
12699 1 25.71695346 56.53255076 13.98817860
12700 1 28.28864880 56.53255076 13.98817860
12701 1 27.43141702 56.53255076 11.65681550
12702 1 30.00311236 56.53255076 11.65681550
12703 1 29.14588058 56.53255076 9.32545240
12704 1 31.71757593 56.53255076 9.32545240
12705 1 30.86034415 56.53255076 6.99408930
12706 1 33.43203949 56.53255076 6.99408930
12707 1 32.57480771 56.53255076 4.66272620
12708 1 35.14650306 56.53255076 4.66272620
12709 1 34.28927127 56.53255076 2.33136310
12710 1 36.86096662 56.53255076 2.33136310
12711 1 36.00373484 56.53255076 0.00000000
12712 1 38.57543018 56.53255076 -0.00000000
12713 1 3.42892713 54.51353109 47.79294355
12714 1 6.00062247 54.51353109 47.79294355
12715 1 5.14339069 54.51353109 45.46158045
12716 1 7.71508604 54.51353109 45.46158045
12717 1 6.85785425 54.51353109 43.13021735
12718 1 9.42954960 54.51353109 43.13021735
12719 1 8.57231782 54.51353109 40.79885425
12720 1 11.14401316 54.51353109 40.79885425
12721 1 10.28678138 54.51353109 38.46749115
12722 1 12.85847673 54.51353109 38.46749115
12723 1 12.00124495 54.51353109 36.13612805
12724 1 14.57294029 54.51353109 36.13612805
12725 1 13.71570851 54.51353109 33.80476495
12726 1 16.28740385 54.51353109 33.80476495
12727 1 15.43017207 54.51353109 31.47340185
12728 1 18.00186742 54.51353109 31.47340185
12729 1 17.14463564 54.51353109 29.14203875
12730 1 19.71633098 54.51353109 29.14203875
12731 1 18.85909920 54.51353109 26.81067565
12732 1 21.43079455 54.51353109 26.81067565
12733 1 20.57356276 54.51353109 24.47931255
12734 1 23.14525811 54.51353109 24.47931255
12735 1 22.28802633 54.51353109 22.14794945
12736 1 24.85972167 54.51353109 22.14794945
12737 1 24.00248989 54.51353109 19.81658635
12738 1 26.57418524 54.51353109 19.81658635
12739 1 25.71695346 54.51353109 17.48522325
12740 1 28.28864880 54.51353109 17.48522325
12741 1 27.43141702 54.51353109 15.15386015
12742 1 30.00311236 54.51353109 15.15386015
12743 1 29.14588058 54.51353109 12.82249705
12744 1 31.71757593 54.51353109 12.82249705
12745 1 30.86034415 54.51353109 10.49113395
12746 1 33.43203949 54.51353109 10.49113395
12747 1 32.57480771 54.51353109 8.15977085
12748 1 35.14650306 54.51353109 8.15977085
12749 1 34.28927127 54.51353109 5.82840775
12750 1 36.86096662 54.51353109 5.82840775
12751 1 36.00373484 54.51353109 3.49704465
12752 1 38.57543018 54.51353109 3.49704465
12753 1 37.71819840 54.51353109 1.16568155
12754 1 40.28989375 54.51353109 1.16568155
12755 1 6.85785425 52.49451142 46.62726200
12756 1 9.42954960 52.49451142 46.62726200
12757 1 8.57231782 52.49451142 44.29589890
12758 1 11.14401316 52.49451142 44.29589890
12759 1 10.28678138 52.49451142 41.96453580
12760 1 12.85847673 52.49451142 41.96453580
12761 1 12.00124495 52.49451142 39.63317270
12762 1 14.57294029 52.49451142 39.63317270
12763 1 13.71570851 52.49451142 37.30180960
12764 1 16.28740385 52.49451142 37.30180960
12765 1 15.43017207 52.49451142 34.97044650
12766 1 18.00186742 52.49451142 34.97044650
12767 1 17.14463564 52.49451142 32.63908340
12768 1 19.71633098 52.49451142 32.63908340
12769 1 18.85909920 52.49451142 30.30772030
12770 1 21.43079455 52.49451142 30.30772030
12771 1 20.57356276 52.49451142 27.97635720
12772 1 23.14525811 52.49451142 27.97635720
12773 1 22.28802633 52.49451142 25.64499410
12774 1 24.85972167 52.49451142 25.64499410
12775 1 24.00248989 52.49451142 23.31363100
12776 1 26.57418524 52.49451142 23.31363100
12777 1 25.71695346 52.49451142 20.98226790
12778 1 28.28864880 52.49451142 20.98226790
12779 1 27.43141702 52.49451142 18.65090480
12780 1 30.00311236 52.49451142 18.65090480
12781 1 29.14588058 52.49451142 16.31954170
12782 1 31.71757593 52.49451142 16.31954170
12783 1 30.86034415 52.49451142 13.98817860
12784 1 33.43203949 52.49451142 13.98817860
12785 1 32.57480771 52.49451142 11.65681550
12786 1 35.14650306 52.49451142 11.65681550
12787 1 34.28927127 52.49451142 9.32545240
12788 1 36.86096662 52.49451142 9.32545240
12789 1 36.00373484 52.49451142 6.99408930
12790 1 38.57543018 52.49451142 6.99408930
12791 1 37.71819840 52.49451142 4.66272620
12792 1 40.28989375 52.49451142 4.66272620
12793 1 39.43266196 52.49451142 2.33136310
12794 1 42.00435731 52.49451142 2.33136310
12795 1 41.14712553 52.49451142 -0.00000000
12796 1 43.71882087 52.49451142 -0.00000000
12797 1 8.57231782 50.47549175 47.79294355
12798 1 11.14401316 50.47549175 47.79294355
12799 1 10.28678138 50.47549175 45.46158045
12800 1 12.85847673 50.47549175 45.46158045
12801 1 12.00124495 50.47549175 43.13021735
12802 1 14.57294029 50.47549175 43.13021735
12803 1 13.71570851 50.47549175 40.79885425
12804 1 16.28740385 50.47549175 40.79885425
12805 1 15.43017207 50.47549175 38.46749115
12806 1 18.00186742 50.47549175 38.46749115
12807 1 17.14463564 50.47549175 36.13612805
12808 1 19.71633098 50.47549175 36.13612805
12809 1 18.85909920 50.47549175 33.80476495
12810 1 21.43079455 50.47549175 33.80476495
12811 1 20.57356276 50.47549175 31.47340185
12812 1 23.14525811 50.47549175 31.47340185
12813 1 22.28802633 50.47549175 29.14203875
12814 1 24.85972167 50.47549175 29.14203875
12815 1 24.00248989 50.47549175 26.81067565
12816 1 26.57418524 50.47549175 26.81067565
12817 1 25.71695346 50.47549175 24.47931255
12818 1 28.28864880 50.47549175 24.47931255
12819 1 27.43141702 50.47549175 22.14794945
12820 1 30.00311236 50.47549175 22.14794945
12821 1 29.14588058 50.47549175 19.81658635
12822 1 31.71757593 50.47549175 19.81658635
12823 1 30.86034415 50.47549175 17.48522325
12824 1 33.43203949 50.47549175 17.48522325
12825 1 32.57480771 50.47549175 15.15386015
12826 1 35.14650306 50.47549175 15.15386015
12827 1 34.28927127 50.47549175 12.82249705
12828 1 36.86096662 50.47549175 12.82249705
12829 1 36.00373484 50.47549175 10.49113395
12830 1 38.57543018 50.47549175 10.49113395
12831 1 37.71819840 50.47549175 8.15977085
12832 1 40.28989375 50.47549175 8.15977085
12833 1 39.43266196 50.47549175 5.82840775
12834 1 42.00435731 50.47549175 5.82840775
12835 1 41.14712553 50.47549175 3.49704465
12836 1 43.71882087 50.47549175 3.49704465
12837 1 42.86158909 50.47549175 1.16568155
12838 1 45.43328444 50.47549175 1.16568155
12839 1 12.00124495 48.45647208 46.62726200
12840 1 14.57294029 48.45647208 46.62726200
12841 1 13.71570851 48.45647208 44.29589890
12842 1 16.28740385 48.45647208 44.29589890
12843 1 15.43017207 48.45647208 41.96453580
12844 1 18.00186742 48.45647208 41.96453580
12845 1 17.14463564 48.45647208 39.63317270
12846 1 19.71633098 48.45647208 39.63317270
12847 1 18.85909920 48.45647208 37.30180960
12848 1 21.43079455 48.45647208 37.30180960
12849 1 20.57356276 48.45647208 34.97044650
12850 1 23.14525811 48.45647208 34.97044650
12851 1 22.28802633 48.45647208 32.63908340
12852 1 24.85972167 48.45647208 32.63908340
12853 1 24.00248989 48.45647208 30.30772030
12854 1 26.57418524 48.45647208 30.30772030
12855 1 25.71695346 48.45647208 27.97635720
12856 1 28.28864880 48.45647208 27.97635720
12857 1 27.43141702 48.45647208 25.64499410
12858 1 30.00311236 48.45647208 25.64499410
12859 1 29.14588058 48.45647208 23.31363100
12860 1 31.71757593 48.45647208 23.31363100
12861 1 30.86034415 48.45647208 20.98226790
12862 1 33.43203949 48.45647208 20.98226790
12863 1 32.57480771 48.45647208 18.65090480
12864 1 35.14650306 48.45647208 18.65090480
12865 1 34.28927127 48.45647208 16.31954170
12866 1 36.86096662 48.45647208 16.31954170
12867 1 36.00373484 48.45647208 13.98817860
12868 1 38.57543018 48.45647208 13.98817860
12869 1 37.71819840 48.45647208 11.65681550
12870 1 40.28989375 48.45647208 11.65681550
12871 1 39.43266196 48.45647208 9.32545240
12872 1 42.00435731 48.45647208 9.32545240
12873 1 41.14712553 48.45647208 6.99408930
12874 1 43.71882087 48.45647208 6.99408930
12875 1 42.86158909 48.45647208 4.66272620
12876 1 45.43328444 48.45647208 4.66272620
12877 1 44.57605266 48.45647208 2.33136310
12878 1 47.14774800 48.45647208 2.33136310
12879 1 46.29051622 48.45647208 -0.00000000
12880 1 48.86221156 48.45647208 -0.00000000
12881 1 13.71570851 46.43745241 47.79294355
12882 1 16.28740385 46.43745241 47.79294355
12883 1 15.43017207 46.43745241 45.46158045
12884 1 18.00186742 46.43745241 45.46158045
12885 1 17.14463564 46.43745241 43.13021735
12886 1 19.71633098 46.43745241 43.13021735
12887 1 18.85909920 46.43745241 40.79885425
12888 1 21.43079455 46.43745241 40.79885425
12889 1 20.57356276 46.43745241 38.46749115
12890 1 23.14525811 46.43745241 38.46749115
12891 1 22.28802633 46.43745241 36.13612805
12892 1 24.85972167 46.43745241 36.13612805
12893 1 24.00248989 46.43745241 33.80476495
12894 1 26.57418524 46.43745241 33.80476495
12895 1 25.71695346 46.43745241 31.47340185
12896 1 28.28864880 46.43745241 31.47340185
12897 1 27.43141702 46.43745241 29.14203875
12898 1 30.00311236 46.43745241 29.14203875
12899 1 29.14588058 46.43745241 26.81067565
12900 1 31.71757593 46.43745241 26.81067565
12901 1 30.86034415 46.43745241 24.47931255
12902 1 33.43203949 46.43745241 24.47931255
12903 1 32.57480771 46.43745241 22.14794945
12904 1 35.14650306 46.43745241 22.14794945
12905 1 34.28927127 46.43745241 19.81658635
12906 1 36.86096662 46.43745241 19.81658635
12907 1 36.00373484 46.43745241 17.48522325
12908 1 38.57543018 46.43745241 17.48522325
12909 1 37.71819840 46.43745241 15.15386015
12910 1 40.28989375 46.43745241 15.15386015
12911 1 39.43266196 46.43745241 12.82249705
12912 1 42.00435731 46.43745241 12.82249705
12913 1 41.14712553 46.43745241 10.49113395
12914 1 43.71882087 46.43745241 10.49113395
12915 1 42.86158909 46.43745241 8.15977085
12916 1 45.43328444 46.43745241 8.15977085
12917 1 44.57605266 46.43745241 5.82840775
12918 1 47.14774800 46.43745241 5.82840775
12919 1 46.29051622 46.43745241 3.49704465
12920 1 48.86221156 46.43745241 3.49704465
12921 1 48.00497978 46.43745241 1.16568155
12922 1 50.57667513 46.43745241 1.16568155
12923 1 17.14463564 44.41843274 46.62726200
12924 1 19.71633098 44.41843274 46.62726200
12925 1 18.85909920 44.41843274 44.29589890
12926 1 21.43079455 44.41843274 44.29589890
12927 1 20.57356276 44.41843274 41.96453580
12928 1 23.14525811 44.41843274 41.96453580
12929 1 22.28802633 44.41843274 39.63317270
12930 1 24.85972167 44.41843274 39.63317270
12931 1 24.00248989 44.41843274 37.30180960
12932 1 26.57418524 44.41843274 37.30180960
12933 1 25.71695346 44.41843274 34.97044650
12934 1 28.28864880 44.41843274 34.97044650
12935 1 27.43141702 44.41843274 32.63908340
12936 1 30.00311236 44.41843274 32.63908340
12937 1 29.14588058 44.41843274 30.30772030
12938 1 31.71757593 44.41843274 30.30772030
12939 1 30.86034415 44.41843274 27.97635720
12940 1 33.43203949 44.41843274 27.97635720
12941 1 32.57480771 44.41843274 25.64499410
12942 1 35.14650306 44.41843274 25.64499410
12943 1 34.28927127 44.41843274 23.31363100
12944 1 36.86096662 44.41843274 23.31363100
12945 1 36.00373484 44.41843274 20.98226790
12946 1 38.57543018 44.41843274 20.98226790
12947 1 37.71819840 44.41843274 18.65090480
12948 1 40.28989375 44.41843274 18.65090480
12949 1 39.43266196 44.41843274 16.31954170
12950 1 42.00435731 44.41843274 16.31954170
12951 1 41.14712553 44.41843274 13.98817860
12952 1 43.71882087 44.41843274 13.98817860
12953 1 42.86158909 44.41843274 11.65681550
12954 1 45.43328444 44.41843274 11.65681550
12955 1 44.57605266 44.41843274 9.32545240
12956 1 47.14774800 44.41843274 9.32545240
12957 1 46.29051622 44.41843274 6.99408930
12958 1 48.86221156 44.41843274 6.99408930
12959 1 48.00497978 44.41843274 4.66272620
12960 1 50.57667513 44.41843274 4.66272620
12961 1 49.71944335 44.41843274 2.33136310
12962 1 52.29113869 44.41843274 2.33136310
12963 1 51.43390691 44.41843274 -0.00000000
12964 1 54.00560226 44.41843274 -0.00000000
12965 1 18.85909920 42.39941307 47.79294355
12966 1 21.43079455 42.39941307 47.79294355
12967 1 20.57356276 42.39941307 45.46158045
12968 1 23.14525811 42.39941307 45.46158045
12969 1 22.28802633 42.39941307 43.13021735
12970 1 24.85972167 42.39941307 43.13021735
12971 1 24.00248989 42.39941307 40.79885425
12972 1 26.57418524 42.39941307 40.79885425
12973 1 25.71695346 42.39941307 38.46749115
12974 1 28.28864880 42.39941307 38.46749115
12975 1 27.43141702 42.39941307 36.13612805
12976 1 30.00311236 42.39941307 36.13612805
12977 1 29.14588058 42.39941307 33.80476495
12978 1 31.71757593 42.39941307 33.80476495
12979 1 30.86034415 42.39941307 31.47340185
12980 1 33.43203949 42.39941307 31.47340185
12981 1 32.57480771 42.39941307 29.14203875
12982 1 35.14650306 42.39941307 29.14203875
12983 1 34.28927127 42.39941307 26.81067565
12984 1 36.86096662 42.39941307 26.81067565
12985 1 36.00373484 42.39941307 24.47931255
12986 1 38.57543018 42.39941307 24.47931255
12987 1 37.71819840 42.39941307 22.14794945
12988 1 40.28989375 42.39941307 22.14794945
12989 1 39.43266196 42.39941307 19.81658635
12990 1 42.00435731 42.39941307 19.81658635
12991 1 41.14712553 42.39941307 17.48522325
12992 1 43.71882087 42.39941307 17.48522325
12993 1 42.86158909 42.39941307 15.15386015
12994 1 45.43328444 42.39941307 15.15386015
12995 1 44.57605266 42.39941307 12.82249705
12996 1 47.14774800 42.39941307 12.82249705
12997 1 46.29051622 42.39941307 10.49113395
12998 1 48.86221156 42.39941307 10.49113395
12999 1 48.00497978 42.39941307 8.15977085
13000 1 50.57667513 42.39941307 8.15977085
13001 1 49.71944335 42.39941307 5.82840775
13002 1 52.29113869 42.39941307 5.82840775
13003 1 51.43390691 42.39941307 3.49704465
13004 1 54.00560226 42.39941307 3.49704465
13005 1 53.14837047 42.39941307 1.16568155
13006 1 55.72006582 42.39941307 1.16568155
13007 1 22.28802633 40.38039340 46.62726200
13008 1 24.85972167 40.38039340 46.62726200
13009 1 24.00248989 40.38039340 44.29589890
13010 1 26.57418524 40.38039340 44.29589890
13011 1 25.71695346 40.38039340 41.96453580
13012 1 28.28864880 40.38039340 41.96453580
13013 1 27.43141702 40.38039340 39.63317270
13014 1 30.00311236 40.38039340 39.63317270
13015 1 29.14588058 40.38039340 37.30180960
13016 1 31.71757593 40.38039340 37.30180960
13017 1 30.86034415 40.38039340 34.97044650
13018 1 33.43203949 40.38039340 34.97044650
13019 1 32.57480771 40.38039340 32.63908340
13020 1 35.14650306 40.38039340 32.63908340
13021 1 34.28927127 40.38039340 30.30772030
13022 1 36.86096662 40.38039340 30.30772030
13023 1 36.00373484 40.38039340 27.97635720
13024 1 38.57543018 40.38039340 27.97635720
13025 1 37.71819840 40.38039340 25.64499410
13026 1 40.28989375 40.38039340 25.64499410
13027 1 39.43266196 40.38039340 23.31363100
13028 1 42.00435731 40.38039340 23.31363100
13029 1 41.14712553 40.38039340 20.98226790
13030 1 43.71882087 40.38039340 20.98226790
13031 1 42.86158909 40.38039340 18.65090480
13032 1 45.43328444 40.38039340 18.65090480
13033 1 44.57605266 40.38039340 16.31954170
13034 1 47.14774800 40.38039340 16.31954170
13035 1 46.29051622 40.38039340 13.98817860
13036 1 48.86221156 40.38039340 13.98817860
13037 1 48.00497978 40.38039340 11.65681550
13038 1 50.57667513 40.38039340 11.65681550
13039 1 49.71944335 40.38039340 9.32545240
13040 1 52.29113869 40.38039340 9.32545240
13041 1 51.43390691 40.38039340 6.99408930
13042 1 54.00560226 40.38039340 6.99408930
13043 1 53.14837047 40.38039340 4.66272620
13044 1 55.72006582 40.38039340 4.66272620
13045 1 54.86283404 40.38039340 2.33136310
13046 1 57.43452938 40.38039340 2.33136310
13047 1 56.57729760 40.38039340 -0.00000000
13048 1 59.14899295 40.38039340 -0.00000000
13049 1 24.00248989 38.36137373 47.79294355
13050 1 26.57418524 38.36137373 47.79294355
13051 1 25.71695346 38.36137373 45.46158045
13052 1 28.28864880 38.36137373 45.46158045
13053 1 27.43141702 38.36137373 43.13021735
13054 1 30.00311236 38.36137373 43.13021735
13055 1 29.14588058 38.36137373 40.79885425
13056 1 31.71757593 38.36137373 40.79885425
13057 1 30.86034415 38.36137373 38.46749115
13058 1 33.43203949 38.36137373 38.46749115
13059 1 32.57480771 38.36137373 36.13612805
13060 1 35.14650306 38.36137373 36.13612805
13061 1 34.28927127 38.36137373 33.80476495
13062 1 36.86096662 38.36137373 33.80476495
13063 1 36.00373484 38.36137373 31.47340185
13064 1 38.57543018 38.36137373 31.47340185
13065 1 37.71819840 38.36137373 29.14203875
13066 1 40.28989375 38.36137373 29.14203875
13067 1 39.43266196 38.36137373 26.81067565
13068 1 42.00435731 38.36137373 26.81067565
13069 1 41.14712553 38.36137373 24.47931255
13070 1 43.71882087 38.36137373 24.47931255
13071 1 42.86158909 38.36137373 22.14794945
13072 1 45.43328444 38.36137373 22.14794945
13073 1 44.57605266 38.36137373 19.81658635
13074 1 47.14774800 38.36137373 19.81658635
13075 1 46.29051622 38.36137373 17.48522325
13076 1 48.86221156 38.36137373 17.48522325
13077 1 48.00497978 38.36137373 15.15386015
13078 1 50.57667513 38.36137373 15.15386015
13079 1 49.71944335 38.36137373 12.82249705
13080 1 52.29113869 38.36137373 12.82249705
13081 1 51.43390691 38.36137373 10.49113395
13082 1 54.00560226 38.36137373 10.49113395
13083 1 53.14837047 38.36137373 8.15977085
13084 1 55.72006582 38.36137373 8.15977085
13085 1 54.86283404 38.36137373 5.82840775
13086 1 57.43452938 38.36137373 5.82840775
13087 1 56.57729760 38.36137373 3.49704465
13088 1 59.14899295 38.36137373 3.49704465
13089 1 58.29176116 38.36137373 1.16568155
13090 1 60.86345651 38.36137373 1.16568155
13091 1 27.43141702 36.34235406 46.62726200
13092 1 30.00311236 36.34235406 46.62726200
13093 1 29.14588058 36.34235406 44.29589890
13094 1 31.71757593 36.34235406 44.29589890
13095 1 30.86034415 36.34235406 41.96453580
13096 1 33.43203949 36.34235406 41.96453580
13097 1 32.57480771 36.34235406 39.63317270
13098 1 35.14650306 36.34235406 39.63317270
13099 1 34.28927127 36.34235406 37.30180960
13100 1 36.86096662 36.34235406 37.30180960
13101 1 36.00373484 36.34235406 34.97044650
13102 1 38.57543018 36.34235406 34.97044650
13103 1 37.71819840 36.34235406 32.63908340
13104 1 40.28989375 36.34235406 32.63908340
13105 1 39.43266196 36.34235406 30.30772030
13106 1 42.00435731 36.34235406 30.30772030
13107 1 41.14712553 36.34235406 27.97635720
13108 1 43.71882087 36.34235406 27.97635720
13109 1 42.86158909 36.34235406 25.64499410
13110 1 45.43328444 36.34235406 25.64499410
13111 1 44.57605266 36.34235406 23.31363100
13112 1 47.14774800 36.34235406 23.31363100
13113 1 46.29051622 36.34235406 20.98226790
13114 1 48.86221156 36.34235406 20.98226790
13115 1 48.00497978 36.34235406 18.65090480
13116 1 50.57667513 36.34235406 18.65090480
13117 1 49.71944335 36.34235406 16.31954170
13118 1 52.29113869 36.34235406 16.31954170
13119 1 51.43390691 36.34235406 13.98817860
13120 1 54.00560226 36.34235406 13.98817860
13121 1 53.14837047 36.34235406 11.65681550
13122 1 55.72006582 36.34235406 11.65681550
13123 1 54.86283404 36.34235406 9.32545240
13124 1 57.43452938 36.34235406 9.32545240
13125 1 56.57729760 36.34235406 6.99408930
13126 1 59.14899295 36.34235406 6.99408930
13127 1 58.29176116 36.34235406 4.66272620
13128 1 60.86345651 36.34235406 4.66272620
13129 1 60.00622473 36.34235406 2.33136310
13130 1 62.57792007 36.34235406 2.33136310
13131 1 61.72068829 36.34235406 0.00000000
13132 1 29.14588058 34.32333439 47.79294355
13133 1 31.71757593 34.32333439 47.79294355
13134 1 30.86034415 34.32333439 45.46158045
13135 1 33.43203949 34.32333439 45.46158045
13136 1 32.57480771 34.32333439 43.13021735
13137 1 35.14650306 34.32333439 43.13021735
13138 1 34.28927127 34.32333439 40.79885425
13139 1 36.86096662 34.32333439 40.79885425
13140 1 36.00373484 34.32333439 38.46749115
13141 1 38.57543018 34.32333439 38.46749115
13142 1 37.71819840 34.32333439 36.13612805
13143 1 40.28989375 34.32333439 36.13612805
13144 1 39.43266196 34.32333439 33.80476495
13145 1 42.00435731 34.32333439 33.80476495
13146 1 41.14712553 34.32333439 31.47340185
13147 1 43.71882087 34.32333439 31.47340185
13148 1 42.86158909 34.32333439 29.14203875
13149 1 45.43328444 34.32333439 29.14203875
13150 1 44.57605266 34.32333439 26.81067565
13151 1 47.14774800 34.32333439 26.81067565
13152 1 46.29051622 34.32333439 24.47931255
13153 1 48.86221156 34.32333439 24.47931255
13154 1 48.00497978 34.32333439 22.14794945
13155 1 50.57667513 34.32333439 22.14794945
13156 1 49.71944335 34.32333439 19.81658635
13157 1 52.29113869 34.32333439 19.81658635
13158 1 51.43390691 34.32333439 17.48522325
13159 1 54.00560226 34.32333439 17.48522325
13160 1 53.14837047 34.32333439 15.15386015
13161 1 55.72006582 34.32333439 15.15386015
13162 1 54.86283404 34.32333439 12.82249705
13163 1 57.43452938 34.32333439 12.82249705
13164 1 56.57729760 34.32333439 10.49113395
13165 1 59.14899295 34.32333439 10.49113395
13166 1 58.29176116 34.32333439 8.15977085
13167 1 60.86345651 34.32333439 8.15977085
13168 1 60.00622473 34.32333439 5.82840775
13169 1 62.57792007 34.32333439 5.82840775
13170 1 61.72068829 34.32333439 3.49704465
13171 1 63.43515186 34.32333439 1.16568155
13172 1 32.57480771 32.30431472 46.62726200
13173 1 35.14650306 32.30431472 46.62726200
13174 1 34.28927127 32.30431472 44.29589890
13175 1 36.86096662 32.30431472 44.29589890
13176 1 36.00373484 32.30431472 41.96453580
13177 1 38.57543018 32.30431472 41.96453580
13178 1 37.71819840 32.30431472 39.63317270
13179 1 40.28989375 32.30431472 39.63317270
13180 1 39.43266196 32.30431472 37.30180960
13181 1 42.00435731 32.30431472 37.30180960
13182 1 41.14712553 32.30431472 34.97044650
13183 1 43.71882087 32.30431472 34.97044650
13184 1 42.86158909 32.30431472 32.63908340
13185 1 45.43328444 32.30431472 32.63908340
13186 1 44.57605266 32.30431472 30.30772030
13187 1 47.14774800 32.30431472 30.30772030
13188 1 46.29051622 32.30431472 27.97635720
13189 1 48.86221156 32.30431472 27.97635720
13190 1 48.00497978 32.30431472 25.64499410
13191 1 50.57667513 32.30431472 25.64499410
13192 1 49.71944335 32.30431472 23.31363100
13193 1 52.29113869 32.30431472 23.31363100
13194 1 51.43390691 32.30431472 20.98226790
13195 1 54.00560226 32.30431472 20.98226790
13196 1 53.14837047 32.30431472 18.65090480
13197 1 55.72006582 32.30431472 18.65090480
13198 1 54.86283404 32.30431472 16.31954170
13199 1 57.43452938 32.30431472 16.31954170
13200 1 56.57729760 32.30431472 13.98817860
13201 1 59.14899295 32.30431472 13.98817860
13202 1 58.29176116 32.30431472 11.65681550
13203 1 60.86345651 32.30431472 11.65681550
13204 1 60.00622473 32.30431472 9.32545240
13205 1 62.57792007 32.30431472 9.32545240
13206 1 61.72068829 32.30431472 6.99408930
13207 1 63.43515186 32.30431472 4.66272620
13208 1 0.85723178 62.58960977 47.79294355
13209 1 0.00000000 62.58960977 45.46158045
13210 1 2.57169535 62.58960977 45.46158045
13211 1 1.71446356 62.58960977 43.13021735
13212 1 4.28615891 62.58960977 43.13021735
13213 1 3.42892713 62.58960977 40.79885425
13214 1 6.00062247 62.58960977 40.79885425
13215 1 5.14339069 62.58960977 38.46749115
13216 1 7.71508604 62.58960977 38.46749115
13217 1 6.85785425 62.58960977 36.13612805
13218 1 9.42954960 62.58960977 36.13612805
13219 1 8.57231782 62.58960977 33.80476495
13220 1 11.14401316 62.58960977 33.80476495
13221 1 10.28678138 62.58960977 31.47340185
13222 1 12.85847673 62.58960977 31.47340185
13223 1 12.00124495 62.58960977 29.14203875
13224 1 14.57294029 62.58960977 29.14203875
13225 1 13.71570851 62.58960977 26.81067565
13226 1 16.28740385 62.58960977 26.81067565
13227 1 15.43017207 62.58960977 24.47931255
13228 1 18.00186742 62.58960977 24.47931255
13229 1 17.14463564 62.58960977 22.14794945
13230 1 19.71633098 62.58960977 22.14794945
13231 1 18.85909920 62.58960977 19.81658635
13232 1 21.43079455 62.58960977 19.81658635
13233 1 20.57356276 62.58960977 17.48522325
13234 1 23.14525811 62.58960977 17.48522325
13235 1 22.28802633 62.58960977 15.15386015
13236 1 24.85972167 62.58960977 15.15386015
13237 1 24.00248989 62.58960977 12.82249705
13238 1 26.57418524 62.58960977 12.82249705
13239 1 25.71695346 62.58960977 10.49113395
13240 1 28.28864880 62.58960977 10.49113395
13241 1 27.43141702 62.58960977 8.15977085
13242 1 30.00311236 62.58960977 8.15977085
13243 1 29.14588058 62.58960977 5.82840775
13244 1 31.71757593 62.58960977 5.82840775
13245 1 30.86034415 62.58960977 3.49704465
13246 1 33.43203949 62.58960977 3.49704465
13247 1 32.57480771 62.58960977 1.16568155
13248 1 35.14650306 62.58960977 1.16568155
13249 1 1.71446356 60.57059010 46.62726200
13250 1 4.28615891 60.57059010 46.62726200
13251 1 3.42892713 60.57059010 44.29589890
13252 1 6.00062247 60.57059010 44.29589890
13253 1 5.14339069 60.57059010 41.96453580
13254 1 7.71508604 60.57059010 41.96453580
13255 1 6.85785425 60.57059010 39.63317270
13256 1 9.42954960 60.57059010 39.63317270
13257 1 8.57231782 60.57059010 37.30180960
13258 1 11.14401316 60.57059010 37.30180960
13259 1 10.28678138 60.57059010 34.97044650
13260 1 12.85847673 60.57059010 34.97044650
13261 1 12.00124495 60.57059010 32.63908340
13262 1 14.57294029 60.57059010 32.63908340
13263 1 13.71570851 60.57059010 30.30772030
13264 1 16.28740385 60.57059010 30.30772030
13265 1 15.43017207 60.57059010 27.97635720
13266 1 18.00186742 60.57059010 27.97635720
13267 1 17.14463564 60.57059010 25.64499410
13268 1 19.71633098 60.57059010 25.64499410
13269 1 18.85909920 60.57059010 23.31363100
13270 1 21.43079455 60.57059010 23.31363100
13271 1 20.57356276 60.57059010 20.98226790
13272 1 23.14525811 60.57059010 20.98226790
13273 1 22.28802633 60.57059010 18.65090480
13274 1 24.85972167 60.57059010 18.65090480
13275 1 24.00248989 60.57059010 16.31954170
13276 1 26.57418524 60.57059010 16.31954170
13277 1 25.71695346 60.57059010 13.98817860
13278 1 28.28864880 60.57059010 13.98817860
13279 1 27.43141702 60.57059010 11.65681550
13280 1 30.00311236 60.57059010 11.65681550
13281 1 29.14588058 60.57059010 9.32545240
13282 1 31.71757593 60.57059010 9.32545240
13283 1 30.86034415 60.57059010 6.99408930
13284 1 33.43203949 60.57059010 6.99408930
13285 1 32.57480771 60.57059010 4.66272620
13286 1 35.14650306 60.57059010 4.66272620
13287 1 34.28927127 60.57059010 2.33136310
13288 1 36.86096662 60.57059010 2.33136310
13289 1 36.00373484 60.57059010 0.00000000
13290 1 38.57543018 60.57059010 -0.00000000
13291 1 3.42892713 58.55157043 47.79294355
13292 1 6.00062247 58.55157043 47.79294355
13293 1 5.14339069 58.55157043 45.46158045
13294 1 7.71508604 58.55157043 45.46158045
13295 1 6.85785425 58.55157043 43.13021735
13296 1 9.42954960 58.55157043 43.13021735
13297 1 8.57231782 58.55157043 40.79885425
13298 1 11.14401316 58.55157043 40.79885425
13299 1 10.28678138 58.55157043 38.46749115
13300 1 12.85847673 58.55157043 38.46749115
13301 1 12.00124495 58.55157043 36.13612805
13302 1 14.57294029 58.55157043 36.13612805
13303 1 13.71570851 58.55157043 33.80476495
13304 1 16.28740385 58.55157043 33.80476495
13305 1 15.43017207 58.55157043 31.47340185
13306 1 18.00186742 58.55157043 31.47340185
13307 1 17.14463564 58.55157043 29.14203875
13308 1 19.71633098 58.55157043 29.14203875
13309 1 18.85909920 58.55157043 26.81067565
13310 1 21.43079455 58.55157043 26.81067565
13311 1 20.57356276 58.55157043 24.47931255
13312 1 23.14525811 58.55157043 24.47931255
13313 1 22.28802633 58.55157043 22.14794945
13314 1 24.85972167 58.55157043 22.14794945
13315 1 24.00248989 58.55157043 19.81658635
13316 1 26.57418524 58.55157043 19.81658635
13317 1 25.71695346 58.55157043 17.48522325
13318 1 28.28864880 58.55157043 17.48522325
13319 1 27.43141702 58.55157043 15.15386015
13320 1 30.00311236 58.55157043 15.15386015
13321 1 29.14588058 58.55157043 12.82249705
13322 1 31.71757593 58.55157043 12.82249705
13323 1 30.86034415 58.55157043 10.49113395
13324 1 33.43203949 58.55157043 10.49113395
13325 1 32.57480771 58.55157043 8.15977085
13326 1 35.14650306 58.55157043 8.15977085
13327 1 34.28927127 58.55157043 5.82840775
13328 1 36.86096662 58.55157043 5.82840775
13329 1 36.00373484 58.55157043 3.49704465
13330 1 38.57543018 58.55157043 3.49704465
13331 1 37.71819840 58.55157043 1.16568155
13332 1 40.28989375 58.55157043 1.16568155
13333 1 6.85785425 56.53255076 46.62726200
13334 1 9.42954960 56.53255076 46.62726200
13335 1 8.57231782 56.53255076 44.29589890
13336 1 11.14401316 56.53255076 44.29589890
13337 1 10.28678138 56.53255076 41.96453580
13338 1 12.85847673 56.53255076 41.96453580
13339 1 12.00124495 56.53255076 39.63317270
13340 1 14.57294029 56.53255076 39.63317270
13341 1 13.71570851 56.53255076 37.30180960
13342 1 16.28740385 56.53255076 37.30180960
13343 1 15.43017207 56.53255076 34.97044650
13344 1 18.00186742 56.53255076 34.97044650
13345 1 17.14463564 56.53255076 32.63908340
13346 1 19.71633098 56.53255076 32.63908340
13347 1 18.85909920 56.53255076 30.30772030
13348 1 21.43079455 56.53255076 30.30772030
13349 1 20.57356276 56.53255076 27.97635720
13350 1 23.14525811 56.53255076 27.97635720
13351 1 22.28802633 56.53255076 25.64499410
13352 1 24.85972167 56.53255076 25.64499410
13353 1 24.00248989 56.53255076 23.31363100
13354 1 26.57418524 56.53255076 23.31363100
13355 1 25.71695346 56.53255076 20.98226790
13356 1 28.28864880 56.53255076 20.98226790
13357 1 27.43141702 56.53255076 18.65090480
13358 1 30.00311236 56.53255076 18.65090480
13359 1 29.14588058 56.53255076 16.31954170
13360 1 31.71757593 56.53255076 16.31954170
13361 1 30.86034415 56.53255076 13.98817860
13362 1 33.43203949 56.53255076 13.98817860
13363 1 32.57480771 56.53255076 11.65681550
13364 1 35.14650306 56.53255076 11.65681550
13365 1 34.28927127 56.53255076 9.32545240
13366 1 36.86096662 56.53255076 9.32545240
13367 1 36.00373484 56.53255076 6.99408930
13368 1 38.57543018 56.53255076 6.99408930
13369 1 37.71819840 56.53255076 4.66272620
13370 1 40.28989375 56.53255076 4.66272620
13371 1 39.43266196 56.53255076 2.33136310
13372 1 42.00435731 56.53255076 2.33136310
13373 1 41.14712553 56.53255076 -0.00000000
13374 1 43.71882087 56.53255076 -0.00000000
13375 1 8.57231782 54.51353109 47.79294355
13376 1 11.14401316 54.51353109 47.79294355
13377 1 10.28678138 54.51353109 45.46158045
13378 1 12.85847673 54.51353109 45.46158045
13379 1 12.00124495 54.51353109 43.13021735
13380 1 14.57294029 54.51353109 43.13021735
13381 1 13.71570851 54.51353109 40.79885425
13382 1 16.28740385 54.51353109 40.79885425
13383 1 15.43017207 54.51353109 38.46749115
13384 1 18.00186742 54.51353109 38.46749115
13385 1 17.14463564 54.51353109 36.13612805
13386 1 19.71633098 54.51353109 36.13612805
13387 1 18.85909920 54.51353109 33.80476495
13388 1 21.43079455 54.51353109 33.80476495
13389 1 20.57356276 54.51353109 31.47340185
13390 1 23.14525811 54.51353109 31.47340185
13391 1 22.28802633 54.51353109 29.14203875
13392 1 24.85972167 54.51353109 29.14203875
13393 1 24.00248989 54.51353109 26.81067565
13394 1 26.57418524 54.51353109 26.81067565
13395 1 25.71695346 54.51353109 24.47931255
13396 1 28.28864880 54.51353109 24.47931255
13397 1 27.43141702 54.51353109 22.14794945
13398 1 30.00311236 54.51353109 22.14794945
13399 1 29.14588058 54.51353109 19.81658635
13400 1 31.71757593 54.51353109 19.81658635
13401 1 30.86034415 54.51353109 17.48522325
13402 1 33.43203949 54.51353109 17.48522325
13403 1 32.57480771 54.51353109 15.15386015
13404 1 35.14650306 54.51353109 15.15386015
13405 1 34.28927127 54.51353109 12.82249705
13406 1 36.86096662 54.51353109 12.82249705
13407 1 36.00373484 54.51353109 10.49113395
13408 1 38.57543018 54.51353109 10.49113395
13409 1 37.71819840 54.51353109 8.15977085
13410 1 40.28989375 54.51353109 8.15977085
13411 1 39.43266196 54.51353109 5.82840775
13412 1 42.00435731 54.51353109 5.82840775
13413 1 41.14712553 54.51353109 3.49704465
13414 1 43.71882087 54.51353109 3.49704465
13415 1 42.86158909 54.51353109 1.16568155
13416 1 45.43328444 54.51353109 1.16568155
13417 1 12.00124495 52.49451142 46.62726200
13418 1 14.57294029 52.49451142 46.62726200
13419 1 13.71570851 52.49451142 44.29589890
13420 1 16.28740385 52.49451142 44.29589890
13421 1 15.43017207 52.49451142 41.96453580
13422 1 18.00186742 52.49451142 41.96453580
13423 1 17.14463564 52.49451142 39.63317270
13424 1 19.71633098 52.49451142 39.63317270
13425 1 18.85909920 52.49451142 37.30180960
13426 1 21.43079455 52.49451142 37.30180960
13427 1 20.57356276 52.49451142 34.97044650
13428 1 23.14525811 52.49451142 34.97044650
13429 1 22.28802633 52.49451142 32.63908340
13430 1 24.85972167 52.49451142 32.63908340
13431 1 24.00248989 52.49451142 30.30772030
13432 1 26.57418524 52.49451142 30.30772030
13433 1 25.71695346 52.49451142 27.97635720
13434 1 28.28864880 52.49451142 27.97635720
13435 1 27.43141702 52.49451142 25.64499410
13436 1 30.00311236 52.49451142 25.64499410
13437 1 29.14588058 52.49451142 23.31363100
13438 1 31.71757593 52.49451142 23.31363100
13439 1 30.86034415 52.49451142 20.98226790
13440 1 33.43203949 52.49451142 20.98226790
13441 1 32.57480771 52.49451142 18.65090480
13442 1 35.14650306 52.49451142 18.65090480
13443 1 34.28927127 52.49451142 16.31954170
13444 1 36.86096662 52.49451142 16.31954170
13445 1 36.00373484 52.49451142 13.98817860
13446 1 38.57543018 52.49451142 13.98817860
13447 1 37.71819840 52.49451142 11.65681550
13448 1 40.28989375 52.49451142 11.65681550
13449 1 39.43266196 52.49451142 9.32545240
13450 1 42.00435731 52.49451142 9.32545240
13451 1 41.14712553 52.49451142 6.99408930
13452 1 43.71882087 52.49451142 6.99408930
13453 1 42.86158909 52.49451142 4.66272620
13454 1 45.43328444 52.49451142 4.66272620
13455 1 44.57605266 52.49451142 2.33136310
13456 1 47.14774800 52.49451142 2.33136310
13457 1 46.29051622 52.49451142 0.00000000
13458 1 48.86221156 52.49451142 -0.00000000
13459 1 13.71570851 50.47549175 47.79294355
13460 1 16.28740385 50.47549175 47.79294355
13461 1 15.43017207 50.47549175 45.46158045
13462 1 18.00186742 50.47549175 45.46158045
13463 1 17.14463564 50.47549175 43.13021735
13464 1 19.71633098 50.47549175 43.13021735
13465 1 18.85909920 50.47549175 40.79885425
13466 1 21.43079455 50.47549175 40.79885425
13467 1 20.57356276 50.47549175 38.46749115
13468 1 23.14525811 50.47549175 38.46749115
13469 1 22.28802633 50.47549175 36.13612805
13470 1 24.85972167 50.47549175 36.13612805
13471 1 24.00248989 50.47549175 33.80476495
13472 1 26.57418524 50.47549175 33.80476495
13473 1 25.71695346 50.47549175 31.47340185
13474 1 28.28864880 50.47549175 31.47340185
13475 1 27.43141702 50.47549175 29.14203875
13476 1 30.00311236 50.47549175 29.14203875
13477 1 29.14588058 50.47549175 26.81067565
13478 1 31.71757593 50.47549175 26.81067565
13479 1 30.86034415 50.47549175 24.47931255
13480 1 33.43203949 50.47549175 24.47931255
13481 1 32.57480771 50.47549175 22.14794945
13482 1 35.14650306 50.47549175 22.14794945
13483 1 34.28927127 50.47549175 19.81658635
13484 1 36.86096662 50.47549175 19.81658635
13485 1 36.00373484 50.47549175 17.48522325
13486 1 38.57543018 50.47549175 17.48522325
13487 1 37.71819840 50.47549175 15.15386015
13488 1 40.28989375 50.47549175 15.15386015
13489 1 39.43266196 50.47549175 12.82249705
13490 1 42.00435731 50.47549175 12.82249705
13491 1 41.14712553 50.47549175 10.49113395
13492 1 43.71882087 50.47549175 10.49113395
13493 1 42.86158909 50.47549175 8.15977085
13494 1 45.43328444 50.47549175 8.15977085
13495 1 44.57605266 50.47549175 5.82840775
13496 1 47.14774800 50.47549175 5.82840775
13497 1 46.29051622 50.47549175 3.49704465
13498 1 48.86221156 50.47549175 3.49704465
13499 1 48.00497978 50.47549175 1.16568155
13500 1 50.57667513 50.47549175 1.16568155
13501 1 17.14463564 48.45647208 46.62726200
13502 1 19.71633098 48.45647208 46.62726200
13503 1 18.85909920 48.45647208 44.29589890
13504 1 21.43079455 48.45647208 44.29589890
13505 1 20.57356276 48.45647208 41.96453580
13506 1 23.14525811 48.45647208 41.96453580
13507 1 22.28802633 48.45647208 39.63317270
13508 1 24.85972167 48.45647208 39.63317270
13509 1 24.00248989 48.45647208 37.30180960
13510 1 26.57418524 48.45647208 37.30180960
13511 1 25.71695346 48.45647208 34.97044650
13512 1 28.28864880 48.45647208 34.97044650
13513 1 27.43141702 48.45647208 32.63908340
13514 1 30.00311236 48.45647208 32.63908340
13515 1 29.14588058 48.45647208 30.30772030
13516 1 31.71757593 48.45647208 30.30772030
13517 1 30.86034415 48.45647208 27.97635720
13518 1 33.43203949 48.45647208 27.97635720
13519 1 32.57480771 48.45647208 25.64499410
13520 1 35.14650306 48.45647208 25.64499410
13521 1 34.28927127 48.45647208 23.31363100
13522 1 36.86096662 48.45647208 23.31363100
13523 1 36.00373484 48.45647208 20.98226790
13524 1 38.57543018 48.45647208 20.98226790
13525 1 37.71819840 48.45647208 18.65090480
13526 1 40.28989375 48.45647208 18.65090480
13527 1 39.43266196 48.45647208 16.31954170
13528 1 42.00435731 48.45647208 16.31954170
13529 1 41.14712553 48.45647208 13.98817860
13530 1 43.71882087 48.45647208 13.98817860
13531 1 42.86158909 48.45647208 11.65681550
13532 1 45.43328444 48.45647208 11.65681550
13533 1 44.57605266 48.45647208 9.32545240
13534 1 47.14774800 48.45647208 9.32545240
13535 1 46.29051622 48.45647208 6.99408930
13536 1 48.86221156 48.45647208 6.99408930
13537 1 48.00497978 48.45647208 4.66272620
13538 1 50.57667513 48.45647208 4.66272620
13539 1 49.71944335 48.45647208 2.33136310
13540 1 52.29113869 48.45647208 2.33136310
13541 1 51.43390691 48.45647208 0.00000000
13542 1 54.00560226 48.45647208 -0.00000000
13543 1 18.85909920 46.43745241 47.79294355
13544 1 21.43079455 46.43745241 47.79294355
13545 1 20.57356276 46.43745241 45.46158045
13546 1 23.14525811 46.43745241 45.46158045
13547 1 22.28802633 46.43745241 43.13021735
13548 1 24.85972167 46.43745241 43.13021735
13549 1 24.00248989 46.43745241 40.79885425
13550 1 26.57418524 46.43745241 40.79885425
13551 1 25.71695346 46.43745241 38.46749115
13552 1 28.28864880 46.43745241 38.46749115
13553 1 27.43141702 46.43745241 36.13612805
13554 1 30.00311236 46.43745241 36.13612805
13555 1 29.14588058 46.43745241 33.80476495
13556 1 31.71757593 46.43745241 33.80476495
13557 1 30.86034415 46.43745241 31.47340185
13558 1 33.43203949 46.43745241 31.47340185
13559 1 32.57480771 46.43745241 29.14203875
13560 1 35.14650306 46.43745241 29.14203875
13561 1 34.28927127 46.43745241 26.81067565
13562 1 36.86096662 46.43745241 26.81067565
13563 1 36.00373484 46.43745241 24.47931255
13564 1 38.57543018 46.43745241 24.47931255
13565 1 37.71819840 46.43745241 22.14794945
13566 1 40.28989375 46.43745241 22.14794945
13567 1 39.43266196 46.43745241 19.81658635
13568 1 42.00435731 46.43745241 19.81658635
13569 1 41.14712553 46.43745241 17.48522325
13570 1 43.71882087 46.43745241 17.48522325
13571 1 42.86158909 46.43745241 15.15386015
13572 1 45.43328444 46.43745241 15.15386015
13573 1 44.57605266 46.43745241 12.82249705
13574 1 47.14774800 46.43745241 12.82249705
13575 1 46.29051622 46.43745241 10.49113395
13576 1 48.86221156 46.43745241 10.49113395
13577 1 48.00497978 46.43745241 8.15977085
13578 1 50.57667513 46.43745241 8.15977085
13579 1 49.71944335 46.43745241 5.82840775
13580 1 52.29113869 46.43745241 5.82840775
13581 1 51.43390691 46.43745241 3.49704465
13582 1 54.00560226 46.43745241 3.49704465
13583 1 53.14837047 46.43745241 1.16568155
13584 1 55.72006582 46.43745241 1.16568155
13585 1 22.28802633 44.41843274 46.62726200
13586 1 24.85972167 44.41843274 46.62726200
13587 1 24.00248989 44.41843274 44.29589890
13588 1 26.57418524 44.41843274 44.29589890
13589 1 25.71695346 44.41843274 41.96453580
13590 1 28.28864880 44.41843274 41.96453580
13591 1 27.43141702 44.41843274 39.63317270
13592 1 30.00311236 44.41843274 39.63317270
13593 1 29.14588058 44.41843274 37.30180960
13594 1 31.71757593 44.41843274 37.30180960
13595 1 30.86034415 44.41843274 34.97044650
13596 1 33.43203949 44.41843274 34.97044650
13597 1 32.57480771 44.41843274 32.63908340
13598 1 35.14650306 44.41843274 32.63908340
13599 1 34.28927127 44.41843274 30.30772030
13600 1 36.86096662 44.41843274 30.30772030
13601 1 36.00373484 44.41843274 27.97635720
13602 1 38.57543018 44.41843274 27.97635720
13603 1 37.71819840 44.41843274 25.64499410
13604 1 40.28989375 44.41843274 25.64499410
13605 1 39.43266196 44.41843274 23.31363100
13606 1 42.00435731 44.41843274 23.31363100
13607 1 41.14712553 44.41843274 20.98226790
13608 1 43.71882087 44.41843274 20.98226790
13609 1 42.86158909 44.41843274 18.65090480
13610 1 45.43328444 44.41843274 18.65090480
13611 1 44.57605266 44.41843274 16.31954170
13612 1 47.14774800 44.41843274 16.31954170
13613 1 46.29051622 44.41843274 13.98817860
13614 1 48.86221156 44.41843274 13.98817860
13615 1 48.00497978 44.41843274 11.65681550
13616 1 50.57667513 44.41843274 11.65681550
13617 1 49.71944335 44.41843274 9.32545240
13618 1 52.29113869 44.41843274 9.32545240
13619 1 51.43390691 44.41843274 6.99408930
13620 1 54.00560226 44.41843274 6.99408930
13621 1 53.14837047 44.41843274 4.66272620
13622 1 55.72006582 44.41843274 4.66272620
13623 1 54.86283404 44.41843274 2.33136310
13624 1 57.43452938 44.41843274 2.33136310
13625 1 56.57729760 44.41843274 -0.00000000
13626 1 59.14899295 44.41843274 -0.00000000
13627 1 24.00248989 42.39941307 47.79294355
13628 1 26.57418524 42.39941307 47.79294355
13629 1 25.71695346 42.39941307 45.46158045
13630 1 28.28864880 42.39941307 45.46158045
13631 1 27.43141702 42.39941307 43.13021735
13632 1 30.00311236 42.39941307 43.13021735
13633 1 29.14588058 42.39941307 40.79885425
13634 1 31.71757593 42.39941307 40.79885425
13635 1 30.86034415 42.39941307 38.46749115
13636 1 33.43203949 42.39941307 38.46749115
13637 1 32.57480771 42.39941307 36.13612805
13638 1 35.14650306 42.39941307 36.13612805
13639 1 34.28927127 42.39941307 33.80476495
13640 1 36.86096662 42.39941307 33.80476495
13641 1 36.00373484 42.39941307 31.47340185
13642 1 38.57543018 42.39941307 31.47340185
13643 1 37.71819840 42.39941307 29.14203875
13644 1 40.28989375 42.39941307 29.14203875
13645 1 39.43266196 42.39941307 26.81067565
13646 1 42.00435731 42.39941307 26.81067565
13647 1 41.14712553 42.39941307 24.47931255
13648 1 43.71882087 42.39941307 24.47931255
13649 1 42.86158909 42.39941307 22.14794945
13650 1 45.43328444 42.39941307 22.14794945
13651 1 44.57605266 42.39941307 19.81658635
13652 1 47.14774800 42.39941307 19.81658635
13653 1 46.29051622 42.39941307 17.48522325
13654 1 48.86221156 42.39941307 17.48522325
13655 1 48.00497978 42.39941307 15.15386015
13656 1 50.57667513 42.39941307 15.15386015
13657 1 49.71944335 42.39941307 12.82249705
13658 1 52.29113869 42.39941307 12.82249705
13659 1 51.43390691 42.39941307 10.49113395
13660 1 54.00560226 42.39941307 10.49113395
13661 1 53.14837047 42.39941307 8.15977085
13662 1 55.72006582 42.39941307 8.15977085
13663 1 54.86283404 42.39941307 5.82840775
13664 1 57.43452938 42.39941307 5.82840775
13665 1 56.57729760 42.39941307 3.49704465
13666 1 59.14899295 42.39941307 3.49704465
13667 1 58.29176116 42.39941307 1.16568155
13668 1 60.86345651 42.39941307 1.16568155
13669 1 27.43141702 40.38039340 46.62726200
13670 1 30.00311236 40.38039340 46.62726200
13671 1 29.14588058 40.38039340 44.29589890
13672 1 31.71757593 40.38039340 44.29589890
13673 1 30.86034415 40.38039340 41.96453580
13674 1 33.43203949 40.38039340 41.96453580
13675 1 32.57480771 40.38039340 39.63317270
13676 1 35.14650306 40.38039340 39.63317270
13677 1 34.28927127 40.38039340 37.30180960
13678 1 36.86096662 40.38039340 37.30180960
13679 1 36.00373484 40.38039340 34.97044650
13680 1 38.57543018 40.38039340 34.97044650
13681 1 37.71819840 40.38039340 32.63908340
13682 1 40.28989375 40.38039340 32.63908340
13683 1 39.43266196 40.38039340 30.30772030
13684 1 42.00435731 40.38039340 30.30772030
13685 1 41.14712553 40.38039340 27.97635720
13686 1 43.71882087 40.38039340 27.97635720
13687 1 42.86158909 40.38039340 25.64499410
13688 1 45.43328444 40.38039340 25.64499410
13689 1 44.57605266 40.38039340 23.31363100
13690 1 47.14774800 40.38039340 23.31363100
13691 1 46.29051622 40.38039340 20.98226790
13692 1 48.86221156 40.38039340 20.98226790
13693 1 48.00497978 40.38039340 18.65090480
13694 1 50.57667513 40.38039340 18.65090480
13695 1 49.71944335 40.38039340 16.31954170
13696 1 52.29113869 40.38039340 16.31954170
13697 1 51.43390691 40.38039340 13.98817860
13698 1 54.00560226 40.38039340 13.98817860
13699 1 53.14837047 40.38039340 11.65681550
13700 1 55.72006582 40.38039340 11.65681550
13701 1 54.86283404 40.38039340 9.32545240
13702 1 57.43452938 40.38039340 9.32545240
13703 1 56.57729760 40.38039340 6.99408930
13704 1 59.14899295 40.38039340 6.99408930
13705 1 58.29176116 40.38039340 4.66272620
13706 1 60.86345651 40.38039340 4.66272620
13707 1 60.00622473 40.38039340 2.33136310
13708 1 62.57792007 40.38039340 2.33136310
13709 1 61.72068829 40.38039340 0.00000000
13710 1 29.14588058 38.36137373 47.79294355
13711 1 31.71757593 38.36137373 47.79294355
13712 1 30.86034415 38.36137373 45.46158045
13713 1 33.43203949 38.36137373 45.46158045
13714 1 32.57480771 38.36137373 43.13021735
13715 1 35.14650306 38.36137373 43.13021735
13716 1 34.28927127 38.36137373 40.79885425
13717 1 36.86096662 38.36137373 40.79885425
13718 1 36.00373484 38.36137373 38.46749115
13719 1 38.57543018 38.36137373 38.46749115
13720 1 37.71819840 38.36137373 36.13612805
13721 1 40.28989375 38.36137373 36.13612805
13722 1 39.43266196 38.36137373 33.80476495
13723 1 42.00435731 38.36137373 33.80476495
13724 1 41.14712553 38.36137373 31.47340185
13725 1 43.71882087 38.36137373 31.47340185
13726 1 42.86158909 38.36137373 29.14203875
13727 1 45.43328444 38.36137373 29.14203875
13728 1 44.57605266 38.36137373 26.81067565
13729 1 47.14774800 38.36137373 26.81067565
13730 1 46.29051622 38.36137373 24.47931255
13731 1 48.86221156 38.36137373 24.47931255
13732 1 48.00497978 38.36137373 22.14794945
13733 1 50.57667513 38.36137373 22.14794945
13734 1 49.71944335 38.36137373 19.81658635
13735 1 52.29113869 38.36137373 19.81658635
13736 1 51.43390691 38.36137373 17.48522325
13737 1 54.00560226 38.36137373 17.48522325
13738 1 53.14837047 38.36137373 15.15386015
13739 1 55.72006582 38.36137373 15.15386015
13740 1 54.86283404 38.36137373 12.82249705
13741 1 57.43452938 38.36137373 12.82249705
13742 1 56.57729760 38.36137373 10.49113395
13743 1 59.14899295 38.36137373 10.49113395
13744 1 58.29176116 38.36137373 8.15977085
13745 1 60.86345651 38.36137373 8.15977085
13746 1 60.00622473 38.36137373 5.82840775
13747 1 62.57792007 38.36137373 5.82840775
13748 1 61.72068829 38.36137373 3.49704465
13749 1 63.43515186 38.36137373 1.16568155
13750 1 32.57480771 36.34235406 46.62726200
13751 1 35.14650306 36.34235406 46.62726200
13752 1 34.28927127 36.34235406 44.29589890
13753 1 36.86096662 36.34235406 44.29589890
13754 1 36.00373484 36.34235406 41.96453580
13755 1 38.57543018 36.34235406 41.96453580
13756 1 37.71819840 36.34235406 39.63317270
13757 1 40.28989375 36.34235406 39.63317270
13758 1 39.43266196 36.34235406 37.30180960
13759 1 42.00435731 36.34235406 37.30180960
13760 1 41.14712553 36.34235406 34.97044650
13761 1 43.71882087 36.34235406 34.97044650
13762 1 42.86158909 36.34235406 32.63908340
13763 1 45.43328444 36.34235406 32.63908340
13764 1 44.57605266 36.34235406 30.30772030
13765 1 47.14774800 36.34235406 30.30772030
13766 1 46.29051622 36.34235406 27.97635720
13767 1 48.86221156 36.34235406 27.97635720
13768 1 48.00497978 36.34235406 25.64499410
13769 1 50.57667513 36.34235406 25.64499410
13770 1 49.71944335 36.34235406 23.31363100
13771 1 52.29113869 36.34235406 23.31363100
13772 1 51.43390691 36.34235406 20.98226790
13773 1 54.00560226 36.34235406 20.98226790
13774 1 53.14837047 36.34235406 18.65090480
13775 1 55.72006582 36.34235406 18.65090480
13776 1 54.86283404 36.34235406 16.31954170
13777 1 57.43452938 36.34235406 16.31954170
13778 1 56.57729760 36.34235406 13.98817860
13779 1 59.14899295 36.34235406 13.98817860
13780 1 58.29176116 36.34235406 11.65681550
13781 1 60.86345651 36.34235406 11.65681550
13782 1 60.00622473 36.34235406 9.32545240
13783 1 62.57792007 36.34235406 9.32545240
13784 1 61.72068829 36.34235406 6.99408930
13785 1 63.43515186 36.34235406 4.66272620
13786 1 34.28927127 34.32333439 47.79294355
13787 1 36.86096662 34.32333439 47.79294355
13788 1 36.00373484 34.32333439 45.46158045
13789 1 38.57543018 34.32333439 45.46158045
13790 1 37.71819840 34.32333439 43.13021735
13791 1 40.28989375 34.32333439 43.13021735
13792 1 39.43266196 34.32333439 40.79885425
13793 1 42.00435731 34.32333439 40.79885425
13794 1 41.14712553 34.32333439 38.46749115
13795 1 43.71882087 34.32333439 38.46749115
13796 1 42.86158909 34.32333439 36.13612805
13797 1 45.43328444 34.32333439 36.13612805
13798 1 44.57605266 34.32333439 33.80476495
13799 1 47.14774800 34.32333439 33.80476495
13800 1 46.29051622 34.32333439 31.47340185
13801 1 48.86221156 34.32333439 31.47340185
13802 1 48.00497978 34.32333439 29.14203875
13803 1 50.57667513 34.32333439 29.14203875
13804 1 49.71944335 34.32333439 26.81067565
13805 1 52.29113869 34.32333439 26.81067565
13806 1 51.43390691 34.32333439 24.47931255
13807 1 54.00560226 34.32333439 24.47931255
13808 1 53.14837047 34.32333439 22.14794945
13809 1 55.72006582 34.32333439 22.14794945
13810 1 54.86283404 34.32333439 19.81658635
13811 1 57.43452938 34.32333439 19.81658635
13812 1 56.57729760 34.32333439 17.48522325
13813 1 59.14899295 34.32333439 17.48522325
13814 1 58.29176116 34.32333439 15.15386015
13815 1 60.86345651 34.32333439 15.15386015
13816 1 60.00622473 34.32333439 12.82249705
13817 1 62.57792007 34.32333439 12.82249705
13818 1 61.72068829 34.32333439 10.49113395
13819 1 63.43515186 34.32333439 8.15977085
13820 1 37.71819840 32.30431472 46.62726200
13821 1 40.28989375 32.30431472 46.62726200
13822 1 39.43266196 32.30431472 44.29589890
13823 1 42.00435731 32.30431472 44.29589890
13824 1 41.14712553 32.30431472 41.96453580
13825 1 43.71882087 32.30431472 41.96453580
13826 1 42.86158909 32.30431472 39.63317270
13827 1 45.43328444 32.30431472 39.63317270
13828 1 44.57605266 32.30431472 37.30180960
13829 1 47.14774800 32.30431472 37.30180960
13830 1 46.29051622 32.30431472 34.97044650
13831 1 48.86221156 32.30431472 34.97044650
13832 1 48.00497978 32.30431472 32.63908340
13833 1 50.57667513 32.30431472 32.63908340
13834 1 49.71944335 32.30431472 30.30772030
13835 1 52.29113869 32.30431472 30.30772030
13836 1 51.43390691 32.30431472 27.97635720
13837 1 54.00560226 32.30431472 27.97635720
13838 1 53.14837047 32.30431472 25.64499410
13839 1 55.72006582 32.30431472 25.64499410
13840 1 54.86283404 32.30431472 23.31363100
13841 1 57.43452938 32.30431472 23.31363100
13842 1 56.57729760 32.30431472 20.98226790
13843 1 59.14899295 32.30431472 20.98226790
13844 1 58.29176116 32.30431472 18.65090480
13845 1 60.86345651 32.30431472 18.65090480
13846 1 60.00622473 32.30431472 16.31954170
13847 1 62.57792007 32.30431472 16.31954170
13848 1 61.72068829 32.30431472 13.98817860
13849 1 63.43515186 32.30431472 11.65681550
13850 1 3.42892713 62.58960977 47.79294355
13851 1 6.00062247 62.58960977 47.79294355
13852 1 5.14339069 62.58960977 45.46158045
13853 1 7.71508604 62.58960977 45.46158045
13854 1 6.85785425 62.58960977 43.13021735
13855 1 9.42954960 62.58960977 43.13021735
13856 1 8.57231782 62.58960977 40.79885425
13857 1 11.14401316 62.58960977 40.79885425
13858 1 10.28678138 62.58960977 38.46749115
13859 1 12.85847673 62.58960977 38.46749115
13860 1 12.00124495 62.58960977 36.13612805
13861 1 14.57294029 62.58960977 36.13612805
13862 1 13.71570851 62.58960977 33.80476495
13863 1 16.28740385 62.58960977 33.80476495
13864 1 15.43017207 62.58960977 31.47340185
13865 1 18.00186742 62.58960977 31.47340185
13866 1 17.14463564 62.58960977 29.14203875
13867 1 19.71633098 62.58960977 29.14203875
13868 1 18.85909920 62.58960977 26.81067565
13869 1 21.43079455 62.58960977 26.81067565
13870 1 20.57356276 62.58960977 24.47931255
13871 1 23.14525811 62.58960977 24.47931255
13872 1 22.28802633 62.58960977 22.14794945
13873 1 24.85972167 62.58960977 22.14794945
13874 1 24.00248989 62.58960977 19.81658635
13875 1 26.57418524 62.58960977 19.81658635
13876 1 25.71695346 62.58960977 17.48522325
13877 1 28.28864880 62.58960977 17.48522325
13878 1 27.43141702 62.58960977 15.15386015
13879 1 30.00311236 62.58960977 15.15386015
13880 1 29.14588058 62.58960977 12.82249705
13881 1 31.71757593 62.58960977 12.82249705
13882 1 30.86034415 62.58960977 10.49113395
13883 1 33.43203949 62.58960977 10.49113395
13884 1 32.57480771 62.58960977 8.15977085
13885 1 35.14650306 62.58960977 8.15977085
13886 1 34.28927127 62.58960977 5.82840775
13887 1 36.86096662 62.58960977 5.82840775
13888 1 36.00373484 62.58960977 3.49704465
13889 1 38.57543018 62.58960977 3.49704465
13890 1 37.71819840 62.58960977 1.16568155
13891 1 40.28989375 62.58960977 1.16568155
13892 1 6.85785425 60.57059010 46.62726200
13893 1 9.42954960 60.57059010 46.62726200
13894 1 8.57231782 60.57059010 44.29589890
13895 1 11.14401316 60.57059010 44.29589890
13896 1 10.28678138 60.57059010 41.96453580
13897 1 12.85847673 60.57059010 41.96453580
13898 1 12.00124495 60.57059010 39.63317270
13899 1 14.57294029 60.57059010 39.63317270
13900 1 13.71570851 60.57059010 37.30180960
13901 1 16.28740385 60.57059010 37.30180960
13902 1 15.43017207 60.57059010 34.97044650
13903 1 18.00186742 60.57059010 34.97044650
13904 1 17.14463564 60.57059010 32.63908340
13905 1 19.71633098 60.57059010 32.63908340
13906 1 18.85909920 60.57059010 30.30772030
13907 1 21.43079455 60.57059010 30.30772030
13908 1 20.57356276 60.57059010 27.97635720
13909 1 23.14525811 60.57059010 27.97635720
13910 1 22.28802633 60.57059010 25.64499410
13911 1 24.85972167 60.57059010 25.64499410
13912 1 24.00248989 60.57059010 23.31363100
13913 1 26.57418524 60.57059010 23.31363100
13914 1 25.71695346 60.57059010 20.98226790
13915 1 28.28864880 60.57059010 20.98226790
13916 1 27.43141702 60.57059010 18.65090480
13917 1 30.00311236 60.57059010 18.65090480
13918 1 29.14588058 60.57059010 16.31954170
13919 1 31.71757593 60.57059010 16.31954170
13920 1 30.86034415 60.57059010 13.98817860
13921 1 33.43203949 60.57059010 13.98817860
13922 1 32.57480771 60.57059010 11.65681550
13923 1 35.14650306 60.57059010 11.65681550
13924 1 34.28927127 60.57059010 9.32545240
13925 1 36.86096662 60.57059010 9.32545240
13926 1 36.00373484 60.57059010 6.99408930
13927 1 38.57543018 60.57059010 6.99408930
13928 1 37.71819840 60.57059010 4.66272620
13929 1 40.28989375 60.57059010 4.66272620
13930 1 39.43266196 60.57059010 2.33136310
13931 1 42.00435731 60.57059010 2.33136310
13932 1 41.14712553 60.57059010 -0.00000000
13933 1 43.71882087 60.57059010 -0.00000000
13934 1 8.57231782 58.55157043 47.79294355
13935 1 11.14401316 58.55157043 47.79294355
13936 1 10.28678138 58.55157043 45.46158045
13937 1 12.85847673 58.55157043 45.46158045
13938 1 12.00124495 58.55157043 43.13021735
13939 1 14.57294029 58.55157043 43.13021735
13940 1 13.71570851 58.55157043 40.79885425
13941 1 16.28740385 58.55157043 40.79885425
13942 1 15.43017207 58.55157043 38.46749115
13943 1 18.00186742 58.55157043 38.46749115
13944 1 17.14463564 58.55157043 36.13612805
13945 1 19.71633098 58.55157043 36.13612805
13946 1 18.85909920 58.55157043 33.80476495
13947 1 21.43079455 58.55157043 33.80476495
13948 1 20.57356276 58.55157043 31.47340185
13949 1 23.14525811 58.55157043 31.47340185
13950 1 22.28802633 58.55157043 29.14203875
13951 1 24.85972167 58.55157043 29.14203875
13952 1 24.00248989 58.55157043 26.81067565
13953 1 26.57418524 58.55157043 26.81067565
13954 1 25.71695346 58.55157043 24.47931255
13955 1 28.28864880 58.55157043 24.47931255
13956 1 27.43141702 58.55157043 22.14794945
13957 1 30.00311236 58.55157043 22.14794945
13958 1 29.14588058 58.55157043 19.81658635
13959 1 31.71757593 58.55157043 19.81658635
13960 1 30.86034415 58.55157043 17.48522325
13961 1 33.43203949 58.55157043 17.48522325
13962 1 32.57480771 58.55157043 15.15386015
13963 1 35.14650306 58.55157043 15.15386015
13964 1 34.28927127 58.55157043 12.82249705
13965 1 36.86096662 58.55157043 12.82249705
13966 1 36.00373484 58.55157043 10.49113395
13967 1 38.57543018 58.55157043 10.49113395
13968 1 37.71819840 58.55157043 8.15977085
13969 1 40.28989375 58.55157043 8.15977085
13970 1 39.43266196 58.55157043 5.82840775
13971 1 42.00435731 58.55157043 5.82840775
13972 1 41.14712553 58.55157043 3.49704465
13973 1 43.71882087 58.55157043 3.49704465
13974 1 42.86158909 58.55157043 1.16568155
13975 1 45.43328444 58.55157043 1.16568155
13976 1 12.00124495 56.53255076 46.62726200
13977 1 14.57294029 56.53255076 46.62726200
13978 1 13.71570851 56.53255076 44.29589890
13979 1 16.28740385 56.53255076 44.29589890
13980 1 15.43017207 56.53255076 41.96453580
13981 1 18.00186742 56.53255076 41.96453580
13982 1 17.14463564 56.53255076 39.63317270
13983 1 19.71633098 56.53255076 39.63317270
13984 1 18.85909920 56.53255076 37.30180960
13985 1 21.43079455 56.53255076 37.30180960
13986 1 20.57356276 56.53255076 34.97044650
13987 1 23.14525811 56.53255076 34.97044650
13988 1 22.28802633 56.53255076 32.63908340
13989 1 24.85972167 56.53255076 32.63908340
13990 1 24.00248989 56.53255076 30.30772030
13991 1 26.57418524 56.53255076 30.30772030
13992 1 25.71695346 56.53255076 27.97635720
13993 1 28.28864880 56.53255076 27.97635720
13994 1 27.43141702 56.53255076 25.64499410
13995 1 30.00311236 56.53255076 25.64499410
13996 1 29.14588058 56.53255076 23.31363100
13997 1 31.71757593 56.53255076 23.31363100
13998 1 30.86034415 56.53255076 20.98226790
13999 1 33.43203949 56.53255076 20.98226790
14000 1 32.57480771 56.53255076 18.65090480
14001 1 35.14650306 56.53255076 18.65090480
14002 1 34.28927127 56.53255076 16.31954170
14003 1 36.86096662 56.53255076 16.31954170
14004 1 36.00373484 56.53255076 13.98817860
14005 1 38.57543018 56.53255076 13.98817860
14006 1 37.71819840 56.53255076 11.65681550
14007 1 40.28989375 56.53255076 11.65681550
14008 1 39.43266196 56.53255076 9.32545240
14009 1 42.00435731 56.53255076 9.32545240
14010 1 41.14712553 56.53255076 6.99408930
14011 1 43.71882087 56.53255076 6.99408930
14012 1 42.86158909 56.53255076 4.66272620
14013 1 45.43328444 56.53255076 4.66272620
14014 1 44.57605266 56.53255076 2.33136310
14015 1 47.14774800 56.53255076 2.33136310
14016 1 46.29051622 56.53255076 -0.00000000
14017 1 48.86221156 56.53255076 -0.00000000
14018 1 13.71570851 54.51353109 47.79294355
14019 1 16.28740385 54.51353109 47.79294355
14020 1 15.43017207 54.51353109 45.46158045
14021 1 18.00186742 54.51353109 45.46158045
14022 1 17.14463564 54.51353109 43.13021735
14023 1 19.71633098 54.51353109 43.13021735
14024 1 18.85909920 54.51353109 40.79885425
14025 1 21.43079455 54.51353109 40.79885425
14026 1 20.57356276 54.51353109 38.46749115
14027 1 23.14525811 54.51353109 38.46749115
14028 1 22.28802633 54.51353109 36.13612805
14029 1 24.85972167 54.51353109 36.13612805
14030 1 24.00248989 54.51353109 33.80476495
14031 1 26.57418524 54.51353109 33.80476495
14032 1 25.71695346 54.51353109 31.47340185
14033 1 28.28864880 54.51353109 31.47340185
14034 1 27.43141702 54.51353109 29.14203875
14035 1 30.00311236 54.51353109 29.14203875
14036 1 29.14588058 54.51353109 26.81067565
14037 1 31.71757593 54.51353109 26.81067565
14038 1 30.86034415 54.51353109 24.47931255
14039 1 33.43203949 54.51353109 24.47931255
14040 1 32.57480771 54.51353109 22.14794945
14041 1 35.14650306 54.51353109 22.14794945
14042 1 34.28927127 54.51353109 19.81658635
14043 1 36.86096662 54.51353109 19.81658635
14044 1 36.00373484 54.51353109 17.48522325
14045 1 38.57543018 54.51353109 17.48522325
14046 1 37.71819840 54.51353109 15.15386015
14047 1 40.28989375 54.51353109 15.15386015
14048 1 39.43266196 54.51353109 12.82249705
14049 1 42.00435731 54.51353109 12.82249705
14050 1 41.14712553 54.51353109 10.49113395
14051 1 43.71882087 54.51353109 10.49113395
14052 1 42.86158909 54.51353109 8.15977085
14053 1 45.43328444 54.51353109 8.15977085
14054 1 44.57605266 54.51353109 5.82840775
14055 1 47.14774800 54.51353109 5.82840775
14056 1 46.29051622 54.51353109 3.49704465
14057 1 48.86221156 54.51353109 3.49704465
14058 1 48.00497978 54.51353109 1.16568155
14059 1 50.57667513 54.51353109 1.16568155
14060 1 17.14463564 52.49451142 46.62726200
14061 1 19.71633098 52.49451142 46.62726200
14062 1 18.85909920 52.49451142 44.29589890
14063 1 21.43079455 52.49451142 44.29589890
14064 1 20.57356276 52.49451142 41.96453580
14065 1 23.14525811 52.49451142 41.96453580
14066 1 22.28802633 52.49451142 39.63317270
14067 1 24.85972167 52.49451142 39.63317270
14068 1 24.00248989 52.49451142 37.30180960
14069 1 26.57418524 52.49451142 37.30180960
14070 1 25.71695346 52.49451142 34.97044650
14071 1 28.28864880 52.49451142 34.97044650
14072 1 27.43141702 52.49451142 32.63908340
14073 1 30.00311236 52.49451142 32.63908340
14074 1 29.14588058 52.49451142 30.30772030
14075 1 31.71757593 52.49451142 30.30772030
14076 1 30.86034415 52.49451142 27.97635720
14077 1 33.43203949 52.49451142 27.97635720
14078 1 32.57480771 52.49451142 25.64499410
14079 1 35.14650306 52.49451142 25.64499410
14080 1 34.28927127 52.49451142 23.31363100
14081 1 36.86096662 52.49451142 23.31363100
14082 1 36.00373484 52.49451142 20.98226790
14083 1 38.57543018 52.49451142 20.98226790
14084 1 37.71819840 52.49451142 18.65090480
14085 1 40.28989375 52.49451142 18.65090480
14086 1 39.43266196 52.49451142 16.31954170
14087 1 42.00435731 52.49451142 16.31954170
14088 1 41.14712553 52.49451142 13.98817860
14089 1 43.71882087 52.49451142 13.98817860
14090 1 42.86158909 52.49451142 11.65681550
14091 1 45.43328444 52.49451142 11.65681550
14092 1 44.57605266 52.49451142 9.32545240
14093 1 47.14774800 52.49451142 9.32545240
14094 1 46.29051622 52.49451142 6.99408930
14095 1 48.86221156 52.49451142 6.99408930
14096 1 48.00497978 52.49451142 4.66272620
14097 1 50.57667513 52.49451142 4.66272620
14098 1 49.71944335 52.49451142 2.33136310
14099 1 52.29113869 52.49451142 2.33136310
14100 1 51.43390691 52.49451142 -0.00000000
14101 1 54.00560226 52.49451142 -0.00000000
14102 1 18.85909920 50.47549175 47.79294355
14103 1 21.43079455 50.47549175 47.79294355
14104 1 20.57356276 50.47549175 45.46158045
14105 1 23.14525811 50.47549175 45.46158045
14106 1 22.28802633 50.47549175 43.13021735
14107 1 24.85972167 50.47549175 43.13021735
14108 1 24.00248989 50.47549175 40.79885425
14109 1 26.57418524 50.47549175 40.79885425
14110 1 25.71695346 50.47549175 38.46749115
14111 1 28.28864880 50.47549175 38.46749115
14112 1 27.43141702 50.47549175 36.13612805
14113 1 30.00311236 50.47549175 36.13612805
14114 1 29.14588058 50.47549175 33.80476495
14115 1 31.71757593 50.47549175 33.80476495
14116 1 30.86034415 50.47549175 31.47340185
14117 1 33.43203949 50.47549175 31.47340185
14118 1 32.57480771 50.47549175 29.14203875
14119 1 35.14650306 50.47549175 29.14203875
14120 1 34.28927127 50.47549175 26.81067565
14121 1 36.86096662 50.47549175 26.81067565
14122 1 36.00373484 50.47549175 24.47931255
14123 1 38.57543018 50.47549175 24.47931255
14124 1 37.71819840 50.47549175 22.14794945
14125 1 40.28989375 50.47549175 22.14794945
14126 1 39.43266196 50.47549175 19.81658635
14127 1 42.00435731 50.47549175 19.81658635
14128 1 41.14712553 50.47549175 17.48522325
14129 1 43.71882087 50.47549175 17.48522325
14130 1 42.86158909 50.47549175 15.15386015
14131 1 45.43328444 50.47549175 15.15386015
14132 1 44.57605266 50.47549175 12.82249705
14133 1 47.14774800 50.47549175 12.82249705
14134 1 46.29051622 50.47549175 10.49113395
14135 1 48.86221156 50.47549175 10.49113395
14136 1 48.00497978 50.47549175 8.15977085
14137 1 50.57667513 50.47549175 8.15977085
14138 1 49.71944335 50.47549175 5.82840775
14139 1 52.29113869 50.47549175 5.82840775
14140 1 51.43390691 50.47549175 3.49704465
14141 1 54.00560226 50.47549175 3.49704465
14142 1 53.14837047 50.47549175 1.16568155
14143 1 55.72006582 50.47549175 1.16568155
14144 1 22.28802633 48.45647208 46.62726200
14145 1 24.85972167 48.45647208 46.62726200
14146 1 24.00248989 48.45647208 44.29589890
14147 1 26.57418524 48.45647208 44.29589890
14148 1 25.71695346 48.45647208 41.96453580
14149 1 28.28864880 48.45647208 41.96453580
14150 1 27.43141702 48.45647208 39.63317270
14151 1 30.00311236 48.45647208 39.63317270
14152 1 29.14588058 48.45647208 37.30180960
14153 1 31.71757593 48.45647208 37.30180960
14154 1 30.86034415 48.45647208 34.97044650
14155 1 33.43203949 48.45647208 34.97044650
14156 1 32.57480771 48.45647208 32.63908340
14157 1 35.14650306 48.45647208 32.63908340
14158 1 34.28927127 48.45647208 30.30772030
14159 1 36.86096662 48.45647208 30.30772030
14160 1 36.00373484 48.45647208 27.97635720
14161 1 38.57543018 48.45647208 27.97635720
14162 1 37.71819840 48.45647208 25.64499410
14163 1 40.28989375 48.45647208 25.64499410
14164 1 39.43266196 48.45647208 23.31363100
14165 1 42.00435731 48.45647208 23.31363100
14166 1 41.14712553 48.45647208 20.98226790
14167 1 43.71882087 48.45647208 20.98226790
14168 1 42.86158909 48.45647208 18.65090480
14169 1 45.43328444 48.45647208 18.65090480
14170 1 44.57605266 48.45647208 16.31954170
14171 1 47.14774800 48.45647208 16.31954170
14172 1 46.29051622 48.45647208 13.98817860
14173 1 48.86221156 48.45647208 13.98817860
14174 1 48.00497978 48.45647208 11.65681550
14175 1 50.57667513 48.45647208 11.65681550
14176 1 49.71944335 48.45647208 9.32545240
14177 1 52.29113869 48.45647208 9.32545240
14178 1 51.43390691 48.45647208 6.99408930
14179 1 54.00560226 48.45647208 6.99408930
14180 1 53.14837047 48.45647208 4.66272620
14181 1 55.72006582 48.45647208 4.66272620
14182 1 54.86283404 48.45647208 2.33136310
14183 1 57.43452938 48.45647208 2.33136310
14184 1 56.57729760 48.45647208 -0.00000000
14185 1 59.14899295 48.45647208 -0.00000000
14186 1 24.00248989 46.43745241 47.79294355
14187 1 26.57418524 46.43745241 47.79294355
14188 1 25.71695346 46.43745241 45.46158045
14189 1 28.28864880 46.43745241 45.46158045
14190 1 27.43141702 46.43745241 43.13021735
14191 1 30.00311236 46.43745241 43.13021735
14192 1 29.14588058 46.43745241 40.79885425
14193 1 31.71757593 46.43745241 40.79885425
14194 1 30.86034415 46.43745241 38.46749115
14195 1 33.43203949 46.43745241 38.46749115
14196 1 32.57480771 46.43745241 36.13612805
14197 1 35.14650306 46.43745241 36.13612805
14198 1 34.28927127 46.43745241 33.80476495
14199 1 36.86096662 46.43745241 33.80476495
14200 1 36.00373484 46.43745241 31.47340185
14201 1 38.57543018 46.43745241 31.47340185
14202 1 37.71819840 46.43745241 29.14203875
14203 1 40.28989375 46.43745241 29.14203875
14204 1 39.43266196 46.43745241 26.81067565
14205 1 42.00435731 46.43745241 26.81067565
14206 1 41.14712553 46.43745241 24.47931255
14207 1 43.71882087 46.43745241 24.47931255
14208 1 42.86158909 46.43745241 22.14794945
14209 1 45.43328444 46.43745241 22.14794945
14210 1 44.57605266 46.43745241 19.81658635
14211 1 47.14774800 46.43745241 19.81658635
14212 1 46.29051622 46.43745241 17.48522325
14213 1 48.86221156 46.43745241 17.48522325
14214 1 48.00497978 46.43745241 15.15386015
14215 1 50.57667513 46.43745241 15.15386015
14216 1 49.71944335 46.43745241 12.82249705
14217 1 52.29113869 46.43745241 12.82249705
14218 1 51.43390691 46.43745241 10.49113395
14219 1 54.00560226 46.43745241 10.49113395
14220 1 53.14837047 46.43745241 8.15977085
14221 1 55.72006582 46.43745241 8.15977085
14222 1 54.86283404 46.43745241 5.82840775
14223 1 57.43452938 46.43745241 5.82840775
14224 1 56.57729760 46.43745241 3.49704465
14225 1 59.14899295 46.43745241 3.49704465
14226 1 58.29176116 46.43745241 1.16568155
14227 1 60.86345651 46.43745241 1.16568155
14228 1 27.43141702 44.41843274 46.62726200
14229 1 30.00311236 44.41843274 46.62726200
14230 1 29.14588058 44.41843274 44.29589890
14231 1 31.71757593 44.41843274 44.29589890
14232 1 30.86034415 44.41843274 41.96453580
14233 1 33.43203949 44.41843274 41.96453580
14234 1 32.57480771 44.41843274 39.63317270
14235 1 35.14650306 44.41843274 39.63317270
14236 1 34.28927127 44.41843274 37.30180960
14237 1 36.86096662 44.41843274 37.30180960
14238 1 36.00373484 44.41843274 34.97044650
14239 1 38.57543018 44.41843274 34.97044650
14240 1 37.71819840 44.41843274 32.63908340
14241 1 40.28989375 44.41843274 32.63908340
14242 1 39.43266196 44.41843274 30.30772030
14243 1 42.00435731 44.41843274 30.30772030
14244 1 41.14712553 44.41843274 27.97635720
14245 1 43.71882087 44.41843274 27.97635720
14246 1 42.86158909 44.41843274 25.64499410
14247 1 45.43328444 44.41843274 25.64499410
14248 1 44.57605266 44.41843274 23.31363100
14249 1 47.14774800 44.41843274 23.31363100
14250 1 46.29051622 44.41843274 20.98226790
14251 1 48.86221156 44.41843274 20.98226790
14252 1 48.00497978 44.41843274 18.65090480
14253 1 50.57667513 44.41843274 18.65090480
14254 1 49.71944335 44.41843274 16.31954170
14255 1 52.29113869 44.41843274 16.31954170
14256 1 51.43390691 44.41843274 13.98817860
14257 1 54.00560226 44.41843274 13.98817860
14258 1 53.14837047 44.41843274 11.65681550
14259 1 55.72006582 44.41843274 11.65681550
14260 1 54.86283404 44.41843274 9.32545240
14261 1 57.43452938 44.41843274 9.32545240
14262 1 56.57729760 44.41843274 6.99408930
14263 1 59.14899295 44.41843274 6.99408930
14264 1 58.29176116 44.41843274 4.66272620
14265 1 60.86345651 44.41843274 4.66272620
14266 1 60.00622473 44.41843274 2.33136310
14267 1 62.57792007 44.41843274 2.33136310
14268 1 61.72068829 44.41843274 0.00000000
14269 1 29.14588058 42.39941307 47.79294355
14270 1 31.71757593 42.39941307 47.79294355
14271 1 30.86034415 42.39941307 45.46158045
14272 1 33.43203949 42.39941307 45.46158045
14273 1 32.57480771 42.39941307 43.13021735
14274 1 35.14650306 42.39941307 43.13021735
14275 1 34.28927127 42.39941307 40.79885425
14276 1 36.86096662 42.39941307 40.79885425
14277 1 36.00373484 42.39941307 38.46749115
14278 1 38.57543018 42.39941307 38.46749115
14279 1 37.71819840 42.39941307 36.13612805
14280 1 40.28989375 42.39941307 36.13612805
14281 1 39.43266196 42.39941307 33.80476495
14282 1 42.00435731 42.39941307 33.80476495
14283 1 41.14712553 42.39941307 31.47340185
14284 1 43.71882087 42.39941307 31.47340185
14285 1 42.86158909 42.39941307 29.14203875
14286 1 45.43328444 42.39941307 29.14203875
14287 1 44.57605266 42.39941307 26.81067565
14288 1 47.14774800 42.39941307 26.81067565
14289 1 46.29051622 42.39941307 24.47931255
14290 1 48.86221156 42.39941307 24.47931255
14291 1 48.00497978 42.39941307 22.14794945
14292 1 50.57667513 42.39941307 22.14794945
14293 1 49.71944335 42.39941307 19.81658635
14294 1 52.29113869 42.39941307 19.81658635
14295 1 51.43390691 42.39941307 17.48522325
14296 1 54.00560226 42.39941307 17.48522325
14297 1 53.14837047 42.39941307 15.15386015
14298 1 55.72006582 42.39941307 15.15386015
14299 1 54.86283404 42.39941307 12.82249705
14300 1 57.43452938 42.39941307 12.82249705
14301 1 56.57729760 42.39941307 10.49113395
14302 1 59.14899295 42.39941307 10.49113395
14303 1 58.29176116 42.39941307 8.15977085
14304 1 60.86345651 42.39941307 8.15977085
14305 1 60.00622473 42.39941307 5.82840775
14306 1 62.57792007 42.39941307 5.82840775
14307 1 61.72068829 42.39941307 3.49704465
14308 1 63.43515186 42.39941307 1.16568155
14309 1 32.57480771 40.38039340 46.62726200
14310 1 35.14650306 40.38039340 46.62726200
14311 1 34.28927127 40.38039340 44.29589890
14312 1 36.86096662 40.38039340 44.29589890
14313 1 36.00373484 40.38039340 41.96453580
14314 1 38.57543018 40.38039340 41.96453580
14315 1 37.71819840 40.38039340 39.63317270
14316 1 40.28989375 40.38039340 39.63317270
14317 1 39.43266196 40.38039340 37.30180960
14318 1 42.00435731 40.38039340 37.30180960
14319 1 41.14712553 40.38039340 34.97044650
14320 1 43.71882087 40.38039340 34.97044650
14321 1 42.86158909 40.38039340 32.63908340
14322 1 45.43328444 40.38039340 32.63908340
14323 1 44.57605266 40.38039340 30.30772030
14324 1 47.14774800 40.38039340 30.30772030
14325 1 46.29051622 40.38039340 27.97635720
14326 1 48.86221156 40.38039340 27.97635720
14327 1 48.00497978 40.38039340 25.64499410
14328 1 50.57667513 40.38039340 25.64499410
14329 1 49.71944335 40.38039340 23.31363100
14330 1 52.29113869 40.38039340 23.31363100
14331 1 51.43390691 40.38039340 20.98226790
14332 1 54.00560226 40.38039340 20.98226790
14333 1 53.14837047 40.38039340 18.65090480
14334 1 55.72006582 40.38039340 18.65090480
14335 1 54.86283404 40.38039340 16.31954170
14336 1 57.43452938 40.38039340 16.31954170
14337 1 56.57729760 40.38039340 13.98817860
14338 1 59.14899295 40.38039340 13.98817860
14339 1 58.29176116 40.38039340 11.65681550
14340 1 60.86345651 40.38039340 11.65681550
14341 1 60.00622473 40.38039340 9.32545240
14342 1 62.57792007 40.38039340 9.32545240
14343 1 61.72068829 40.38039340 6.99408930
14344 1 63.43515186 40.38039340 4.66272620
14345 1 34.28927127 38.36137373 47.79294355
14346 1 36.86096662 38.36137373 47.79294355
14347 1 36.00373484 38.36137373 45.46158045
14348 1 38.57543018 38.36137373 45.46158045
14349 1 37.71819840 38.36137373 43.13021735
14350 1 40.28989375 38.36137373 43.13021735
14351 1 39.43266196 38.36137373 40.79885425
14352 1 42.00435731 38.36137373 40.79885425
14353 1 41.14712553 38.36137373 38.46749115
14354 1 43.71882087 38.36137373 38.46749115
14355 1 42.86158909 38.36137373 36.13612805
14356 1 45.43328444 38.36137373 36.13612805
14357 1 44.57605266 38.36137373 33.80476495
14358 1 47.14774800 38.36137373 33.80476495
14359 1 46.29051622 38.36137373 31.47340185
14360 1 48.86221156 38.36137373 31.47340185
14361 1 48.00497978 38.36137373 29.14203875
14362 1 50.57667513 38.36137373 29.14203875
14363 1 49.71944335 38.36137373 26.81067565
14364 1 52.29113869 38.36137373 26.81067565
14365 1 51.43390691 38.36137373 24.47931255
14366 1 54.00560226 38.36137373 24.47931255
14367 1 53.14837047 38.36137373 22.14794945
14368 1 55.72006582 38.36137373 22.14794945
14369 1 54.86283404 38.36137373 19.81658635
14370 1 57.43452938 38.36137373 19.81658635
14371 1 56.57729760 38.36137373 17.48522325
14372 1 59.14899295 38.36137373 17.48522325
14373 1 58.29176116 38.36137373 15.15386015
14374 1 60.86345651 38.36137373 15.15386015
14375 1 60.00622473 38.36137373 12.82249705
14376 1 62.57792007 38.36137373 12.82249705
14377 1 61.72068829 38.36137373 10.49113395
14378 1 63.43515186 38.36137373 8.15977085
14379 1 37.71819840 36.34235406 46.62726200
14380 1 40.28989375 36.34235406 46.62726200
14381 1 39.43266196 36.34235406 44.29589890
14382 1 42.00435731 36.34235406 44.29589890
14383 1 41.14712553 36.34235406 41.96453580
14384 1 43.71882087 36.34235406 41.96453580
14385 1 42.86158909 36.34235406 39.63317270
14386 1 45.43328444 36.34235406 39.63317270
14387 1 44.57605266 36.34235406 37.30180960
14388 1 47.14774800 36.34235406 37.30180960
14389 1 46.29051622 36.34235406 34.97044650
14390 1 48.86221156 36.34235406 34.97044650
14391 1 48.00497978 36.34235406 32.63908340
14392 1 50.57667513 36.34235406 32.63908340
14393 1 49.71944335 36.34235406 30.30772030
14394 1 52.29113869 36.34235406 30.30772030
14395 1 51.43390691 36.34235406 27.97635720
14396 1 54.00560226 36.34235406 27.97635720
14397 1 53.14837047 36.34235406 25.64499410
14398 1 55.72006582 36.34235406 25.64499410
14399 1 54.86283404 36.34235406 23.31363100
14400 1 57.43452938 36.34235406 23.31363100
14401 1 56.57729760 36.34235406 20.98226790
14402 1 59.14899295 36.34235406 20.98226790
14403 1 58.29176116 36.34235406 18.65090480
14404 1 60.86345651 36.34235406 18.65090480
14405 1 60.00622473 36.34235406 16.31954170
14406 1 62.57792007 36.34235406 16.31954170
14407 1 61.72068829 36.34235406 13.98817860
14408 1 63.43515186 36.34235406 11.65681550
14409 1 39.43266196 34.32333439 47.79294355
14410 1 42.00435731 34.32333439 47.79294355
14411 1 41.14712553 34.32333439 45.46158045
14412 1 43.71882087 34.32333439 45.46158045
14413 1 42.86158909 34.32333439 43.13021735
14414 1 45.43328444 34.32333439 43.13021735
14415 1 44.57605266 34.32333439 40.79885425
14416 1 47.14774800 34.32333439 40.79885425
14417 1 46.29051622 34.32333439 38.46749115
14418 1 48.86221156 34.32333439 38.46749115
14419 1 48.00497978 34.32333439 36.13612805
14420 1 50.57667513 34.32333439 36.13612805
14421 1 49.71944335 34.32333439 33.80476495
14422 1 52.29113869 34.32333439 33.80476495
14423 1 51.43390691 34.32333439 31.47340185
14424 1 54.00560226 34.32333439 31.47340185
14425 1 53.14837047 34.32333439 29.14203875
14426 1 55.72006582 34.32333439 29.14203875
14427 1 54.86283404 34.32333439 26.81067565
14428 1 57.43452938 34.32333439 26.81067565
14429 1 56.57729760 34.32333439 24.47931255
14430 1 59.14899295 34.32333439 24.47931255
14431 1 58.29176116 34.32333439 22.14794945
14432 1 60.86345651 34.32333439 22.14794945
14433 1 60.00622473 34.32333439 19.81658635
14434 1 62.57792007 34.32333439 19.81658635
14435 1 61.72068829 34.32333439 17.48522325
14436 1 63.43515186 34.32333439 15.15386015
14437 1 42.86158909 32.30431472 46.62726200
14438 1 45.43328444 32.30431472 46.62726200
14439 1 44.57605266 32.30431472 44.29589890
14440 1 47.14774800 32.30431472 44.29589890
14441 1 46.29051622 32.30431472 41.96453580
14442 1 48.86221156 32.30431472 41.96453580
14443 1 48.00497978 32.30431472 39.63317270
14444 1 50.57667513 32.30431472 39.63317270
14445 1 49.71944335 32.30431472 37.30180960
14446 1 52.29113869 32.30431472 37.30180960
14447 1 51.43390691 32.30431472 34.97044650
14448 1 54.00560226 32.30431472 34.97044650
14449 1 53.14837047 32.30431472 32.63908340
14450 1 55.72006582 32.30431472 32.63908340
14451 1 54.86283404 32.30431472 30.30772030
14452 1 57.43452938 32.30431472 30.30772030
14453 1 56.57729760 32.30431472 27.97635720
14454 1 59.14899295 32.30431472 27.97635720
14455 1 58.29176116 32.30431472 25.64499410
14456 1 60.86345651 32.30431472 25.64499410
14457 1 60.00622473 32.30431472 23.31363100
14458 1 62.57792007 32.30431472 23.31363100
14459 1 61.72068829 32.30431472 20.98226790
14460 1 63.43515186 32.30431472 18.65090480
14461 1 8.57231782 62.58960977 47.79294355
14462 1 11.14401316 62.58960977 47.79294355
14463 1 10.28678138 62.58960977 45.46158045
14464 1 12.85847673 62.58960977 45.46158045
14465 1 12.00124495 62.58960977 43.13021735
14466 1 14.57294029 62.58960977 43.13021735
14467 1 13.71570851 62.58960977 40.79885425
14468 1 16.28740385 62.58960977 40.79885425
14469 1 15.43017207 62.58960977 38.46749115
14470 1 18.00186742 62.58960977 38.46749115
14471 1 17.14463564 62.58960977 36.13612805
14472 1 19.71633098 62.58960977 36.13612805
14473 1 18.85909920 62.58960977 33.80476495
14474 1 21.43079455 62.58960977 33.80476495
14475 1 20.57356276 62.58960977 31.47340185
14476 1 23.14525811 62.58960977 31.47340185
14477 1 22.28802633 62.58960977 29.14203875
14478 1 24.85972167 62.58960977 29.14203875
14479 1 24.00248989 62.58960977 26.81067565
14480 1 26.57418524 62.58960977 26.81067565
14481 1 25.71695346 62.58960977 24.47931255
14482 1 28.28864880 62.58960977 24.47931255
14483 1 27.43141702 62.58960977 22.14794945
14484 1 30.00311236 62.58960977 22.14794945
14485 1 29.14588058 62.58960977 19.81658635
14486 1 31.71757593 62.58960977 19.81658635
14487 1 30.86034415 62.58960977 17.48522325
14488 1 33.43203949 62.58960977 17.48522325
14489 1 32.57480771 62.58960977 15.15386015
14490 1 35.14650306 62.58960977 15.15386015
14491 1 34.28927127 62.58960977 12.82249705
14492 1 36.86096662 62.58960977 12.82249705
14493 1 36.00373484 62.58960977 10.49113395
14494 1 38.57543018 62.58960977 10.49113395
14495 1 37.71819840 62.58960977 8.15977085
14496 1 40.28989375 62.58960977 8.15977085
14497 1 39.43266196 62.58960977 5.82840775
14498 1 42.00435731 62.58960977 5.82840775
14499 1 41.14712553 62.58960977 3.49704465
14500 1 43.71882087 62.58960977 3.49704465
14501 1 42.86158909 62.58960977 1.16568155
14502 1 45.43328444 62.58960977 1.16568155
14503 1 12.00124495 60.57059010 46.62726200
14504 1 14.57294029 60.57059010 46.62726200
14505 1 13.71570851 60.57059010 44.29589890
14506 1 16.28740385 60.57059010 44.29589890
14507 1 15.43017207 60.57059010 41.96453580
14508 1 18.00186742 60.57059010 41.96453580
14509 1 17.14463564 60.57059010 39.63317270
14510 1 19.71633098 60.57059010 39.63317270
14511 1 18.85909920 60.57059010 37.30180960
14512 1 21.43079455 60.57059010 37.30180960
14513 1 20.57356276 60.57059010 34.97044650
14514 1 23.14525811 60.57059010 34.97044650
14515 1 22.28802633 60.57059010 32.63908340
14516 1 24.85972167 60.57059010 32.63908340
14517 1 24.00248989 60.57059010 30.30772030
14518 1 26.57418524 60.57059010 30.30772030
14519 1 25.71695346 60.57059010 27.97635720
14520 1 28.28864880 60.57059010 27.97635720
14521 1 27.43141702 60.57059010 25.64499410
14522 1 30.00311236 60.57059010 25.64499410
14523 1 29.14588058 60.57059010 23.31363100
14524 1 31.71757593 60.57059010 23.31363100
14525 1 30.86034415 60.57059010 20.98226790
14526 1 33.43203949 60.57059010 20.98226790
14527 1 32.57480771 60.57059010 18.65090480
14528 1 35.14650306 60.57059010 18.65090480
14529 1 34.28927127 60.57059010 16.31954170
14530 1 36.86096662 60.57059010 16.31954170
14531 1 36.00373484 60.57059010 13.98817860
14532 1 38.57543018 60.57059010 13.98817860
14533 1 37.71819840 60.57059010 11.65681550
14534 1 40.28989375 60.57059010 11.65681550
14535 1 39.43266196 60.57059010 9.32545240
14536 1 42.00435731 60.57059010 9.32545240
14537 1 41.14712553 60.57059010 6.99408930
14538 1 43.71882087 60.57059010 6.99408930
14539 1 42.86158909 60.57059010 4.66272620
14540 1 45.43328444 60.57059010 4.66272620
14541 1 44.57605266 60.57059010 2.33136310
14542 1 47.14774800 60.57059010 2.33136310
14543 1 46.29051622 60.57059010 -0.00000000
14544 1 48.86221156 60.57059010 -0.00000000
14545 1 13.71570851 58.55157043 47.79294355
14546 1 16.28740385 58.55157043 47.79294355
14547 1 15.43017207 58.55157043 45.46158045
14548 1 18.00186742 58.55157043 45.46158045
14549 1 17.14463564 58.55157043 43.13021735
14550 1 19.71633098 58.55157043 43.13021735
14551 1 18.85909920 58.55157043 40.79885425
14552 1 21.43079455 58.55157043 40.79885425
14553 1 20.57356276 58.55157043 38.46749115
14554 1 23.14525811 58.55157043 38.46749115
14555 1 22.28802633 58.55157043 36.13612805
14556 1 24.85972167 58.55157043 36.13612805
14557 1 24.00248989 58.55157043 33.80476495
14558 1 26.57418524 58.55157043 33.80476495
14559 1 25.71695346 58.55157043 31.47340185
14560 1 28.28864880 58.55157043 31.47340185
14561 1 27.43141702 58.55157043 29.14203875
14562 1 30.00311236 58.55157043 29.14203875
14563 1 29.14588058 58.55157043 26.81067565
14564 1 31.71757593 58.55157043 26.81067565
14565 1 30.86034415 58.55157043 24.47931255
14566 1 33.43203949 58.55157043 24.47931255
14567 1 32.57480771 58.55157043 22.14794945
14568 1 35.14650306 58.55157043 22.14794945
14569 1 34.28927127 58.55157043 19.81658635
14570 1 36.86096662 58.55157043 19.81658635
14571 1 36.00373484 58.55157043 17.48522325
14572 1 38.57543018 58.55157043 17.48522325
14573 1 37.71819840 58.55157043 15.15386015
14574 1 40.28989375 58.55157043 15.15386015
14575 1 39.43266196 58.55157043 12.82249705
14576 1 42.00435731 58.55157043 12.82249705
14577 1 41.14712553 58.55157043 10.49113395
14578 1 43.71882087 58.55157043 10.49113395
14579 1 42.86158909 58.55157043 8.15977085
14580 1 45.43328444 58.55157043 8.15977085
14581 1 44.57605266 58.55157043 5.82840775
14582 1 47.14774800 58.55157043 5.82840775
14583 1 46.29051622 58.55157043 3.49704465
14584 1 48.86221156 58.55157043 3.49704465
14585 1 48.00497978 58.55157043 1.16568155
14586 1 50.57667513 58.55157043 1.16568155
14587 1 17.14463564 56.53255076 46.62726200
14588 1 19.71633098 56.53255076 46.62726200
14589 1 18.85909920 56.53255076 44.29589890
14590 1 21.43079455 56.53255076 44.29589890
14591 1 20.57356276 56.53255076 41.96453580
14592 1 23.14525811 56.53255076 41.96453580
14593 1 22.28802633 56.53255076 39.63317270
14594 1 24.85972167 56.53255076 39.63317270
14595 1 24.00248989 56.53255076 37.30180960
14596 1 26.57418524 56.53255076 37.30180960
14597 1 25.71695346 56.53255076 34.97044650
14598 1 28.28864880 56.53255076 34.97044650
14599 1 27.43141702 56.53255076 32.63908340
14600 1 30.00311236 56.53255076 32.63908340
14601 1 29.14588058 56.53255076 30.30772030
14602 1 31.71757593 56.53255076 30.30772030
14603 1 30.86034415 56.53255076 27.97635720
14604 1 33.43203949 56.53255076 27.97635720
14605 1 32.57480771 56.53255076 25.64499410
14606 1 35.14650306 56.53255076 25.64499410
14607 1 34.28927127 56.53255076 23.31363100
14608 1 36.86096662 56.53255076 23.31363100
14609 1 36.00373484 56.53255076 20.98226790
14610 1 38.57543018 56.53255076 20.98226790
14611 1 37.71819840 56.53255076 18.65090480
14612 1 40.28989375 56.53255076 18.65090480
14613 1 39.43266196 56.53255076 16.31954170
14614 1 42.00435731 56.53255076 16.31954170
14615 1 41.14712553 56.53255076 13.98817860
14616 1 43.71882087 56.53255076 13.98817860
14617 1 42.86158909 56.53255076 11.65681550
14618 1 45.43328444 56.53255076 11.65681550
14619 1 44.57605266 56.53255076 9.32545240
14620 1 47.14774800 56.53255076 9.32545240
14621 1 46.29051622 56.53255076 6.99408930
14622 1 48.86221156 56.53255076 6.99408930
14623 1 48.00497978 56.53255076 4.66272620
14624 1 50.57667513 56.53255076 4.66272620
14625 1 49.71944335 56.53255076 2.33136310
14626 1 52.29113869 56.53255076 2.33136310
14627 1 51.43390691 56.53255076 0.00000000
14628 1 54.00560226 56.53255076 -0.00000000
14629 1 18.85909920 54.51353109 47.79294355
14630 1 21.43079455 54.51353109 47.79294355
14631 1 20.57356276 54.51353109 45.46158045
14632 1 23.14525811 54.51353109 45.46158045
14633 1 22.28802633 54.51353109 43.13021735
14634 1 24.85972167 54.51353109 43.13021735
14635 1 24.00248989 54.51353109 40.79885425
14636 1 26.57418524 54.51353109 40.79885425
14637 1 25.71695346 54.51353109 38.46749115
14638 1 28.28864880 54.51353109 38.46749115
14639 1 27.43141702 54.51353109 36.13612805
14640 1 30.00311236 54.51353109 36.13612805
14641 1 29.14588058 54.51353109 33.80476495
14642 1 31.71757593 54.51353109 33.80476495
14643 1 30.86034415 54.51353109 31.47340185
14644 1 33.43203949 54.51353109 31.47340185
14645 1 32.57480771 54.51353109 29.14203875
14646 1 35.14650306 54.51353109 29.14203875
14647 1 34.28927127 54.51353109 26.81067565
14648 1 36.86096662 54.51353109 26.81067565
14649 1 36.00373484 54.51353109 24.47931255
14650 1 38.57543018 54.51353109 24.47931255
14651 1 37.71819840 54.51353109 22.14794945
14652 1 40.28989375 54.51353109 22.14794945
14653 1 39.43266196 54.51353109 19.81658635
14654 1 42.00435731 54.51353109 19.81658635
14655 1 41.14712553 54.51353109 17.48522325
14656 1 43.71882087 54.51353109 17.48522325
14657 1 42.86158909 54.51353109 15.15386015
14658 1 45.43328444 54.51353109 15.15386015
14659 1 44.57605266 54.51353109 12.82249705
14660 1 47.14774800 54.51353109 12.82249705
14661 1 46.29051622 54.51353109 10.49113395
14662 1 48.86221156 54.51353109 10.49113395
14663 1 48.00497978 54.51353109 8.15977085
14664 1 50.57667513 54.51353109 8.15977085
14665 1 49.71944335 54.51353109 5.82840775
14666 1 52.29113869 54.51353109 5.82840775
14667 1 51.43390691 54.51353109 3.49704465
14668 1 54.00560226 54.51353109 3.49704465
14669 1 53.14837047 54.51353109 1.16568155
14670 1 55.72006582 54.51353109 1.16568155
14671 1 22.28802633 52.49451142 46.62726200
14672 1 24.85972167 52.49451142 46.62726200
14673 1 24.00248989 52.49451142 44.29589890
14674 1 26.57418524 52.49451142 44.29589890
14675 1 25.71695346 52.49451142 41.96453580
14676 1 28.28864880 52.49451142 41.96453580
14677 1 27.43141702 52.49451142 39.63317270
14678 1 30.00311236 52.49451142 39.63317270
14679 1 29.14588058 52.49451142 37.30180960
14680 1 31.71757593 52.49451142 37.30180960
14681 1 30.86034415 52.49451142 34.97044650
14682 1 33.43203949 52.49451142 34.97044650
14683 1 32.57480771 52.49451142 32.63908340
14684 1 35.14650306 52.49451142 32.63908340
14685 1 34.28927127 52.49451142 30.30772030
14686 1 36.86096662 52.49451142 30.30772030
14687 1 36.00373484 52.49451142 27.97635720
14688 1 38.57543018 52.49451142 27.97635720
14689 1 37.71819840 52.49451142 25.64499410
14690 1 40.28989375 52.49451142 25.64499410
14691 1 39.43266196 52.49451142 23.31363100
14692 1 42.00435731 52.49451142 23.31363100
14693 1 41.14712553 52.49451142 20.98226790
14694 1 43.71882087 52.49451142 20.98226790
14695 1 42.86158909 52.49451142 18.65090480
14696 1 45.43328444 52.49451142 18.65090480
14697 1 44.57605266 52.49451142 16.31954170
14698 1 47.14774800 52.49451142 16.31954170
14699 1 46.29051622 52.49451142 13.98817860
14700 1 48.86221156 52.49451142 13.98817860
14701 1 48.00497978 52.49451142 11.65681550
14702 1 50.57667513 52.49451142 11.65681550
14703 1 49.71944335 52.49451142 9.32545240
14704 1 52.29113869 52.49451142 9.32545240
14705 1 51.43390691 52.49451142 6.99408930
14706 1 54.00560226 52.49451142 6.99408930
14707 1 53.14837047 52.49451142 4.66272620
14708 1 55.72006582 52.49451142 4.66272620
14709 1 54.86283404 52.49451142 2.33136310
14710 1 57.43452938 52.49451142 2.33136310
14711 1 56.57729760 52.49451142 -0.00000000
14712 1 59.14899295 52.49451142 0.00000000
14713 1 24.00248989 50.47549175 47.79294355
14714 1 26.57418524 50.47549175 47.79294355
14715 1 25.71695346 50.47549175 45.46158045
14716 1 28.28864880 50.47549175 45.46158045
14717 1 27.43141702 50.47549175 43.13021735
14718 1 30.00311236 50.47549175 43.13021735
14719 1 29.14588058 50.47549175 40.79885425
14720 1 31.71757593 50.47549175 40.79885425
14721 1 30.86034415 50.47549175 38.46749115
14722 1 33.43203949 50.47549175 38.46749115
14723 1 32.57480771 50.47549175 36.13612805
14724 1 35.14650306 50.47549175 36.13612805
14725 1 34.28927127 50.47549175 33.80476495
14726 1 36.86096662 50.47549175 33.80476495
14727 1 36.00373484 50.47549175 31.47340185
14728 1 38.57543018 50.47549175 31.47340185
14729 1 37.71819840 50.47549175 29.14203875
14730 1 40.28989375 50.47549175 29.14203875
14731 1 39.43266196 50.47549175 26.81067565
14732 1 42.00435731 50.47549175 26.81067565
14733 1 41.14712553 50.47549175 24.47931255
14734 1 43.71882087 50.47549175 24.47931255
14735 1 42.86158909 50.47549175 22.14794945
14736 1 45.43328444 50.47549175 22.14794945
14737 1 44.57605266 50.47549175 19.81658635
14738 1 47.14774800 50.47549175 19.81658635
14739 1 46.29051622 50.47549175 17.48522325
14740 1 48.86221156 50.47549175 17.48522325
14741 1 48.00497978 50.47549175 15.15386015
14742 1 50.57667513 50.47549175 15.15386015
14743 1 49.71944335 50.47549175 12.82249705
14744 1 52.29113869 50.47549175 12.82249705
14745 1 51.43390691 50.47549175 10.49113395
14746 1 54.00560226 50.47549175 10.49113395
14747 1 53.14837047 50.47549175 8.15977085
14748 1 55.72006582 50.47549175 8.15977085
14749 1 54.86283404 50.47549175 5.82840775
14750 1 57.43452938 50.47549175 5.82840775
14751 1 56.57729760 50.47549175 3.49704465
14752 1 59.14899295 50.47549175 3.49704465
14753 1 58.29176116 50.47549175 1.16568155
14754 1 60.86345651 50.47549175 1.16568155
14755 1 27.43141702 48.45647208 46.62726200
14756 1 30.00311236 48.45647208 46.62726200
14757 1 29.14588058 48.45647208 44.29589890
14758 1 31.71757593 48.45647208 44.29589890
14759 1 30.86034415 48.45647208 41.96453580
14760 1 33.43203949 48.45647208 41.96453580
14761 1 32.57480771 48.45647208 39.63317270
14762 1 35.14650306 48.45647208 39.63317270
14763 1 34.28927127 48.45647208 37.30180960
14764 1 36.86096662 48.45647208 37.30180960
14765 1 36.00373484 48.45647208 34.97044650
14766 1 38.57543018 48.45647208 34.97044650
14767 1 37.71819840 48.45647208 32.63908340
14768 1 40.28989375 48.45647208 32.63908340
14769 1 39.43266196 48.45647208 30.30772030
14770 1 42.00435731 48.45647208 30.30772030
14771 1 41.14712553 48.45647208 27.97635720
14772 1 43.71882087 48.45647208 27.97635720
14773 1 42.86158909 48.45647208 25.64499410
14774 1 45.43328444 48.45647208 25.64499410
14775 1 44.57605266 48.45647208 23.31363100
14776 1 47.14774800 48.45647208 23.31363100
14777 1 46.29051622 48.45647208 20.98226790
14778 1 48.86221156 48.45647208 20.98226790
14779 1 48.00497978 48.45647208 18.65090480
14780 1 50.57667513 48.45647208 18.65090480
14781 1 49.71944335 48.45647208 16.31954170
14782 1 52.29113869 48.45647208 16.31954170
14783 1 51.43390691 48.45647208 13.98817860
14784 1 54.00560226 48.45647208 13.98817860
14785 1 53.14837047 48.45647208 11.65681550
14786 1 55.72006582 48.45647208 11.65681550
14787 1 54.86283404 48.45647208 9.32545240
14788 1 57.43452938 48.45647208 9.32545240
14789 1 56.57729760 48.45647208 6.99408930
14790 1 59.14899295 48.45647208 6.99408930
14791 1 58.29176116 48.45647208 4.66272620
14792 1 60.86345651 48.45647208 4.66272620
14793 1 60.00622473 48.45647208 2.33136310
14794 1 62.57792007 48.45647208 2.33136310
14795 1 61.72068829 48.45647208 0.00000000
14796 1 29.14588058 46.43745241 47.79294355
14797 1 31.71757593 46.43745241 47.79294355
14798 1 30.86034415 46.43745241 45.46158045
14799 1 33.43203949 46.43745241 45.46158045
14800 1 32.57480771 46.43745241 43.13021735
14801 1 35.14650306 46.43745241 43.13021735
14802 1 34.28927127 46.43745241 40.79885425
14803 1 36.86096662 46.43745241 40.79885425
14804 1 36.00373484 46.43745241 38.46749115
14805 1 38.57543018 46.43745241 38.46749115
14806 1 37.71819840 46.43745241 36.13612805
14807 1 40.28989375 46.43745241 36.13612805
14808 1 39.43266196 46.43745241 33.80476495
14809 1 42.00435731 46.43745241 33.80476495
14810 1 41.14712553 46.43745241 31.47340185
14811 1 43.71882087 46.43745241 31.47340185
14812 1 42.86158909 46.43745241 29.14203875
14813 1 45.43328444 46.43745241 29.14203875
14814 1 44.57605266 46.43745241 26.81067565
14815 1 47.14774800 46.43745241 26.81067565
14816 1 46.29051622 46.43745241 24.47931255
14817 1 48.86221156 46.43745241 24.47931255
14818 1 48.00497978 46.43745241 22.14794945
14819 1 50.57667513 46.43745241 22.14794945
14820 1 49.71944335 46.43745241 19.81658635
14821 1 52.29113869 46.43745241 19.81658635
14822 1 51.43390691 46.43745241 17.48522325
14823 1 54.00560226 46.43745241 17.48522325
14824 1 53.14837047 46.43745241 15.15386015
14825 1 55.72006582 46.43745241 15.15386015
14826 1 54.86283404 46.43745241 12.82249705
14827 1 57.43452938 46.43745241 12.82249705
14828 1 56.57729760 46.43745241 10.49113395
14829 1 59.14899295 46.43745241 10.49113395
14830 1 58.29176116 46.43745241 8.15977085
14831 1 60.86345651 46.43745241 8.15977085
14832 1 60.00622473 46.43745241 5.82840775
14833 1 62.57792007 46.43745241 5.82840775
14834 1 61.72068829 46.43745241 3.49704465
14835 1 63.43515186 46.43745241 1.16568155
14836 1 32.57480771 44.41843274 46.62726200
14837 1 35.14650306 44.41843274 46.62726200
14838 1 34.28927127 44.41843274 44.29589890
14839 1 36.86096662 44.41843274 44.29589890
14840 1 36.00373484 44.41843274 41.96453580
14841 1 38.57543018 44.41843274 41.96453580
14842 1 37.71819840 44.41843274 39.63317270
14843 1 40.28989375 44.41843274 39.63317270
14844 1 39.43266196 44.41843274 37.30180960
14845 1 42.00435731 44.41843274 37.30180960
14846 1 41.14712553 44.41843274 34.97044650
14847 1 43.71882087 44.41843274 34.97044650
14848 1 42.86158909 44.41843274 32.63908340
14849 1 45.43328444 44.41843274 32.63908340
14850 1 44.57605266 44.41843274 30.30772030
14851 1 47.14774800 44.41843274 30.30772030
14852 1 46.29051622 44.41843274 27.97635720
14853 1 48.86221156 44.41843274 27.97635720
14854 1 48.00497978 44.41843274 25.64499410
14855 1 50.57667513 44.41843274 25.64499410
14856 1 49.71944335 44.41843274 23.31363100
14857 1 52.29113869 44.41843274 23.31363100
14858 1 51.43390691 44.41843274 20.98226790
14859 1 54.00560226 44.41843274 20.98226790
14860 1 53.14837047 44.41843274 18.65090480
14861 1 55.72006582 44.41843274 18.65090480
14862 1 54.86283404 44.41843274 16.31954170
14863 1 57.43452938 44.41843274 16.31954170
14864 1 56.57729760 44.41843274 13.98817860
14865 1 59.14899295 44.41843274 13.98817860
14866 1 58.29176116 44.41843274 11.65681550
14867 1 60.86345651 44.41843274 11.65681550
14868 1 60.00622473 44.41843274 9.32545240
14869 1 62.57792007 44.41843274 9.32545240
14870 1 61.72068829 44.41843274 6.99408930
14871 1 63.43515186 44.41843274 4.66272620
14872 1 34.28927127 42.39941307 47.79294355
14873 1 36.86096662 42.39941307 47.79294355
14874 1 36.00373484 42.39941307 45.46158045
14875 1 38.57543018 42.39941307 45.46158045
14876 1 37.71819840 42.39941307 43.13021735
14877 1 40.28989375 42.39941307 43.13021735
14878 1 39.43266196 42.39941307 40.79885425
14879 1 42.00435731 42.39941307 40.79885425
14880 1 41.14712553 42.39941307 38.46749115
14881 1 43.71882087 42.39941307 38.46749115
14882 1 42.86158909 42.39941307 36.13612805
14883 1 45.43328444 42.39941307 36.13612805
14884 1 44.57605266 42.39941307 33.80476495
14885 1 47.14774800 42.39941307 33.80476495
14886 1 46.29051622 42.39941307 31.47340185
14887 1 48.86221156 42.39941307 31.47340185
14888 1 48.00497978 42.39941307 29.14203875
14889 1 50.57667513 42.39941307 29.14203875
14890 1 49.71944335 42.39941307 26.81067565
14891 1 52.29113869 42.39941307 26.81067565
14892 1 51.43390691 42.39941307 24.47931255
14893 1 54.00560226 42.39941307 24.47931255
14894 1 53.14837047 42.39941307 22.14794945
14895 1 55.72006582 42.39941307 22.14794945
14896 1 54.86283404 42.39941307 19.81658635
14897 1 57.43452938 42.39941307 19.81658635
14898 1 56.57729760 42.39941307 17.48522325
14899 1 59.14899295 42.39941307 17.48522325
14900 1 58.29176116 42.39941307 15.15386015
14901 1 60.86345651 42.39941307 15.15386015
14902 1 60.00622473 42.39941307 12.82249705
14903 1 62.57792007 42.39941307 12.82249705
14904 1 61.72068829 42.39941307 10.49113395
14905 1 63.43515186 42.39941307 8.15977085
14906 1 37.71819840 40.38039340 46.62726200
14907 1 40.28989375 40.38039340 46.62726200
14908 1 39.43266196 40.38039340 44.29589890
14909 1 42.00435731 40.38039340 44.29589890
14910 1 41.14712553 40.38039340 41.96453580
14911 1 43.71882087 40.38039340 41.96453580
14912 1 42.86158909 40.38039340 39.63317270
14913 1 45.43328444 40.38039340 39.63317270
14914 1 44.57605266 40.38039340 37.30180960
14915 1 47.14774800 40.38039340 37.30180960
14916 1 46.29051622 40.38039340 34.97044650
14917 1 48.86221156 40.38039340 34.97044650
14918 1 48.00497978 40.38039340 32.63908340
14919 1 50.57667513 40.38039340 32.63908340
14920 1 49.71944335 40.38039340 30.30772030
14921 1 52.29113869 40.38039340 30.30772030
14922 1 51.43390691 40.38039340 27.97635720
14923 1 54.00560226 40.38039340 27.97635720
14924 1 53.14837047 40.38039340 25.64499410
14925 1 55.72006582 40.38039340 25.64499410
14926 1 54.86283404 40.38039340 23.31363100
14927 1 57.43452938 40.38039340 23.31363100
14928 1 56.57729760 40.38039340 20.98226790
14929 1 59.14899295 40.38039340 20.98226790
14930 1 58.29176116 40.38039340 18.65090480
14931 1 60.86345651 40.38039340 18.65090480
14932 1 60.00622473 40.38039340 16.31954170
14933 1 62.57792007 40.38039340 16.31954170
14934 1 61.72068829 40.38039340 13.98817860
14935 1 63.43515186 40.38039340 11.65681550
14936 1 39.43266196 38.36137373 47.79294355
14937 1 42.00435731 38.36137373 47.79294355
14938 1 41.14712553 38.36137373 45.46158045
14939 1 43.71882087 38.36137373 45.46158045
14940 1 42.86158909 38.36137373 43.13021735
14941 1 45.43328444 38.36137373 43.13021735
14942 1 44.57605266 38.36137373 40.79885425
14943 1 47.14774800 38.36137373 40.79885425
14944 1 46.29051622 38.36137373 38.46749115
14945 1 48.86221156 38.36137373 38.46749115
14946 1 48.00497978 38.36137373 36.13612805
14947 1 50.57667513 38.36137373 36.13612805
14948 1 49.71944335 38.36137373 33.80476495
14949 1 52.29113869 38.36137373 33.80476495
14950 1 51.43390691 38.36137373 31.47340185
14951 1 54.00560226 38.36137373 31.47340185
14952 1 53.14837047 38.36137373 29.14203875
14953 1 55.72006582 38.36137373 29.14203875
14954 1 54.86283404 38.36137373 26.81067565
14955 1 57.43452938 38.36137373 26.81067565
14956 1 56.57729760 38.36137373 24.47931255
14957 1 59.14899295 38.36137373 24.47931255
14958 1 58.29176116 38.36137373 22.14794945
14959 1 60.86345651 38.36137373 22.14794945
14960 1 60.00622473 38.36137373 19.81658635
14961 1 62.57792007 38.36137373 19.81658635
14962 1 61.72068829 38.36137373 17.48522325
14963 1 63.43515186 38.36137373 15.15386015
14964 1 42.86158909 36.34235406 46.62726200
14965 1 45.43328444 36.34235406 46.62726200
14966 1 44.57605266 36.34235406 44.29589890
14967 1 47.14774800 36.34235406 44.29589890
14968 1 46.29051622 36.34235406 41.96453580
14969 1 48.86221156 36.34235406 41.96453580
14970 1 48.00497978 36.34235406 39.63317270
14971 1 50.57667513 36.34235406 39.63317270
14972 1 49.71944335 36.34235406 37.30180960
14973 1 52.29113869 36.34235406 37.30180960
14974 1 51.43390691 36.34235406 34.97044650
14975 1 54.00560226 36.34235406 34.97044650
14976 1 53.14837047 36.34235406 32.63908340
14977 1 55.72006582 36.34235406 32.63908340
14978 1 54.86283404 36.34235406 30.30772030
14979 1 57.43452938 36.34235406 30.30772030
14980 1 56.57729760 36.34235406 27.97635720
14981 1 59.14899295 36.34235406 27.97635720
14982 1 58.29176116 36.34235406 25.64499410
14983 1 60.86345651 36.34235406 25.64499410
14984 1 60.00622473 36.34235406 23.31363100
14985 1 62.57792007 36.34235406 23.31363100
14986 1 61.72068829 36.34235406 20.98226790
14987 1 63.43515186 36.34235406 18.65090480
14988 1 44.57605266 34.32333439 47.79294355
14989 1 47.14774800 34.32333439 47.79294355
14990 1 46.29051622 34.32333439 45.46158045
14991 1 48.86221156 34.32333439 45.46158045
14992 1 48.00497978 34.32333439 43.13021735
14993 1 50.57667513 34.32333439 43.13021735
14994 1 49.71944335 34.32333439 40.79885425
14995 1 52.29113869 34.32333439 40.79885425
14996 1 51.43390691 34.32333439 38.46749115
14997 1 54.00560226 34.32333439 38.46749115
14998 1 53.14837047 34.32333439 36.13612805
14999 1 55.72006582 34.32333439 36.13612805
15000 1 54.86283404 34.32333439 33.80476495
15001 1 57.43452938 34.32333439 33.80476495
15002 1 56.57729760 34.32333439 31.47340185
15003 1 59.14899295 34.32333439 31.47340185
15004 1 58.29176116 34.32333439 29.14203875
15005 1 60.86345651 34.32333439 29.14203875
15006 1 60.00622473 34.32333439 26.81067565
15007 1 62.57792007 34.32333439 26.81067565
15008 1 61.72068829 34.32333439 24.47931255
15009 1 63.43515186 34.32333439 22.14794945
15010 1 48.00497978 32.30431472 46.62726200
15011 1 50.57667513 32.30431472 46.62726200
15012 1 49.71944335 32.30431472 44.29589890
15013 1 52.29113869 32.30431472 44.29589890
15014 1 51.43390691 32.30431472 41.96453580
15015 1 54.00560226 32.30431472 41.96453580
15016 1 53.14837047 32.30431472 39.63317270
15017 1 55.72006582 32.30431472 39.63317270
15018 1 54.86283404 32.30431472 37.30180960
15019 1 57.43452938 32.30431472 37.30180960
15020 1 56.57729760 32.30431472 34.97044650
15021 1 59.14899295 32.30431472 34.97044650
15022 1 58.29176116 32.30431472 32.63908340
15023 1 60.86345651 32.30431472 32.63908340
15024 1 60.00622473 32.30431472 30.30772030
15025 1 62.57792007 32.30431472 30.30772030
15026 1 61.72068829 32.30431472 27.97635720
15027 1 63.43515186 32.30431472 25.64499410
15028 1 13.71570851 62.58960977 47.79294355
15029 1 16.28740385 62.58960977 47.79294355
15030 1 15.43017207 62.58960977 45.46158045
15031 1 18.00186742 62.58960977 45.46158045
15032 1 17.14463564 62.58960977 43.13021735
15033 1 19.71633098 62.58960977 43.13021735
15034 1 18.85909920 62.58960977 40.79885425
15035 1 21.43079455 62.58960977 40.79885425
15036 1 20.57356276 62.58960977 38.46749115
15037 1 23.14525811 62.58960977 38.46749115
15038 1 22.28802633 62.58960977 36.13612805
15039 1 24.85972167 62.58960977 36.13612805
15040 1 24.00248989 62.58960977 33.80476495
15041 1 26.57418524 62.58960977 33.80476495
15042 1 25.71695346 62.58960977 31.47340185
15043 1 28.28864880 62.58960977 31.47340185
15044 1 27.43141702 62.58960977 29.14203875
15045 1 30.00311236 62.58960977 29.14203875
15046 1 29.14588058 62.58960977 26.81067565
15047 1 31.71757593 62.58960977 26.81067565
15048 1 30.86034415 62.58960977 24.47931255
15049 1 33.43203949 62.58960977 24.47931255
15050 1 32.57480771 62.58960977 22.14794945
15051 1 35.14650306 62.58960977 22.14794945
15052 1 34.28927127 62.58960977 19.81658635
15053 1 36.86096662 62.58960977 19.81658635
15054 1 36.00373484 62.58960977 17.48522325
15055 1 38.57543018 62.58960977 17.48522325
15056 1 37.71819840 62.58960977 15.15386015
15057 1 40.28989375 62.58960977 15.15386015
15058 1 39.43266196 62.58960977 12.82249705
15059 1 42.00435731 62.58960977 12.82249705
15060 1 41.14712553 62.58960977 10.49113395
15061 1 43.71882087 62.58960977 10.49113395
15062 1 42.86158909 62.58960977 8.15977085
15063 1 45.43328444 62.58960977 8.15977085
15064 1 44.57605266 62.58960977 5.82840775
15065 1 47.14774800 62.58960977 5.82840775
15066 1 46.29051622 62.58960977 3.49704465
15067 1 48.86221156 62.58960977 3.49704465
15068 1 48.00497978 62.58960977 1.16568155
15069 1 50.57667513 62.58960977 1.16568155
15070 1 17.14463564 60.57059010 46.62726200
15071 1 19.71633098 60.57059010 46.62726200
15072 1 18.85909920 60.57059010 44.29589890
15073 1 21.43079455 60.57059010 44.29589890
15074 1 20.57356276 60.57059010 41.96453580
15075 1 23.14525811 60.57059010 41.96453580
15076 1 22.28802633 60.57059010 39.63317270
15077 1 24.85972167 60.57059010 39.63317270
15078 1 24.00248989 60.57059010 37.30180960
15079 1 26.57418524 60.57059010 37.30180960
15080 1 25.71695346 60.57059010 34.97044650
15081 1 28.28864880 60.57059010 34.97044650
15082 1 27.43141702 60.57059010 32.63908340
15083 1 30.00311236 60.57059010 32.63908340
15084 1 29.14588058 60.57059010 30.30772030
15085 1 31.71757593 60.57059010 30.30772030
15086 1 30.86034415 60.57059010 27.97635720
15087 1 33.43203949 60.57059010 27.97635720
15088 1 32.57480771 60.57059010 25.64499410
15089 1 35.14650306 60.57059010 25.64499410
15090 1 34.28927127 60.57059010 23.31363100
15091 1 36.86096662 60.57059010 23.31363100
15092 1 36.00373484 60.57059010 20.98226790
15093 1 38.57543018 60.57059010 20.98226790
15094 1 37.71819840 60.57059010 18.65090480
15095 1 40.28989375 60.57059010 18.65090480
15096 1 39.43266196 60.57059010 16.31954170
15097 1 42.00435731 60.57059010 16.31954170
15098 1 41.14712553 60.57059010 13.98817860
15099 1 43.71882087 60.57059010 13.98817860
15100 1 42.86158909 60.57059010 11.65681550
15101 1 45.43328444 60.57059010 11.65681550
15102 1 44.57605266 60.57059010 9.32545240
15103 1 47.14774800 60.57059010 9.32545240
15104 1 46.29051622 60.57059010 6.99408930
15105 1 48.86221156 60.57059010 6.99408930
15106 1 48.00497978 60.57059010 4.66272620
15107 1 50.57667513 60.57059010 4.66272620
15108 1 49.71944335 60.57059010 2.33136310
15109 1 52.29113869 60.57059010 2.33136310
15110 1 51.43390691 60.57059010 0.00000000
15111 1 54.00560226 60.57059010 -0.00000000
15112 1 18.85909920 58.55157043 47.79294355
15113 1 21.43079455 58.55157043 47.79294355
15114 1 20.57356276 58.55157043 45.46158045
15115 1 23.14525811 58.55157043 45.46158045
15116 1 22.28802633 58.55157043 43.13021735
15117 1 24.85972167 58.55157043 43.13021735
15118 1 24.00248989 58.55157043 40.79885425
15119 1 26.57418524 58.55157043 40.79885425
15120 1 25.71695346 58.55157043 38.46749115
15121 1 28.28864880 58.55157043 38.46749115
15122 1 27.43141702 58.55157043 36.13612805
15123 1 30.00311236 58.55157043 36.13612805
15124 1 29.14588058 58.55157043 33.80476495
15125 1 31.71757593 58.55157043 33.80476495
15126 1 30.86034415 58.55157043 31.47340185
15127 1 33.43203949 58.55157043 31.47340185
15128 1 32.57480771 58.55157043 29.14203875
15129 1 35.14650306 58.55157043 29.14203875
15130 1 34.28927127 58.55157043 26.81067565
15131 1 36.86096662 58.55157043 26.81067565
15132 1 36.00373484 58.55157043 24.47931255
15133 1 38.57543018 58.55157043 24.47931255
15134 1 37.71819840 58.55157043 22.14794945
15135 1 40.28989375 58.55157043 22.14794945
15136 1 39.43266196 58.55157043 19.81658635
15137 1 42.00435731 58.55157043 19.81658635
15138 1 41.14712553 58.55157043 17.48522325
15139 1 43.71882087 58.55157043 17.48522325
15140 1 42.86158909 58.55157043 15.15386015
15141 1 45.43328444 58.55157043 15.15386015
15142 1 44.57605266 58.55157043 12.82249705
15143 1 47.14774800 58.55157043 12.82249705
15144 1 46.29051622 58.55157043 10.49113395
15145 1 48.86221156 58.55157043 10.49113395
15146 1 48.00497978 58.55157043 8.15977085
15147 1 50.57667513 58.55157043 8.15977085
15148 1 49.71944335 58.55157043 5.82840775
15149 1 52.29113869 58.55157043 5.82840775
15150 1 51.43390691 58.55157043 3.49704465
15151 1 54.00560226 58.55157043 3.49704465
15152 1 53.14837047 58.55157043 1.16568155
15153 1 55.72006582 58.55157043 1.16568155
15154 1 22.28802633 56.53255076 46.62726200
15155 1 24.85972167 56.53255076 46.62726200
15156 1 24.00248989 56.53255076 44.29589890
15157 1 26.57418524 56.53255076 44.29589890
15158 1 25.71695346 56.53255076 41.96453580
15159 1 28.28864880 56.53255076 41.96453580
15160 1 27.43141702 56.53255076 39.63317270
15161 1 30.00311236 56.53255076 39.63317270
15162 1 29.14588058 56.53255076 37.30180960
15163 1 31.71757593 56.53255076 37.30180960
15164 1 30.86034415 56.53255076 34.97044650
15165 1 33.43203949 56.53255076 34.97044650
15166 1 32.57480771 56.53255076 32.63908340
15167 1 35.14650306 56.53255076 32.63908340
15168 1 34.28927127 56.53255076 30.30772030
15169 1 36.86096662 56.53255076 30.30772030
15170 1 36.00373484 56.53255076 27.97635720
15171 1 38.57543018 56.53255076 27.97635720
15172 1 37.71819840 56.53255076 25.64499410
15173 1 40.28989375 56.53255076 25.64499410
15174 1 39.43266196 56.53255076 23.31363100
15175 1 42.00435731 56.53255076 23.31363100
15176 1 41.14712553 56.53255076 20.98226790
15177 1 43.71882087 56.53255076 20.98226790
15178 1 42.86158909 56.53255076 18.65090480
15179 1 45.43328444 56.53255076 18.65090480
15180 1 44.57605266 56.53255076 16.31954170
15181 1 47.14774800 56.53255076 16.31954170
15182 1 46.29051622 56.53255076 13.98817860
15183 1 48.86221156 56.53255076 13.98817860
15184 1 48.00497978 56.53255076 11.65681550
15185 1 50.57667513 56.53255076 11.65681550
15186 1 49.71944335 56.53255076 9.32545240
15187 1 52.29113869 56.53255076 9.32545240
15188 1 51.43390691 56.53255076 6.99408930
15189 1 54.00560226 56.53255076 6.99408930
15190 1 53.14837047 56.53255076 4.66272620
15191 1 55.72006582 56.53255076 4.66272620
15192 1 54.86283404 56.53255076 2.33136310
15193 1 57.43452938 56.53255076 2.33136310
15194 1 56.57729760 56.53255076 -0.00000000
15195 1 59.14899295 56.53255076 -0.00000000
15196 1 24.00248989 54.51353109 47.79294355
15197 1 26.57418524 54.51353109 47.79294355
15198 1 25.71695346 54.51353109 45.46158045
15199 1 28.28864880 54.51353109 45.46158045
15200 1 27.43141702 54.51353109 43.13021735
15201 1 30.00311236 54.51353109 43.13021735
15202 1 29.14588058 54.51353109 40.79885425
15203 1 31.71757593 54.51353109 40.79885425
15204 1 30.86034415 54.51353109 38.46749115
15205 1 33.43203949 54.51353109 38.46749115
15206 1 32.57480771 54.51353109 36.13612805
15207 1 35.14650306 54.51353109 36.13612805
15208 1 34.28927127 54.51353109 33.80476495
15209 1 36.86096662 54.51353109 33.80476495
15210 1 36.00373484 54.51353109 31.47340185
15211 1 38.57543018 54.51353109 31.47340185
15212 1 37.71819840 54.51353109 29.14203875
15213 1 40.28989375 54.51353109 29.14203875
15214 1 39.43266196 54.51353109 26.81067565
15215 1 42.00435731 54.51353109 26.81067565
15216 1 41.14712553 54.51353109 24.47931255
15217 1 43.71882087 54.51353109 24.47931255
15218 1 42.86158909 54.51353109 22.14794945
15219 1 45.43328444 54.51353109 22.14794945
15220 1 44.57605266 54.51353109 19.81658635
15221 1 47.14774800 54.51353109 19.81658635
15222 1 46.29051622 54.51353109 17.48522325
15223 1 48.86221156 54.51353109 17.48522325
15224 1 48.00497978 54.51353109 15.15386015
15225 1 50.57667513 54.51353109 15.15386015
15226 1 49.71944335 54.51353109 12.82249705
15227 1 52.29113869 54.51353109 12.82249705
15228 1 51.43390691 54.51353109 10.49113395
15229 1 54.00560226 54.51353109 10.49113395
15230 1 53.14837047 54.51353109 8.15977085
15231 1 55.72006582 54.51353109 8.15977085
15232 1 54.86283404 54.51353109 5.82840775
15233 1 57.43452938 54.51353109 5.82840775
15234 1 56.57729760 54.51353109 3.49704465
15235 1 59.14899295 54.51353109 3.49704465
15236 1 58.29176116 54.51353109 1.16568155
15237 1 60.86345651 54.51353109 1.16568155
15238 1 27.43141702 52.49451142 46.62726200
15239 1 30.00311236 52.49451142 46.62726200
15240 1 29.14588058 52.49451142 44.29589890
15241 1 31.71757593 52.49451142 44.29589890
15242 1 30.86034415 52.49451142 41.96453580
15243 1 33.43203949 52.49451142 41.96453580
15244 1 32.57480771 52.49451142 39.63317270
15245 1 35.14650306 52.49451142 39.63317270
15246 1 34.28927127 52.49451142 37.30180960
15247 1 36.86096662 52.49451142 37.30180960
15248 1 36.00373484 52.49451142 34.97044650
15249 1 38.57543018 52.49451142 34.97044650
15250 1 37.71819840 52.49451142 32.63908340
15251 1 40.28989375 52.49451142 32.63908340
15252 1 39.43266196 52.49451142 30.30772030
15253 1 42.00435731 52.49451142 30.30772030
15254 1 41.14712553 52.49451142 27.97635720
15255 1 43.71882087 52.49451142 27.97635720
15256 1 42.86158909 52.49451142 25.64499410
15257 1 45.43328444 52.49451142 25.64499410
15258 1 44.57605266 52.49451142 23.31363100
15259 1 47.14774800 52.49451142 23.31363100
15260 1 46.29051622 52.49451142 20.98226790
15261 1 48.86221156 52.49451142 20.98226790
15262 1 48.00497978 52.49451142 18.65090480
15263 1 50.57667513 52.49451142 18.65090480
15264 1 49.71944335 52.49451142 16.31954170
15265 1 52.29113869 52.49451142 16.31954170
15266 1 51.43390691 52.49451142 13.98817860
15267 1 54.00560226 52.49451142 13.98817860
15268 1 53.14837047 52.49451142 11.65681550
15269 1 55.72006582 52.49451142 11.65681550
15270 1 54.86283404 52.49451142 9.32545240
15271 1 57.43452938 52.49451142 9.32545240
15272 1 56.57729760 52.49451142 6.99408930
15273 1 59.14899295 52.49451142 6.99408930
15274 1 58.29176116 52.49451142 4.66272620
15275 1 60.86345651 52.49451142 4.66272620
15276 1 60.00622473 52.49451142 2.33136310
15277 1 62.57792007 52.49451142 2.33136310
15278 1 61.72068829 52.49451142 0.00000000
15279 1 29.14588058 50.47549175 47.79294355
15280 1 31.71757593 50.47549175 47.79294355
15281 1 30.86034415 50.47549175 45.46158045
15282 1 33.43203949 50.47549175 45.46158045
15283 1 32.57480771 50.47549175 43.13021735
15284 1 35.14650306 50.47549175 43.13021735
15285 1 34.28927127 50.47549175 40.79885425
15286 1 36.86096662 50.47549175 40.79885425
15287 1 36.00373484 50.47549175 38.46749115
15288 1 38.57543018 50.47549175 38.46749115
15289 1 37.71819840 50.47549175 36.13612805
15290 1 40.28989375 50.47549175 36.13612805
15291 1 39.43266196 50.47549175 33.80476495
15292 1 42.00435731 50.47549175 33.80476495
15293 1 41.14712553 50.47549175 31.47340185
15294 1 43.71882087 50.47549175 31.47340185
15295 1 42.86158909 50.47549175 29.14203875
15296 1 45.43328444 50.47549175 29.14203875
15297 1 44.57605266 50.47549175 26.81067565
15298 1 47.14774800 50.47549175 26.81067565
15299 1 46.29051622 50.47549175 24.47931255
15300 1 48.86221156 50.47549175 24.47931255
15301 1 48.00497978 50.47549175 22.14794945
15302 1 50.57667513 50.47549175 22.14794945
15303 1 49.71944335 50.47549175 19.81658635
15304 1 52.29113869 50.47549175 19.81658635
15305 1 51.43390691 50.47549175 17.48522325
15306 1 54.00560226 50.47549175 17.48522325
15307 1 53.14837047 50.47549175 15.15386015
15308 1 55.72006582 50.47549175 15.15386015
15309 1 54.86283404 50.47549175 12.82249705
15310 1 57.43452938 50.47549175 12.82249705
15311 1 56.57729760 50.47549175 10.49113395
15312 1 59.14899295 50.47549175 10.49113395
15313 1 58.29176116 50.47549175 8.15977085
15314 1 60.86345651 50.47549175 8.15977085
15315 1 60.00622473 50.47549175 5.82840775
15316 1 62.57792007 50.47549175 5.82840775
15317 1 61.72068829 50.47549175 3.49704465
15318 1 63.43515186 50.47549175 1.16568155
15319 1 32.57480771 48.45647208 46.62726200
15320 1 35.14650306 48.45647208 46.62726200
15321 1 34.28927127 48.45647208 44.29589890
15322 1 36.86096662 48.45647208 44.29589890
15323 1 36.00373484 48.45647208 41.96453580
15324 1 38.57543018 48.45647208 41.96453580
15325 1 37.71819840 48.45647208 39.63317270
15326 1 40.28989375 48.45647208 39.63317270
15327 1 39.43266196 48.45647208 37.30180960
15328 1 42.00435731 48.45647208 37.30180960
15329 1 41.14712553 48.45647208 34.97044650
15330 1 43.71882087 48.45647208 34.97044650
15331 1 42.86158909 48.45647208 32.63908340
15332 1 45.43328444 48.45647208 32.63908340
15333 1 44.57605266 48.45647208 30.30772030
15334 1 47.14774800 48.45647208 30.30772030
15335 1 46.29051622 48.45647208 27.97635720
15336 1 48.86221156 48.45647208 27.97635720
15337 1 48.00497978 48.45647208 25.64499410
15338 1 50.57667513 48.45647208 25.64499410
15339 1 49.71944335 48.45647208 23.31363100
15340 1 52.29113869 48.45647208 23.31363100
15341 1 51.43390691 48.45647208 20.98226790
15342 1 54.00560226 48.45647208 20.98226790
15343 1 53.14837047 48.45647208 18.65090480
15344 1 55.72006582 48.45647208 18.65090480
15345 1 54.86283404 48.45647208 16.31954170
15346 1 57.43452938 48.45647208 16.31954170
15347 1 56.57729760 48.45647208 13.98817860
15348 1 59.14899295 48.45647208 13.98817860
15349 1 58.29176116 48.45647208 11.65681550
15350 1 60.86345651 48.45647208 11.65681550
15351 1 60.00622473 48.45647208 9.32545240
15352 1 62.57792007 48.45647208 9.32545240
15353 1 61.72068829 48.45647208 6.99408930
15354 1 63.43515186 48.45647208 4.66272620
15355 1 34.28927127 46.43745241 47.79294355
15356 1 36.86096662 46.43745241 47.79294355
15357 1 36.00373484 46.43745241 45.46158045
15358 1 38.57543018 46.43745241 45.46158045
15359 1 37.71819840 46.43745241 43.13021735
15360 1 40.28989375 46.43745241 43.13021735
15361 1 39.43266196 46.43745241 40.79885425
15362 1 42.00435731 46.43745241 40.79885425
15363 1 41.14712553 46.43745241 38.46749115
15364 1 43.71882087 46.43745241 38.46749115
15365 1 42.86158909 46.43745241 36.13612805
15366 1 45.43328444 46.43745241 36.13612805
15367 1 44.57605266 46.43745241 33.80476495
15368 1 47.14774800 46.43745241 33.80476495
15369 1 46.29051622 46.43745241 31.47340185
15370 1 48.86221156 46.43745241 31.47340185
15371 1 48.00497978 46.43745241 29.14203875
15372 1 50.57667513 46.43745241 29.14203875
15373 1 49.71944335 46.43745241 26.81067565
15374 1 52.29113869 46.43745241 26.81067565
15375 1 51.43390691 46.43745241 24.47931255
15376 1 54.00560226 46.43745241 24.47931255
15377 1 53.14837047 46.43745241 22.14794945
15378 1 55.72006582 46.43745241 22.14794945
15379 1 54.86283404 46.43745241 19.81658635
15380 1 57.43452938 46.43745241 19.81658635
15381 1 56.57729760 46.43745241 17.48522325
15382 1 59.14899295 46.43745241 17.48522325
15383 1 58.29176116 46.43745241 15.15386015
15384 1 60.86345651 46.43745241 15.15386015
15385 1 60.00622473 46.43745241 12.82249705
15386 1 62.57792007 46.43745241 12.82249705
15387 1 61.72068829 46.43745241 10.49113395
15388 1 63.43515186 46.43745241 8.15977085
15389 1 37.71819840 44.41843274 46.62726200
15390 1 40.28989375 44.41843274 46.62726200
15391 1 39.43266196 44.41843274 44.29589890
15392 1 42.00435731 44.41843274 44.29589890
15393 1 41.14712553 44.41843274 41.96453580
15394 1 43.71882087 44.41843274 41.96453580
15395 1 42.86158909 44.41843274 39.63317270
15396 1 45.43328444 44.41843274 39.63317270
15397 1 44.57605266 44.41843274 37.30180960
15398 1 47.14774800 44.41843274 37.30180960
15399 1 46.29051622 44.41843274 34.97044650
15400 1 48.86221156 44.41843274 34.97044650
15401 1 48.00497978 44.41843274 32.63908340
15402 1 50.57667513 44.41843274 32.63908340
15403 1 49.71944335 44.41843274 30.30772030
15404 1 52.29113869 44.41843274 30.30772030
15405 1 51.43390691 44.41843274 27.97635720
15406 1 54.00560226 44.41843274 27.97635720
15407 1 53.14837047 44.41843274 25.64499410
15408 1 55.72006582 44.41843274 25.64499410
15409 1 54.86283404 44.41843274 23.31363100
15410 1 57.43452938 44.41843274 23.31363100
15411 1 56.57729760 44.41843274 20.98226790
15412 1 59.14899295 44.41843274 20.98226790
15413 1 58.29176116 44.41843274 18.65090480
15414 1 60.86345651 44.41843274 18.65090480
15415 1 60.00622473 44.41843274 16.31954170
15416 1 62.57792007 44.41843274 16.31954170
15417 1 61.72068829 44.41843274 13.98817860
15418 1 63.43515186 44.41843274 11.65681550
15419 1 39.43266196 42.39941307 47.79294355
15420 1 42.00435731 42.39941307 47.79294355
15421 1 41.14712553 42.39941307 45.46158045
15422 1 43.71882087 42.39941307 45.46158045
15423 1 42.86158909 42.39941307 43.13021735
15424 1 45.43328444 42.39941307 43.13021735
15425 1 44.57605266 42.39941307 40.79885425
15426 1 47.14774800 42.39941307 40.79885425
15427 1 46.29051622 42.39941307 38.46749115
15428 1 48.86221156 42.39941307 38.46749115
15429 1 48.00497978 42.39941307 36.13612805
15430 1 50.57667513 42.39941307 36.13612805
15431 1 49.71944335 42.39941307 33.80476495
15432 1 52.29113869 42.39941307 33.80476495
15433 1 51.43390691 42.39941307 31.47340185
15434 1 54.00560226 42.39941307 31.47340185
15435 1 53.14837047 42.39941307 29.14203875
15436 1 55.72006582 42.39941307 29.14203875
15437 1 54.86283404 42.39941307 26.81067565
15438 1 57.43452938 42.39941307 26.81067565
15439 1 56.57729760 42.39941307 24.47931255
15440 1 59.14899295 42.39941307 24.47931255
15441 1 58.29176116 42.39941307 22.14794945
15442 1 60.86345651 42.39941307 22.14794945
15443 1 60.00622473 42.39941307 19.81658635
15444 1 62.57792007 42.39941307 19.81658635
15445 1 61.72068829 42.39941307 17.48522325
15446 1 63.43515186 42.39941307 15.15386015
15447 1 42.86158909 40.38039340 46.62726200
15448 1 45.43328444 40.38039340 46.62726200
15449 1 44.57605266 40.38039340 44.29589890
15450 1 47.14774800 40.38039340 44.29589890
15451 1 46.29051622 40.38039340 41.96453580
15452 1 48.86221156 40.38039340 41.96453580
15453 1 48.00497978 40.38039340 39.63317270
15454 1 50.57667513 40.38039340 39.63317270
15455 1 49.71944335 40.38039340 37.30180960
15456 1 52.29113869 40.38039340 37.30180960
15457 1 51.43390691 40.38039340 34.97044650
15458 1 54.00560226 40.38039340 34.97044650
15459 1 53.14837047 40.38039340 32.63908340
15460 1 55.72006582 40.38039340 32.63908340
15461 1 54.86283404 40.38039340 30.30772030
15462 1 57.43452938 40.38039340 30.30772030
15463 1 56.57729760 40.38039340 27.97635720
15464 1 59.14899295 40.38039340 27.97635720
15465 1 58.29176116 40.38039340 25.64499410
15466 1 60.86345651 40.38039340 25.64499410
15467 1 60.00622473 40.38039340 23.31363100
15468 1 62.57792007 40.38039340 23.31363100
15469 1 61.72068829 40.38039340 20.98226790
15470 1 63.43515186 40.38039340 18.65090480
15471 1 44.57605266 38.36137373 47.79294355
15472 1 47.14774800 38.36137373 47.79294355
15473 1 46.29051622 38.36137373 45.46158045
15474 1 48.86221156 38.36137373 45.46158045
15475 1 48.00497978 38.36137373 43.13021735
15476 1 50.57667513 38.36137373 43.13021735
15477 1 49.71944335 38.36137373 40.79885425
15478 1 52.29113869 38.36137373 40.79885425
15479 1 51.43390691 38.36137373 38.46749115
15480 1 54.00560226 38.36137373 38.46749115
15481 1 53.14837047 38.36137373 36.13612805
15482 1 55.72006582 38.36137373 36.13612805
15483 1 54.86283404 38.36137373 33.80476495
15484 1 57.43452938 38.36137373 33.80476495
15485 1 56.57729760 38.36137373 31.47340185
15486 1 59.14899295 38.36137373 31.47340185
15487 1 58.29176116 38.36137373 29.14203875
15488 1 60.86345651 38.36137373 29.14203875
15489 1 60.00622473 38.36137373 26.81067565
15490 1 62.57792007 38.36137373 26.81067565
15491 1 61.72068829 38.36137373 24.47931255
15492 1 63.43515186 38.36137373 22.14794945
15493 1 48.00497978 36.34235406 46.62726200
15494 1 50.57667513 36.34235406 46.62726200
15495 1 49.71944335 36.34235406 44.29589890
15496 1 52.29113869 36.34235406 44.29589890
15497 1 51.43390691 36.34235406 41.96453580
15498 1 54.00560226 36.34235406 41.96453580
15499 1 53.14837047 36.34235406 39.63317270
15500 1 55.72006582 36.34235406 39.63317270
15501 1 54.86283404 36.34235406 37.30180960
15502 1 57.43452938 36.34235406 37.30180960
15503 1 56.57729760 36.34235406 34.97044650
15504 1 59.14899295 36.34235406 34.97044650
15505 1 58.29176116 36.34235406 32.63908340
15506 1 60.86345651 36.34235406 32.63908340
15507 1 60.00622473 36.34235406 30.30772030
15508 1 62.57792007 36.34235406 30.30772030
15509 1 61.72068829 36.34235406 27.97635720
15510 1 63.43515186 36.34235406 25.64499410
15511 1 49.71944335 34.32333439 47.79294355
15512 1 52.29113869 34.32333439 47.79294355
15513 1 51.43390691 34.32333439 45.46158045
15514 1 54.00560226 34.32333439 45.46158045
15515 1 53.14837047 34.32333439 43.13021735
15516 1 55.72006582 34.32333439 43.13021735
15517 1 54.86283404 34.32333439 40.79885425
15518 1 57.43452938 34.32333439 40.79885425
15519 1 56.57729760 34.32333439 38.46749115
15520 1 59.14899295 34.32333439 38.46749115
15521 1 58.29176116 34.32333439 36.13612805
15522 1 60.86345651 34.32333439 36.13612805
15523 1 60.00622473 34.32333439 33.80476495
15524 1 62.57792007 34.32333439 33.80476495
15525 1 61.72068829 34.32333439 31.47340185
15526 1 63.43515186 34.32333439 29.14203875
15527 1 53.14837047 32.30431472 46.62726200
15528 1 55.72006582 32.30431472 46.62726200
15529 1 54.86283404 32.30431472 44.29589890
15530 1 57.43452938 32.30431472 44.29589890
15531 1 56.57729760 32.30431472 41.96453580
15532 1 59.14899295 32.30431472 41.96453580
15533 1 58.29176116 32.30431472 39.63317270
15534 1 60.86345651 32.30431472 39.63317270
15535 1 60.00622473 32.30431472 37.30180960
15536 1 62.57792007 32.30431472 37.30180960
15537 1 61.72068829 32.30431472 34.97044650
15538 1 63.43515186 32.30431472 32.63908340
15539 1 18.85909920 62.58960977 47.79294355
15540 1 21.43079455 62.58960977 47.79294355
15541 1 20.57356276 62.58960977 45.46158045
15542 1 23.14525811 62.58960977 45.46158045
15543 1 22.28802633 62.58960977 43.13021735
15544 1 24.85972167 62.58960977 43.13021735
15545 1 24.00248989 62.58960977 40.79885425
15546 1 26.57418524 62.58960977 40.79885425
15547 1 25.71695346 62.58960977 38.46749115
15548 1 28.28864880 62.58960977 38.46749115
15549 1 27.43141702 62.58960977 36.13612805
15550 1 30.00311236 62.58960977 36.13612805
15551 1 29.14588058 62.58960977 33.80476495
15552 1 31.71757593 62.58960977 33.80476495
15553 1 30.86034415 62.58960977 31.47340185
15554 1 33.43203949 62.58960977 31.47340185
15555 1 32.57480771 62.58960977 29.14203875
15556 1 35.14650306 62.58960977 29.14203875
15557 1 34.28927127 62.58960977 26.81067565
15558 1 36.86096662 62.58960977 26.81067565
15559 1 36.00373484 62.58960977 24.47931255
15560 1 38.57543018 62.58960977 24.47931255
15561 1 37.71819840 62.58960977 22.14794945
15562 1 40.28989375 62.58960977 22.14794945
15563 1 39.43266196 62.58960977 19.81658635
15564 1 42.00435731 62.58960977 19.81658635
15565 1 41.14712553 62.58960977 17.48522325
15566 1 43.71882087 62.58960977 17.48522325
15567 1 42.86158909 62.58960977 15.15386015
15568 1 45.43328444 62.58960977 15.15386015
15569 1 44.57605266 62.58960977 12.82249705
15570 1 47.14774800 62.58960977 12.82249705
15571 1 46.29051622 62.58960977 10.49113395
15572 1 48.86221156 62.58960977 10.49113395
15573 1 48.00497978 62.58960977 8.15977085
15574 1 50.57667513 62.58960977 8.15977085
15575 1 49.71944335 62.58960977 5.82840775
15576 1 52.29113869 62.58960977 5.82840775
15577 1 51.43390691 62.58960977 3.49704465
15578 1 54.00560226 62.58960977 3.49704465
15579 1 53.14837047 62.58960977 1.16568155
15580 1 55.72006582 62.58960977 1.16568155
15581 1 22.28802633 60.57059010 46.62726200
15582 1 24.85972167 60.57059010 46.62726200
15583 1 24.00248989 60.57059010 44.29589890
15584 1 26.57418524 60.57059010 44.29589890
15585 1 25.71695346 60.57059010 41.96453580
15586 1 28.28864880 60.57059010 41.96453580
15587 1 27.43141702 60.57059010 39.63317270
15588 1 30.00311236 60.57059010 39.63317270
15589 1 29.14588058 60.57059010 37.30180960
15590 1 31.71757593 60.57059010 37.30180960
15591 1 30.86034415 60.57059010 34.97044650
15592 1 33.43203949 60.57059010 34.97044650
15593 1 32.57480771 60.57059010 32.63908340
15594 1 35.14650306 60.57059010 32.63908340
15595 1 34.28927127 60.57059010 30.30772030
15596 1 36.86096662 60.57059010 30.30772030
15597 1 36.00373484 60.57059010 27.97635720
15598 1 38.57543018 60.57059010 27.97635720
15599 1 37.71819840 60.57059010 25.64499410
15600 1 40.28989375 60.57059010 25.64499410
15601 1 39.43266196 60.57059010 23.31363100
15602 1 42.00435731 60.57059010 23.31363100
15603 1 41.14712553 60.57059010 20.98226790
15604 1 43.71882087 60.57059010 20.98226790
15605 1 42.86158909 60.57059010 18.65090480
15606 1 45.43328444 60.57059010 18.65090480
15607 1 44.57605266 60.57059010 16.31954170
15608 1 47.14774800 60.57059010 16.31954170
15609 1 46.29051622 60.57059010 13.98817860
15610 1 48.86221156 60.57059010 13.98817860
15611 1 48.00497978 60.57059010 11.65681550
15612 1 50.57667513 60.57059010 11.65681550
15613 1 49.71944335 60.57059010 9.32545240
15614 1 52.29113869 60.57059010 9.32545240
15615 1 51.43390691 60.57059010 6.99408930
15616 1 54.00560226 60.57059010 6.99408930
15617 1 53.14837047 60.57059010 4.66272620
15618 1 55.72006582 60.57059010 4.66272620
15619 1 54.86283404 60.57059010 2.33136310
15620 1 57.43452938 60.57059010 2.33136310
15621 1 56.57729760 60.57059010 -0.00000000
15622 1 59.14899295 60.57059010 -0.00000000
15623 1 24.00248989 58.55157043 47.79294355
15624 1 26.57418524 58.55157043 47.79294355
15625 1 25.71695346 58.55157043 45.46158045
15626 1 28.28864880 58.55157043 45.46158045
15627 1 27.43141702 58.55157043 43.13021735
15628 1 30.00311236 58.55157043 43.13021735
15629 1 29.14588058 58.55157043 40.79885425
15630 1 31.71757593 58.55157043 40.79885425
15631 1 30.86034415 58.55157043 38.46749115
15632 1 33.43203949 58.55157043 38.46749115
15633 1 32.57480771 58.55157043 36.13612805
15634 1 35.14650306 58.55157043 36.13612805
15635 1 34.28927127 58.55157043 33.80476495
15636 1 36.86096662 58.55157043 33.80476495
15637 1 36.00373484 58.55157043 31.47340185
15638 1 38.57543018 58.55157043 31.47340185
15639 1 37.71819840 58.55157043 29.14203875
15640 1 40.28989375 58.55157043 29.14203875
15641 1 39.43266196 58.55157043 26.81067565
15642 1 42.00435731 58.55157043 26.81067565
15643 1 41.14712553 58.55157043 24.47931255
15644 1 43.71882087 58.55157043 24.47931255
15645 1 42.86158909 58.55157043 22.14794945
15646 1 45.43328444 58.55157043 22.14794945
15647 1 44.57605266 58.55157043 19.81658635
15648 1 47.14774800 58.55157043 19.81658635
15649 1 46.29051622 58.55157043 17.48522325
15650 1 48.86221156 58.55157043 17.48522325
15651 1 48.00497978 58.55157043 15.15386015
15652 1 50.57667513 58.55157043 15.15386015
15653 1 49.71944335 58.55157043 12.82249705
15654 1 52.29113869 58.55157043 12.82249705
15655 1 51.43390691 58.55157043 10.49113395
15656 1 54.00560226 58.55157043 10.49113395
15657 1 53.14837047 58.55157043 8.15977085
15658 1 55.72006582 58.55157043 8.15977085
15659 1 54.86283404 58.55157043 5.82840775
15660 1 57.43452938 58.55157043 5.82840775
15661 1 56.57729760 58.55157043 3.49704465
15662 1 59.14899295 58.55157043 3.49704465
15663 1 58.29176116 58.55157043 1.16568155
15664 1 60.86345651 58.55157043 1.16568155
15665 1 27.43141702 56.53255076 46.62726200
15666 1 30.00311236 56.53255076 46.62726200
15667 1 29.14588058 56.53255076 44.29589890
15668 1 31.71757593 56.53255076 44.29589890
15669 1 30.86034415 56.53255076 41.96453580
15670 1 33.43203949 56.53255076 41.96453580
15671 1 32.57480771 56.53255076 39.63317270
15672 1 35.14650306 56.53255076 39.63317270
15673 1 34.28927127 56.53255076 37.30180960
15674 1 36.86096662 56.53255076 37.30180960
15675 1 36.00373484 56.53255076 34.97044650
15676 1 38.57543018 56.53255076 34.97044650
15677 1 37.71819840 56.53255076 32.63908340
15678 1 40.28989375 56.53255076 32.63908340
15679 1 39.43266196 56.53255076 30.30772030
15680 1 42.00435731 56.53255076 30.30772030
15681 1 41.14712553 56.53255076 27.97635720
15682 1 43.71882087 56.53255076 27.97635720
15683 1 42.86158909 56.53255076 25.64499410
15684 1 45.43328444 56.53255076 25.64499410
15685 1 44.57605266 56.53255076 23.31363100
15686 1 47.14774800 56.53255076 23.31363100
15687 1 46.29051622 56.53255076 20.98226790
15688 1 48.86221156 56.53255076 20.98226790
15689 1 48.00497978 56.53255076 18.65090480
15690 1 50.57667513 56.53255076 18.65090480
15691 1 49.71944335 56.53255076 16.31954170
15692 1 52.29113869 56.53255076 16.31954170
15693 1 51.43390691 56.53255076 13.98817860
15694 1 54.00560226 56.53255076 13.98817860
15695 1 53.14837047 56.53255076 11.65681550
15696 1 55.72006582 56.53255076 11.65681550
15697 1 54.86283404 56.53255076 9.32545240
15698 1 57.43452938 56.53255076 9.32545240
15699 1 56.57729760 56.53255076 6.99408930
15700 1 59.14899295 56.53255076 6.99408930
15701 1 58.29176116 56.53255076 4.66272620
15702 1 60.86345651 56.53255076 4.66272620
15703 1 60.00622473 56.53255076 2.33136310
15704 1 62.57792007 56.53255076 2.33136310
15705 1 61.72068829 56.53255076 0.00000000
15706 1 29.14588058 54.51353109 47.79294355
15707 1 31.71757593 54.51353109 47.79294355
15708 1 30.86034415 54.51353109 45.46158045
15709 1 33.43203949 54.51353109 45.46158045
15710 1 32.57480771 54.51353109 43.13021735
15711 1 35.14650306 54.51353109 43.13021735
15712 1 34.28927127 54.51353109 40.79885425
15713 1 36.86096662 54.51353109 40.79885425
15714 1 36.00373484 54.51353109 38.46749115
15715 1 38.57543018 54.51353109 38.46749115
15716 1 37.71819840 54.51353109 36.13612805
15717 1 40.28989375 54.51353109 36.13612805
15718 1 39.43266196 54.51353109 33.80476495
15719 1 42.00435731 54.51353109 33.80476495
15720 1 41.14712553 54.51353109 31.47340185
15721 1 43.71882087 54.51353109 31.47340185
15722 1 42.86158909 54.51353109 29.14203875
15723 1 45.43328444 54.51353109 29.14203875
15724 1 44.57605266 54.51353109 26.81067565
15725 1 47.14774800 54.51353109 26.81067565
15726 1 46.29051622 54.51353109 24.47931255
15727 1 48.86221156 54.51353109 24.47931255
15728 1 48.00497978 54.51353109 22.14794945
15729 1 50.57667513 54.51353109 22.14794945
15730 1 49.71944335 54.51353109 19.81658635
15731 1 52.29113869 54.51353109 19.81658635
15732 1 51.43390691 54.51353109 17.48522325
15733 1 54.00560226 54.51353109 17.48522325
15734 1 53.14837047 54.51353109 15.15386015
15735 1 55.72006582 54.51353109 15.15386015
15736 1 54.86283404 54.51353109 12.82249705
15737 1 57.43452938 54.51353109 12.82249705
15738 1 56.57729760 54.51353109 10.49113395
15739 1 59.14899295 54.51353109 10.49113395
15740 1 58.29176116 54.51353109 8.15977085
15741 1 60.86345651 54.51353109 8.15977085
15742 1 60.00622473 54.51353109 5.82840775
15743 1 62.57792007 54.51353109 5.82840775
15744 1 61.72068829 54.51353109 3.49704465
15745 1 63.43515186 54.51353109 1.16568155
15746 1 32.57480771 52.49451142 46.62726200
15747 1 35.14650306 52.49451142 46.62726200
15748 1 34.28927127 52.49451142 44.29589890
15749 1 36.86096662 52.49451142 44.29589890
15750 1 36.00373484 52.49451142 41.96453580
15751 1 38.57543018 52.49451142 41.96453580
15752 1 37.71819840 52.49451142 39.63317270
15753 1 40.28989375 52.49451142 39.63317270
15754 1 39.43266196 52.49451142 37.30180960
15755 1 42.00435731 52.49451142 37.30180960
15756 1 41.14712553 52.49451142 34.97044650
15757 1 43.71882087 52.49451142 34.97044650
15758 1 42.86158909 52.49451142 32.63908340
15759 1 45.43328444 52.49451142 32.63908340
15760 1 44.57605266 52.49451142 30.30772030
15761 1 47.14774800 52.49451142 30.30772030
15762 1 46.29051622 52.49451142 27.97635720
15763 1 48.86221156 52.49451142 27.97635720
15764 1 48.00497978 52.49451142 25.64499410
15765 1 50.57667513 52.49451142 25.64499410
15766 1 49.71944335 52.49451142 23.31363100
15767 1 52.29113869 52.49451142 23.31363100
15768 1 51.43390691 52.49451142 20.98226790
15769 1 54.00560226 52.49451142 20.98226790
15770 1 53.14837047 52.49451142 18.65090480
15771 1 55.72006582 52.49451142 18.65090480
15772 1 54.86283404 52.49451142 16.31954170
15773 1 57.43452938 52.49451142 16.31954170
15774 1 56.57729760 52.49451142 13.98817860
15775 1 59.14899295 52.49451142 13.98817860
15776 1 58.29176116 52.49451142 11.65681550
15777 1 60.86345651 52.49451142 11.65681550
15778 1 60.00622473 52.49451142 9.32545240
15779 1 62.57792007 52.49451142 9.32545240
15780 1 61.72068829 52.49451142 6.99408930
15781 1 63.43515186 52.49451142 4.66272620
15782 1 34.28927127 50.47549175 47.79294355
15783 1 36.86096662 50.47549175 47.79294355
15784 1 36.00373484 50.47549175 45.46158045
15785 1 38.57543018 50.47549175 45.46158045
15786 1 37.71819840 50.47549175 43.13021735
15787 1 40.28989375 50.47549175 43.13021735
15788 1 39.43266196 50.47549175 40.79885425
15789 1 42.00435731 50.47549175 40.79885425
15790 1 41.14712553 50.47549175 38.46749115
15791 1 43.71882087 50.47549175 38.46749115
15792 1 42.86158909 50.47549175 36.13612805
15793 1 45.43328444 50.47549175 36.13612805
15794 1 44.57605266 50.47549175 33.80476495
15795 1 47.14774800 50.47549175 33.80476495
15796 1 46.29051622 50.47549175 31.47340185
15797 1 48.86221156 50.47549175 31.47340185
15798 1 48.00497978 50.47549175 29.14203875
15799 1 50.57667513 50.47549175 29.14203875
15800 1 49.71944335 50.47549175 26.81067565
15801 1 52.29113869 50.47549175 26.81067565
15802 1 51.43390691 50.47549175 24.47931255
15803 1 54.00560226 50.47549175 24.47931255
15804 1 53.14837047 50.47549175 22.14794945
15805 1 55.72006582 50.47549175 22.14794945
15806 1 54.86283404 50.47549175 19.81658635
15807 1 57.43452938 50.47549175 19.81658635
15808 1 56.57729760 50.47549175 17.48522325
15809 1 59.14899295 50.47549175 17.48522325
15810 1 58.29176116 50.47549175 15.15386015
15811 1 60.86345651 50.47549175 15.15386015
15812 1 60.00622473 50.47549175 12.82249705
15813 1 62.57792007 50.47549175 12.82249705
15814 1 61.72068829 50.47549175 10.49113395
15815 1 63.43515186 50.47549175 8.15977085
15816 1 37.71819840 48.45647208 46.62726200
15817 1 40.28989375 48.45647208 46.62726200
15818 1 39.43266196 48.45647208 44.29589890
15819 1 42.00435731 48.45647208 44.29589890
15820 1 41.14712553 48.45647208 41.96453580
15821 1 43.71882087 48.45647208 41.96453580
15822 1 42.86158909 48.45647208 39.63317270
15823 1 45.43328444 48.45647208 39.63317270
15824 1 44.57605266 48.45647208 37.30180960
15825 1 47.14774800 48.45647208 37.30180960
15826 1 46.29051622 48.45647208 34.97044650
15827 1 48.86221156 48.45647208 34.97044650
15828 1 48.00497978 48.45647208 32.63908340
15829 1 50.57667513 48.45647208 32.63908340
15830 1 49.71944335 48.45647208 30.30772030
15831 1 52.29113869 48.45647208 30.30772030
15832 1 51.43390691 48.45647208 27.97635720
15833 1 54.00560226 48.45647208 27.97635720
15834 1 53.14837047 48.45647208 25.64499410
15835 1 55.72006582 48.45647208 25.64499410
15836 1 54.86283404 48.45647208 23.31363100
15837 1 57.43452938 48.45647208 23.31363100
15838 1 56.57729760 48.45647208 20.98226790
15839 1 59.14899295 48.45647208 20.98226790
15840 1 58.29176116 48.45647208 18.65090480
15841 1 60.86345651 48.45647208 18.65090480
15842 1 60.00622473 48.45647208 16.31954170
15843 1 62.57792007 48.45647208 16.31954170
15844 1 61.72068829 48.45647208 13.98817860
15845 1 63.43515186 48.45647208 11.65681550
15846 1 39.43266196 46.43745241 47.79294355
15847 1 42.00435731 46.43745241 47.79294355
15848 1 41.14712553 46.43745241 45.46158045
15849 1 43.71882087 46.43745241 45.46158045
15850 1 42.86158909 46.43745241 43.13021735
15851 1 45.43328444 46.43745241 43.13021735
15852 1 44.57605266 46.43745241 40.79885425
15853 1 47.14774800 46.43745241 40.79885425
15854 1 46.29051622 46.43745241 38.46749115
15855 1 48.86221156 46.43745241 38.46749115
15856 1 48.00497978 46.43745241 36.13612805
15857 1 50.57667513 46.43745241 36.13612805
15858 1 49.71944335 46.43745241 33.80476495
15859 1 52.29113869 46.43745241 33.80476495
15860 1 51.43390691 46.43745241 31.47340185
15861 1 54.00560226 46.43745241 31.47340185
15862 1 53.14837047 46.43745241 29.14203875
15863 1 55.72006582 46.43745241 29.14203875
15864 1 54.86283404 46.43745241 26.81067565
15865 1 57.43452938 46.43745241 26.81067565
15866 1 56.57729760 46.43745241 24.47931255
15867 1 59.14899295 46.43745241 24.47931255
15868 1 58.29176116 46.43745241 22.14794945
15869 1 60.86345651 46.43745241 22.14794945
15870 1 60.00622473 46.43745241 19.81658635
15871 1 62.57792007 46.43745241 19.81658635
15872 1 61.72068829 46.43745241 17.48522325
15873 1 63.43515186 46.43745241 15.15386015
15874 1 42.86158909 44.41843274 46.62726200
15875 1 45.43328444 44.41843274 46.62726200
15876 1 44.57605266 44.41843274 44.29589890
15877 1 47.14774800 44.41843274 44.29589890
15878 1 46.29051622 44.41843274 41.96453580
15879 1 48.86221156 44.41843274 41.96453580
15880 1 48.00497978 44.41843274 39.63317270
15881 1 50.57667513 44.41843274 39.63317270
15882 1 49.71944335 44.41843274 37.30180960
15883 1 52.29113869 44.41843274 37.30180960
15884 1 51.43390691 44.41843274 34.97044650
15885 1 54.00560226 44.41843274 34.97044650
15886 1 53.14837047 44.41843274 32.63908340
15887 1 55.72006582 44.41843274 32.63908340
15888 1 54.86283404 44.41843274 30.30772030
15889 1 57.43452938 44.41843274 30.30772030
15890 1 56.57729760 44.41843274 27.97635720
15891 1 59.14899295 44.41843274 27.97635720
15892 1 58.29176116 44.41843274 25.64499410
15893 1 60.86345651 44.41843274 25.64499410
15894 1 60.00622473 44.41843274 23.31363100
15895 1 62.57792007 44.41843274 23.31363100
15896 1 61.72068829 44.41843274 20.98226790
15897 1 63.43515186 44.41843274 18.65090480
15898 1 44.57605266 42.39941307 47.79294355
15899 1 47.14774800 42.39941307 47.79294355
15900 1 46.29051622 42.39941307 45.46158045
15901 1 48.86221156 42.39941307 45.46158045
15902 1 48.00497978 42.39941307 43.13021735
15903 1 50.57667513 42.39941307 43.13021735
15904 1 49.71944335 42.39941307 40.79885425
15905 1 52.29113869 42.39941307 40.79885425
15906 1 51.43390691 42.39941307 38.46749115
15907 1 54.00560226 42.39941307 38.46749115
15908 1 53.14837047 42.39941307 36.13612805
15909 1 55.72006582 42.39941307 36.13612805
15910 1 54.86283404 42.39941307 33.80476495
15911 1 57.43452938 42.39941307 33.80476495
15912 1 56.57729760 42.39941307 31.47340185
15913 1 59.14899295 42.39941307 31.47340185
15914 1 58.29176116 42.39941307 29.14203875
15915 1 60.86345651 42.39941307 29.14203875
15916 1 60.00622473 42.39941307 26.81067565
15917 1 62.57792007 42.39941307 26.81067565
15918 1 61.72068829 42.39941307 24.47931255
15919 1 63.43515186 42.39941307 22.14794945
15920 1 48.00497978 40.38039340 46.62726200
15921 1 50.57667513 40.38039340 46.62726200
15922 1 49.71944335 40.38039340 44.29589890
15923 1 52.29113869 40.38039340 44.29589890
15924 1 51.43390691 40.38039340 41.96453580
15925 1 54.00560226 40.38039340 41.96453580
15926 1 53.14837047 40.38039340 39.63317270
15927 1 55.72006582 40.38039340 39.63317270
15928 1 54.86283404 40.38039340 37.30180960
15929 1 57.43452938 40.38039340 37.30180960
15930 1 56.57729760 40.38039340 34.97044650
15931 1 59.14899295 40.38039340 34.97044650
15932 1 58.29176116 40.38039340 32.63908340
15933 1 60.86345651 40.38039340 32.63908340
15934 1 60.00622473 40.38039340 30.30772030
15935 1 62.57792007 40.38039340 30.30772030
15936 1 61.72068829 40.38039340 27.97635720
15937 1 63.43515186 40.38039340 25.64499410
15938 1 49.71944335 38.36137373 47.79294355
15939 1 52.29113869 38.36137373 47.79294355
15940 1 51.43390691 38.36137373 45.46158045
15941 1 54.00560226 38.36137373 45.46158045
15942 1 53.14837047 38.36137373 43.13021735
15943 1 55.72006582 38.36137373 43.13021735
15944 1 54.86283404 38.36137373 40.79885425
15945 1 57.43452938 38.36137373 40.79885425
15946 1 56.57729760 38.36137373 38.46749115
15947 1 59.14899295 38.36137373 38.46749115
15948 1 58.29176116 38.36137373 36.13612805
15949 1 60.86345651 38.36137373 36.13612805
15950 1 60.00622473 38.36137373 33.80476495
15951 1 62.57792007 38.36137373 33.80476495
15952 1 61.72068829 38.36137373 31.47340185
15953 1 63.43515186 38.36137373 29.14203875
15954 1 53.14837047 36.34235406 46.62726200
15955 1 55.72006582 36.34235406 46.62726200
15956 1 54.86283404 36.34235406 44.29589890
15957 1 57.43452938 36.34235406 44.29589890
15958 1 56.57729760 36.34235406 41.96453580
15959 1 59.14899295 36.34235406 41.96453580
15960 1 58.29176116 36.34235406 39.63317270
15961 1 60.86345651 36.34235406 39.63317270
15962 1 60.00622473 36.34235406 37.30180960
15963 1 62.57792007 36.34235406 37.30180960
15964 1 61.72068829 36.34235406 34.97044650
15965 1 63.43515186 36.34235406 32.63908340
15966 1 54.86283404 34.32333439 47.79294355
15967 1 57.43452938 34.32333439 47.79294355
15968 1 56.57729760 34.32333439 45.46158045
15969 1 59.14899295 34.32333439 45.46158045
15970 1 58.29176116 34.32333439 43.13021735
15971 1 60.86345651 34.32333439 43.13021735
15972 1 60.00622473 34.32333439 40.79885425
15973 1 62.57792007 34.32333439 40.79885425
15974 1 61.72068829 34.32333439 38.46749115
15975 1 63.43515186 34.32333439 36.13612805
15976 1 58.29176116 32.30431472 46.62726200
15977 1 60.86345651 32.30431472 46.62726200
15978 1 60.00622473 32.30431472 44.29589890
15979 1 62.57792007 32.30431472 44.29589890
15980 1 61.72068829 32.30431472 41.96453580
15981 1 63.43515186 32.30431472 39.63317270
15982 1 24.00248989 62.58960977 47.79294355
15983 1 26.57418524 62.58960977 47.79294355
15984 1 25.71695346 62.58960977 45.46158045
15985 1 28.28864880 62.58960977 45.46158045
15986 1 27.43141702 62.58960977 43.13021735
15987 1 30.00311236 62.58960977 43.13021735
15988 1 29.14588058 62.58960977 40.79885425
15989 1 31.71757593 62.58960977 40.79885425
15990 1 30.86034415 62.58960977 38.46749115
15991 1 33.43203949 62.58960977 38.46749115
15992 1 32.57480771 62.58960977 36.13612805
15993 1 35.14650306 62.58960977 36.13612805
15994 1 34.28927127 62.58960977 33.80476495
15995 1 36.86096662 62.58960977 33.80476495
15996 1 36.00373484 62.58960977 31.47340185
15997 1 38.57543018 62.58960977 31.47340185
15998 1 37.71819840 62.58960977 29.14203875
15999 1 40.28989375 62.58960977 29.14203875
16000 1 39.43266196 62.58960977 26.81067565
16001 1 42.00435731 62.58960977 26.81067565
16002 1 41.14712553 62.58960977 24.47931255
16003 1 43.71882087 62.58960977 24.47931255
16004 1 42.86158909 62.58960977 22.14794945
16005 1 45.43328444 62.58960977 22.14794945
16006 1 44.57605266 62.58960977 19.81658635
16007 1 47.14774800 62.58960977 19.81658635
16008 1 46.29051622 62.58960977 17.48522325
16009 1 48.86221156 62.58960977 17.48522325
16010 1 48.00497978 62.58960977 15.15386015
16011 1 50.57667513 62.58960977 15.15386015
16012 1 49.71944335 62.58960977 12.82249705
16013 1 52.29113869 62.58960977 12.82249705
16014 1 51.43390691 62.58960977 10.49113395
16015 1 54.00560226 62.58960977 10.49113395
16016 1 53.14837047 62.58960977 8.15977085
16017 1 55.72006582 62.58960977 8.15977085
16018 1 54.86283404 62.58960977 5.82840775
16019 1 57.43452938 62.58960977 5.82840775
16020 1 56.57729760 62.58960977 3.49704465
16021 1 59.14899295 62.58960977 3.49704465
16022 1 58.29176116 62.58960977 1.16568155
16023 1 60.86345651 62.58960977 1.16568155
16024 1 27.43141702 60.57059010 46.62726200
16025 1 30.00311236 60.57059010 46.62726200
16026 1 29.14588058 60.57059010 44.29589890
16027 1 31.71757593 60.57059010 44.29589890
16028 1 30.86034415 60.57059010 41.96453580
16029 1 33.43203949 60.57059010 41.96453580
16030 1 32.57480771 60.57059010 39.63317270
16031 1 35.14650306 60.57059010 39.63317270
16032 1 34.28927127 60.57059010 37.30180960
16033 1 36.86096662 60.57059010 37.30180960
16034 1 36.00373484 60.57059010 34.97044650
16035 1 38.57543018 60.57059010 34.97044650
16036 1 37.71819840 60.57059010 32.63908340
16037 1 40.28989375 60.57059010 32.63908340
16038 1 39.43266196 60.57059010 30.30772030
16039 1 42.00435731 60.57059010 30.30772030
16040 1 41.14712553 60.57059010 27.97635720
16041 1 43.71882087 60.57059010 27.97635720
16042 1 42.86158909 60.57059010 25.64499410
16043 1 45.43328444 60.57059010 25.64499410
16044 1 44.57605266 60.57059010 23.31363100
16045 1 47.14774800 60.57059010 23.31363100
16046 1 46.29051622 60.57059010 20.98226790
16047 1 48.86221156 60.57059010 20.98226790
16048 1 48.00497978 60.57059010 18.65090480
16049 1 50.57667513 60.57059010 18.65090480
16050 1 49.71944335 60.57059010 16.31954170
16051 1 52.29113869 60.57059010 16.31954170
16052 1 51.43390691 60.57059010 13.98817860
16053 1 54.00560226 60.57059010 13.98817860
16054 1 53.14837047 60.57059010 11.65681550
16055 1 55.72006582 60.57059010 11.65681550
16056 1 54.86283404 60.57059010 9.32545240
16057 1 57.43452938 60.57059010 9.32545240
16058 1 56.57729760 60.57059010 6.99408930
16059 1 59.14899295 60.57059010 6.99408930
16060 1 58.29176116 60.57059010 4.66272620
16061 1 60.86345651 60.57059010 4.66272620
16062 1 60.00622473 60.57059010 2.33136310
16063 1 62.57792007 60.57059010 2.33136310
16064 1 61.72068829 60.57059010 0.00000000
16065 1 29.14588058 58.55157043 47.79294355
16066 1 31.71757593 58.55157043 47.79294355
16067 1 30.86034415 58.55157043 45.46158045
16068 1 33.43203949 58.55157043 45.46158045
16069 1 32.57480771 58.55157043 43.13021735
16070 1 35.14650306 58.55157043 43.13021735
16071 1 34.28927127 58.55157043 40.79885425
16072 1 36.86096662 58.55157043 40.79885425
16073 1 36.00373484 58.55157043 38.46749115
16074 1 38.57543018 58.55157043 38.46749115
16075 1 37.71819840 58.55157043 36.13612805
16076 1 40.28989375 58.55157043 36.13612805
16077 1 39.43266196 58.55157043 33.80476495
16078 1 42.00435731 58.55157043 33.80476495
16079 1 41.14712553 58.55157043 31.47340185
16080 1 43.71882087 58.55157043 31.47340185
16081 1 42.86158909 58.55157043 29.14203875
16082 1 45.43328444 58.55157043 29.14203875
16083 1 44.57605266 58.55157043 26.81067565
16084 1 47.14774800 58.55157043 26.81067565
16085 1 46.29051622 58.55157043 24.47931255
16086 1 48.86221156 58.55157043 24.47931255
16087 1 48.00497978 58.55157043 22.14794945
16088 1 50.57667513 58.55157043 22.14794945
16089 1 49.71944335 58.55157043 19.81658635
16090 1 52.29113869 58.55157043 19.81658635
16091 1 51.43390691 58.55157043 17.48522325
16092 1 54.00560226 58.55157043 17.48522325
16093 1 53.14837047 58.55157043 15.15386015
16094 1 55.72006582 58.55157043 15.15386015
16095 1 54.86283404 58.55157043 12.82249705
16096 1 57.43452938 58.55157043 12.82249705
16097 1 56.57729760 58.55157043 10.49113395
16098 1 59.14899295 58.55157043 10.49113395
16099 1 58.29176116 58.55157043 8.15977085
16100 1 60.86345651 58.55157043 8.15977085
16101 1 60.00622473 58.55157043 5.82840775
16102 1 62.57792007 58.55157043 5.82840775
16103 1 61.72068829 58.55157043 3.49704465
16104 1 63.43515186 58.55157043 1.16568155
16105 1 32.57480771 56.53255076 46.62726200
16106 1 35.14650306 56.53255076 46.62726200
16107 1 34.28927127 56.53255076 44.29589890
16108 1 36.86096662 56.53255076 44.29589890
16109 1 36.00373484 56.53255076 41.96453580
16110 1 38.57543018 56.53255076 41.96453580
16111 1 37.71819840 56.53255076 39.63317270
16112 1 40.28989375 56.53255076 39.63317270
16113 1 39.43266196 56.53255076 37.30180960
16114 1 42.00435731 56.53255076 37.30180960
16115 1 41.14712553 56.53255076 34.97044650
16116 1 43.71882087 56.53255076 34.97044650
16117 1 42.86158909 56.53255076 32.63908340
16118 1 45.43328444 56.53255076 32.63908340
16119 1 44.57605266 56.53255076 30.30772030
16120 1 47.14774800 56.53255076 30.30772030
16121 1 46.29051622 56.53255076 27.97635720
16122 1 48.86221156 56.53255076 27.97635720
16123 1 48.00497978 56.53255076 25.64499410
16124 1 50.57667513 56.53255076 25.64499410
16125 1 49.71944335 56.53255076 23.31363100
16126 1 52.29113869 56.53255076 23.31363100
16127 1 51.43390691 56.53255076 20.98226790
16128 1 54.00560226 56.53255076 20.98226790
16129 1 53.14837047 56.53255076 18.65090480
16130 1 55.72006582 56.53255076 18.65090480
16131 1 54.86283404 56.53255076 16.31954170
16132 1 57.43452938 56.53255076 16.31954170
16133 1 56.57729760 56.53255076 13.98817860
16134 1 59.14899295 56.53255076 13.98817860
16135 1 58.29176116 56.53255076 11.65681550
16136 1 60.86345651 56.53255076 11.65681550
16137 1 60.00622473 56.53255076 9.32545240
16138 1 62.57792007 56.53255076 9.32545240
16139 1 61.72068829 56.53255076 6.99408930
16140 1 63.43515186 56.53255076 4.66272620
16141 1 34.28927127 54.51353109 47.79294355
16142 1 36.86096662 54.51353109 47.79294355
16143 1 36.00373484 54.51353109 45.46158045
16144 1 38.57543018 54.51353109 45.46158045
16145 1 37.71819840 54.51353109 43.13021735
16146 1 40.28989375 54.51353109 43.13021735
16147 1 39.43266196 54.51353109 40.79885425
16148 1 42.00435731 54.51353109 40.79885425
16149 1 41.14712553 54.51353109 38.46749115
16150 1 43.71882087 54.51353109 38.46749115
16151 1 42.86158909 54.51353109 36.13612805
16152 1 45.43328444 54.51353109 36.13612805
16153 1 44.57605266 54.51353109 33.80476495
16154 1 47.14774800 54.51353109 33.80476495
16155 1 46.29051622 54.51353109 31.47340185
16156 1 48.86221156 54.51353109 31.47340185
16157 1 48.00497978 54.51353109 29.14203875
16158 1 50.57667513 54.51353109 29.14203875
16159 1 49.71944335 54.51353109 26.81067565
16160 1 52.29113869 54.51353109 26.81067565
16161 1 51.43390691 54.51353109 24.47931255
16162 1 54.00560226 54.51353109 24.47931255
16163 1 53.14837047 54.51353109 22.14794945
16164 1 55.72006582 54.51353109 22.14794945
16165 1 54.86283404 54.51353109 19.81658635
16166 1 57.43452938 54.51353109 19.81658635
16167 1 56.57729760 54.51353109 17.48522325
16168 1 59.14899295 54.51353109 17.48522325
16169 1 58.29176116 54.51353109 15.15386015
16170 1 60.86345651 54.51353109 15.15386015
16171 1 60.00622473 54.51353109 12.82249705
16172 1 62.57792007 54.51353109 12.82249705
16173 1 61.72068829 54.51353109 10.49113395
16174 1 63.43515186 54.51353109 8.15977085
16175 1 37.71819840 52.49451142 46.62726200
16176 1 40.28989375 52.49451142 46.62726200
16177 1 39.43266196 52.49451142 44.29589890
16178 1 42.00435731 52.49451142 44.29589890
16179 1 41.14712553 52.49451142 41.96453580
16180 1 43.71882087 52.49451142 41.96453580
16181 1 42.86158909 52.49451142 39.63317270
16182 1 45.43328444 52.49451142 39.63317270
16183 1 44.57605266 52.49451142 37.30180960
16184 1 47.14774800 52.49451142 37.30180960
16185 1 46.29051622 52.49451142 34.97044650
16186 1 48.86221156 52.49451142 34.97044650
16187 1 48.00497978 52.49451142 32.63908340
16188 1 50.57667513 52.49451142 32.63908340
16189 1 49.71944335 52.49451142 30.30772030
16190 1 52.29113869 52.49451142 30.30772030
16191 1 51.43390691 52.49451142 27.97635720
16192 1 54.00560226 52.49451142 27.97635720
16193 1 53.14837047 52.49451142 25.64499410
16194 1 55.72006582 52.49451142 25.64499410
16195 1 54.86283404 52.49451142 23.31363100
16196 1 57.43452938 52.49451142 23.31363100
16197 1 56.57729760 52.49451142 20.98226790
16198 1 59.14899295 52.49451142 20.98226790
16199 1 58.29176116 52.49451142 18.65090480
16200 1 60.86345651 52.49451142 18.65090480
16201 1 60.00622473 52.49451142 16.31954170
16202 1 62.57792007 52.49451142 16.31954170
16203 1 61.72068829 52.49451142 13.98817860
16204 1 63.43515186 52.49451142 11.65681550
16205 1 39.43266196 50.47549175 47.79294355
16206 1 42.00435731 50.47549175 47.79294355
16207 1 41.14712553 50.47549175 45.46158045
16208 1 43.71882087 50.47549175 45.46158045
16209 1 42.86158909 50.47549175 43.13021735
16210 1 45.43328444 50.47549175 43.13021735
16211 1 44.57605266 50.47549175 40.79885425
16212 1 47.14774800 50.47549175 40.79885425
16213 1 46.29051622 50.47549175 38.46749115
16214 1 48.86221156 50.47549175 38.46749115
16215 1 48.00497978 50.47549175 36.13612805
16216 1 50.57667513 50.47549175 36.13612805
16217 1 49.71944335 50.47549175 33.80476495
16218 1 52.29113869 50.47549175 33.80476495
16219 1 51.43390691 50.47549175 31.47340185
16220 1 54.00560226 50.47549175 31.47340185
16221 1 53.14837047 50.47549175 29.14203875
16222 1 55.72006582 50.47549175 29.14203875
16223 1 54.86283404 50.47549175 26.81067565
16224 1 57.43452938 50.47549175 26.81067565
16225 1 56.57729760 50.47549175 24.47931255
16226 1 59.14899295 50.47549175 24.47931255
16227 1 58.29176116 50.47549175 22.14794945
16228 1 60.86345651 50.47549175 22.14794945
16229 1 60.00622473 50.47549175 19.81658635
16230 1 62.57792007 50.47549175 19.81658635
16231 1 61.72068829 50.47549175 17.48522325
16232 1 63.43515186 50.47549175 15.15386015
16233 1 42.86158909 48.45647208 46.62726200
16234 1 45.43328444 48.45647208 46.62726200
16235 1 44.57605266 48.45647208 44.29589890
16236 1 47.14774800 48.45647208 44.29589890
16237 1 46.29051622 48.45647208 41.96453580
16238 1 48.86221156 48.45647208 41.96453580
16239 1 48.00497978 48.45647208 39.63317270
16240 1 50.57667513 48.45647208 39.63317270
16241 1 49.71944335 48.45647208 37.30180960
16242 1 52.29113869 48.45647208 37.30180960
16243 1 51.43390691 48.45647208 34.97044650
16244 1 54.00560226 48.45647208 34.97044650
16245 1 53.14837047 48.45647208 32.63908340
16246 1 55.72006582 48.45647208 32.63908340
16247 1 54.86283404 48.45647208 30.30772030
16248 1 57.43452938 48.45647208 30.30772030
16249 1 56.57729760 48.45647208 27.97635720
16250 1 59.14899295 48.45647208 27.97635720
16251 1 58.29176116 48.45647208 25.64499410
16252 1 60.86345651 48.45647208 25.64499410
16253 1 60.00622473 48.45647208 23.31363100
16254 1 62.57792007 48.45647208 23.31363100
16255 1 61.72068829 48.45647208 20.98226790
16256 1 63.43515186 48.45647208 18.65090480
16257 1 44.57605266 46.43745241 47.79294355
16258 1 47.14774800 46.43745241 47.79294355
16259 1 46.29051622 46.43745241 45.46158045
16260 1 48.86221156 46.43745241 45.46158045
16261 1 48.00497978 46.43745241 43.13021735
16262 1 50.57667513 46.43745241 43.13021735
16263 1 49.71944335 46.43745241 40.79885425
16264 1 52.29113869 46.43745241 40.79885425
16265 1 51.43390691 46.43745241 38.46749115
16266 1 54.00560226 46.43745241 38.46749115
16267 1 53.14837047 46.43745241 36.13612805
16268 1 55.72006582 46.43745241 36.13612805
16269 1 54.86283404 46.43745241 33.80476495
16270 1 57.43452938 46.43745241 33.80476495
16271 1 56.57729760 46.43745241 31.47340185
16272 1 59.14899295 46.43745241 31.47340185
16273 1 58.29176116 46.43745241 29.14203875
16274 1 60.86345651 46.43745241 29.14203875
16275 1 60.00622473 46.43745241 26.81067565
16276 1 62.57792007 46.43745241 26.81067565
16277 1 61.72068829 46.43745241 24.47931255
16278 1 63.43515186 46.43745241 22.14794945
16279 1 48.00497978 44.41843274 46.62726200
16280 1 50.57667513 44.41843274 46.62726200
16281 1 49.71944335 44.41843274 44.29589890
16282 1 52.29113869 44.41843274 44.29589890
16283 1 51.43390691 44.41843274 41.96453580
16284 1 54.00560226 44.41843274 41.96453580
16285 1 53.14837047 44.41843274 39.63317270
16286 1 55.72006582 44.41843274 39.63317270
16287 1 54.86283404 44.41843274 37.30180960
16288 1 57.43452938 44.41843274 37.30180960
16289 1 56.57729760 44.41843274 34.97044650
16290 1 59.14899295 44.41843274 34.97044650
16291 1 58.29176116 44.41843274 32.63908340
16292 1 60.86345651 44.41843274 32.63908340
16293 1 60.00622473 44.41843274 30.30772030
16294 1 62.57792007 44.41843274 30.30772030
16295 1 61.72068829 44.41843274 27.97635720
16296 1 63.43515186 44.41843274 25.64499410
16297 1 49.71944335 42.39941307 47.79294355
16298 1 52.29113869 42.39941307 47.79294355
16299 1 51.43390691 42.39941307 45.46158045
16300 1 54.00560226 42.39941307 45.46158045
16301 1 53.14837047 42.39941307 43.13021735
16302 1 55.72006582 42.39941307 43.13021735
16303 1 54.86283404 42.39941307 40.79885425
16304 1 57.43452938 42.39941307 40.79885425
16305 1 56.57729760 42.39941307 38.46749115
16306 1 59.14899295 42.39941307 38.46749115
16307 1 58.29176116 42.39941307 36.13612805
16308 1 60.86345651 42.39941307 36.13612805
16309 1 60.00622473 42.39941307 33.80476495
16310 1 62.57792007 42.39941307 33.80476495
16311 1 61.72068829 42.39941307 31.47340185
16312 1 63.43515186 42.39941307 29.14203875
16313 1 53.14837047 40.38039340 46.62726200
16314 1 55.72006582 40.38039340 46.62726200
16315 1 54.86283404 40.38039340 44.29589890
16316 1 57.43452938 40.38039340 44.29589890
16317 1 56.57729760 40.38039340 41.96453580
16318 1 59.14899295 40.38039340 41.96453580
16319 1 58.29176116 40.38039340 39.63317270
16320 1 60.86345651 40.38039340 39.63317270
16321 1 60.00622473 40.38039340 37.30180960
16322 1 62.57792007 40.38039340 37.30180960
16323 1 61.72068829 40.38039340 34.97044650
16324 1 63.43515186 40.38039340 32.63908340
16325 1 54.86283404 38.36137373 47.79294355
16326 1 57.43452938 38.36137373 47.79294355
16327 1 56.57729760 38.36137373 45.46158045
16328 1 59.14899295 38.36137373 45.46158045
16329 1 58.29176116 38.36137373 43.13021735
16330 1 60.86345651 38.36137373 43.13021735
16331 1 60.00622473 38.36137373 40.79885425
16332 1 62.57792007 38.36137373 40.79885425
16333 1 61.72068829 38.36137373 38.46749115
16334 1 63.43515186 38.36137373 36.13612805
16335 1 58.29176116 36.34235406 46.62726200
16336 1 60.86345651 36.34235406 46.62726200
16337 1 60.00622473 36.34235406 44.29589890
16338 1 62.57792007 36.34235406 44.29589890
16339 1 61.72068829 36.34235406 41.96453580
16340 1 63.43515186 36.34235406 39.63317270
16341 1 60.00622473 34.32333439 47.79294355
16342 1 62.57792007 34.32333439 47.79294355
16343 1 61.72068829 34.32333439 45.46158045
16344 1 63.43515186 34.32333439 43.13021735
16345 1 63.43515186 32.30431472 46.62726200
16346 1 29.14588058 62.58960977 47.79294355
16347 1 31.71757593 62.58960977 47.79294355
16348 1 30.86034415 62.58960977 45.46158045
16349 1 33.43203949 62.58960977 45.46158045
16350 1 32.57480771 62.58960977 43.13021735
16351 1 35.14650306 62.58960977 43.13021735
16352 1 34.28927127 62.58960977 40.79885425
16353 1 36.86096662 62.58960977 40.79885425
16354 1 36.00373484 62.58960977 38.46749115
16355 1 38.57543018 62.58960977 38.46749115
16356 1 37.71819840 62.58960977 36.13612805
16357 1 40.28989375 62.58960977 36.13612805
16358 1 39.43266196 62.58960977 33.80476495
16359 1 42.00435731 62.58960977 33.80476495
16360 1 41.14712553 62.58960977 31.47340185
16361 1 43.71882087 62.58960977 31.47340185
16362 1 42.86158909 62.58960977 29.14203875
16363 1 45.43328444 62.58960977 29.14203875
16364 1 44.57605266 62.58960977 26.81067565
16365 1 47.14774800 62.58960977 26.81067565
16366 1 46.29051622 62.58960977 24.47931255
16367 1 48.86221156 62.58960977 24.47931255
16368 1 48.00497978 62.58960977 22.14794945
16369 1 50.57667513 62.58960977 22.14794945
16370 1 49.71944335 62.58960977 19.81658635
16371 1 52.29113869 62.58960977 19.81658635
16372 1 51.43390691 62.58960977 17.48522325
16373 1 54.00560226 62.58960977 17.48522325
16374 1 53.14837047 62.58960977 15.15386015
16375 1 55.72006582 62.58960977 15.15386015
16376 1 54.86283404 62.58960977 12.82249705
16377 1 57.43452938 62.58960977 12.82249705
16378 1 56.57729760 62.58960977 10.49113395
16379 1 59.14899295 62.58960977 10.49113395
16380 1 58.29176116 62.58960977 8.15977085
16381 1 60.86345651 62.58960977 8.15977085
16382 1 60.00622473 62.58960977 5.82840775
16383 1 62.57792007 62.58960977 5.82840775
16384 1 61.72068829 62.58960977 3.49704465
16385 1 63.43515186 62.58960977 1.16568155
16386 1 32.57480771 60.57059010 46.62726200
16387 1 35.14650306 60.57059010 46.62726200
16388 1 34.28927127 60.57059010 44.29589890
16389 1 36.86096662 60.57059010 44.29589890
16390 1 36.00373484 60.57059010 41.96453580
16391 1 38.57543018 60.57059010 41.96453580
16392 1 37.71819840 60.57059010 39.63317270
16393 1 40.28989375 60.57059010 39.63317270
16394 1 39.43266196 60.57059010 37.30180960
16395 1 42.00435731 60.57059010 37.30180960
16396 1 41.14712553 60.57059010 34.97044650
16397 1 43.71882087 60.57059010 34.97044650
16398 1 42.86158909 60.57059010 32.63908340
16399 1 45.43328444 60.57059010 32.63908340
16400 1 44.57605266 60.57059010 30.30772030
16401 1 47.14774800 60.57059010 30.30772030
16402 1 46.29051622 60.57059010 27.97635720
16403 1 48.86221156 60.57059010 27.97635720
16404 1 48.00497978 60.57059010 25.64499410
16405 1 50.57667513 60.57059010 25.64499410
16406 1 49.71944335 60.57059010 23.31363100
16407 1 52.29113869 60.57059010 23.31363100
16408 1 51.43390691 60.57059010 20.98226790
16409 1 54.00560226 60.57059010 20.98226790
16410 1 53.14837047 60.57059010 18.65090480
16411 1 55.72006582 60.57059010 18.65090480
16412 1 54.86283404 60.57059010 16.31954170
16413 1 57.43452938 60.57059010 16.31954170
16414 1 56.57729760 60.57059010 13.98817860
16415 1 59.14899295 60.57059010 13.98817860
16416 1 58.29176116 60.57059010 11.65681550
16417 1 60.86345651 60.57059010 11.65681550
16418 1 60.00622473 60.57059010 9.32545240
16419 1 62.57792007 60.57059010 9.32545240
16420 1 61.72068829 60.57059010 6.99408930
16421 1 63.43515186 60.57059010 4.66272620
16422 1 34.28927127 58.55157043 47.79294355
16423 1 36.86096662 58.55157043 47.79294355
16424 1 36.00373484 58.55157043 45.46158045
16425 1 38.57543018 58.55157043 45.46158045
16426 1 37.71819840 58.55157043 43.13021735
16427 1 40.28989375 58.55157043 43.13021735
16428 1 39.43266196 58.55157043 40.79885425
16429 1 42.00435731 58.55157043 40.79885425
16430 1 41.14712553 58.55157043 38.46749115
16431 1 43.71882087 58.55157043 38.46749115
16432 1 42.86158909 58.55157043 36.13612805
16433 1 45.43328444 58.55157043 36.13612805
16434 1 44.57605266 58.55157043 33.80476495
16435 1 47.14774800 58.55157043 33.80476495
16436 1 46.29051622 58.55157043 31.47340185
16437 1 48.86221156 58.55157043 31.47340185
16438 1 48.00497978 58.55157043 29.14203875
16439 1 50.57667513 58.55157043 29.14203875
16440 1 49.71944335 58.55157043 26.81067565
16441 1 52.29113869 58.55157043 26.81067565
16442 1 51.43390691 58.55157043 24.47931255
16443 1 54.00560226 58.55157043 24.47931255
16444 1 53.14837047 58.55157043 22.14794945
16445 1 55.72006582 58.55157043 22.14794945
16446 1 54.86283404 58.55157043 19.81658635
16447 1 57.43452938 58.55157043 19.81658635
16448 1 56.57729760 58.55157043 17.48522325
16449 1 59.14899295 58.55157043 17.48522325
16450 1 58.29176116 58.55157043 15.15386015
16451 1 60.86345651 58.55157043 15.15386015
16452 1 60.00622473 58.55157043 12.82249705
16453 1 62.57792007 58.55157043 12.82249705
16454 1 61.72068829 58.55157043 10.49113395
16455 1 63.43515186 58.55157043 8.15977085
16456 1 37.71819840 56.53255076 46.62726200
16457 1 40.28989375 56.53255076 46.62726200
16458 1 39.43266196 56.53255076 44.29589890
16459 1 42.00435731 56.53255076 44.29589890
16460 1 41.14712553 56.53255076 41.96453580
16461 1 43.71882087 56.53255076 41.96453580
16462 1 42.86158909 56.53255076 39.63317270
16463 1 45.43328444 56.53255076 39.63317270
16464 1 44.57605266 56.53255076 37.30180960
16465 1 47.14774800 56.53255076 37.30180960
16466 1 46.29051622 56.53255076 34.97044650
16467 1 48.86221156 56.53255076 34.97044650
16468 1 48.00497978 56.53255076 32.63908340
16469 1 50.57667513 56.53255076 32.63908340
16470 1 49.71944335 56.53255076 30.30772030
16471 1 52.29113869 56.53255076 30.30772030
16472 1 51.43390691 56.53255076 27.97635720
16473 1 54.00560226 56.53255076 27.97635720
16474 1 53.14837047 56.53255076 25.64499410
16475 1 55.72006582 56.53255076 25.64499410
16476 1 54.86283404 56.53255076 23.31363100
16477 1 57.43452938 56.53255076 23.31363100
16478 1 56.57729760 56.53255076 20.98226790
16479 1 59.14899295 56.53255076 20.98226790
16480 1 58.29176116 56.53255076 18.65090480
16481 1 60.86345651 56.53255076 18.65090480
16482 1 60.00622473 56.53255076 16.31954170
16483 1 62.57792007 56.53255076 16.31954170
16484 1 61.72068829 56.53255076 13.98817860
16485 1 63.43515186 56.53255076 11.65681550
16486 1 39.43266196 54.51353109 47.79294355
16487 1 42.00435731 54.51353109 47.79294355
16488 1 41.14712553 54.51353109 45.46158045
16489 1 43.71882087 54.51353109 45.46158045
16490 1 42.86158909 54.51353109 43.13021735
16491 1 45.43328444 54.51353109 43.13021735
16492 1 44.57605266 54.51353109 40.79885425
16493 1 47.14774800 54.51353109 40.79885425
16494 1 46.29051622 54.51353109 38.46749115
16495 1 48.86221156 54.51353109 38.46749115
16496 1 48.00497978 54.51353109 36.13612805
16497 1 50.57667513 54.51353109 36.13612805
16498 1 49.71944335 54.51353109 33.80476495
16499 1 52.29113869 54.51353109 33.80476495
16500 1 51.43390691 54.51353109 31.47340185
16501 1 54.00560226 54.51353109 31.47340185
16502 1 53.14837047 54.51353109 29.14203875
16503 1 55.72006582 54.51353109 29.14203875
16504 1 54.86283404 54.51353109 26.81067565
16505 1 57.43452938 54.51353109 26.81067565
16506 1 56.57729760 54.51353109 24.47931255
16507 1 59.14899295 54.51353109 24.47931255
16508 1 58.29176116 54.51353109 22.14794945
16509 1 60.86345651 54.51353109 22.14794945
16510 1 60.00622473 54.51353109 19.81658635
16511 1 62.57792007 54.51353109 19.81658635
16512 1 61.72068829 54.51353109 17.48522325
16513 1 63.43515186 54.51353109 15.15386015
16514 1 42.86158909 52.49451142 46.62726200
16515 1 45.43328444 52.49451142 46.62726200
16516 1 44.57605266 52.49451142 44.29589890
16517 1 47.14774800 52.49451142 44.29589890
16518 1 46.29051622 52.49451142 41.96453580
16519 1 48.86221156 52.49451142 41.96453580
16520 1 48.00497978 52.49451142 39.63317270
16521 1 50.57667513 52.49451142 39.63317270
16522 1 49.71944335 52.49451142 37.30180960
16523 1 52.29113869 52.49451142 37.30180960
16524 1 51.43390691 52.49451142 34.97044650
16525 1 54.00560226 52.49451142 34.97044650
16526 1 53.14837047 52.49451142 32.63908340
16527 1 55.72006582 52.49451142 32.63908340
16528 1 54.86283404 52.49451142 30.30772030
16529 1 57.43452938 52.49451142 30.30772030
16530 1 56.57729760 52.49451142 27.97635720
16531 1 59.14899295 52.49451142 27.97635720
16532 1 58.29176116 52.49451142 25.64499410
16533 1 60.86345651 52.49451142 25.64499410
16534 1 60.00622473 52.49451142 23.31363100
16535 1 62.57792007 52.49451142 23.31363100
16536 1 61.72068829 52.49451142 20.98226790
16537 1 63.43515186 52.49451142 18.65090480
16538 1 44.57605266 50.47549175 47.79294355
16539 1 47.14774800 50.47549175 47.79294355
16540 1 46.29051622 50.47549175 45.46158045
16541 1 48.86221156 50.47549175 45.46158045
16542 1 48.00497978 50.47549175 43.13021735
16543 1 50.57667513 50.47549175 43.13021735
16544 1 49.71944335 50.47549175 40.79885425
16545 1 52.29113869 50.47549175 40.79885425
16546 1 51.43390691 50.47549175 38.46749115
16547 1 54.00560226 50.47549175 38.46749115
16548 1 53.14837047 50.47549175 36.13612805
16549 1 55.72006582 50.47549175 36.13612805
16550 1 54.86283404 50.47549175 33.80476495
16551 1 57.43452938 50.47549175 33.80476495
16552 1 56.57729760 50.47549175 31.47340185
16553 1 59.14899295 50.47549175 31.47340185
16554 1 58.29176116 50.47549175 29.14203875
16555 1 60.86345651 50.47549175 29.14203875
16556 1 60.00622473 50.47549175 26.81067565
16557 1 62.57792007 50.47549175 26.81067565
16558 1 61.72068829 50.47549175 24.47931255
16559 1 63.43515186 50.47549175 22.14794945
16560 1 48.00497978 48.45647208 46.62726200
16561 1 50.57667513 48.45647208 46.62726200
16562 1 49.71944335 48.45647208 44.29589890
16563 1 52.29113869 48.45647208 44.29589890
16564 1 51.43390691 48.45647208 41.96453580
16565 1 54.00560226 48.45647208 41.96453580
16566 1 53.14837047 48.45647208 39.63317270
16567 1 55.72006582 48.45647208 39.63317270
16568 1 54.86283404 48.45647208 37.30180960
16569 1 57.43452938 48.45647208 37.30180960
16570 1 56.57729760 48.45647208 34.97044650
16571 1 59.14899295 48.45647208 34.97044650
16572 1 58.29176116 48.45647208 32.63908340
16573 1 60.86345651 48.45647208 32.63908340
16574 1 60.00622473 48.45647208 30.30772030
16575 1 62.57792007 48.45647208 30.30772030
16576 1 61.72068829 48.45647208 27.97635720
16577 1 63.43515186 48.45647208 25.64499410
16578 1 49.71944335 46.43745241 47.79294355
16579 1 52.29113869 46.43745241 47.79294355
16580 1 51.43390691 46.43745241 45.46158045
16581 1 54.00560226 46.43745241 45.46158045
16582 1 53.14837047 46.43745241 43.13021735
16583 1 55.72006582 46.43745241 43.13021735
16584 1 54.86283404 46.43745241 40.79885425
16585 1 57.43452938 46.43745241 40.79885425
16586 1 56.57729760 46.43745241 38.46749115
16587 1 59.14899295 46.43745241 38.46749115
16588 1 58.29176116 46.43745241 36.13612805
16589 1 60.86345651 46.43745241 36.13612805
16590 1 60.00622473 46.43745241 33.80476495
16591 1 62.57792007 46.43745241 33.80476495
16592 1 61.72068829 46.43745241 31.47340185
16593 1 63.43515186 46.43745241 29.14203875
16594 1 53.14837047 44.41843274 46.62726200
16595 1 55.72006582 44.41843274 46.62726200
16596 1 54.86283404 44.41843274 44.29589890
16597 1 57.43452938 44.41843274 44.29589890
16598 1 56.57729760 44.41843274 41.96453580
16599 1 59.14899295 44.41843274 41.96453580
16600 1 58.29176116 44.41843274 39.63317270
16601 1 60.86345651 44.41843274 39.63317270
16602 1 60.00622473 44.41843274 37.30180960
16603 1 62.57792007 44.41843274 37.30180960
16604 1 61.72068829 44.41843274 34.97044650
16605 1 63.43515186 44.41843274 32.63908340
16606 1 54.86283404 42.39941307 47.79294355
16607 1 57.43452938 42.39941307 47.79294355
16608 1 56.57729760 42.39941307 45.46158045
16609 1 59.14899295 42.39941307 45.46158045
16610 1 58.29176116 42.39941307 43.13021735
16611 1 60.86345651 42.39941307 43.13021735
16612 1 60.00622473 42.39941307 40.79885425
16613 1 62.57792007 42.39941307 40.79885425
16614 1 61.72068829 42.39941307 38.46749115
16615 1 63.43515186 42.39941307 36.13612805
16616 1 58.29176116 40.38039340 46.62726200
16617 1 60.86345651 40.38039340 46.62726200
16618 1 60.00622473 40.38039340 44.29589890
16619 1 62.57792007 40.38039340 44.29589890
16620 1 61.72068829 40.38039340 41.96453580
16621 1 63.43515186 40.38039340 39.63317270
16622 1 60.00622473 38.36137373 47.79294355
16623 1 62.57792007 38.36137373 47.79294355
16624 1 61.72068829 38.36137373 45.46158045
16625 1 63.43515186 38.36137373 43.13021735
16626 1 63.43515186 36.34235406 46.62726200
16627 1 34.28927127 62.58960977 47.79294355
16628 1 36.86096662 62.58960977 47.79294355
16629 1 36.00373484 62.58960977 45.46158045
16630 1 38.57543018 62.58960977 45.46158045
16631 1 37.71819840 62.58960977 43.13021735
16632 1 40.28989375 62.58960977 43.13021735
16633 1 39.43266196 62.58960977 40.79885425
16634 1 42.00435731 62.58960977 40.79885425
16635 1 41.14712553 62.58960977 38.46749115
16636 1 43.71882087 62.58960977 38.46749115
16637 1 42.86158909 62.58960977 36.13612805
16638 1 45.43328444 62.58960977 36.13612805
16639 1 44.57605266 62.58960977 33.80476495
16640 1 47.14774800 62.58960977 33.80476495
16641 1 46.29051622 62.58960977 31.47340185
16642 1 48.86221156 62.58960977 31.47340185
16643 1 48.00497978 62.58960977 29.14203875
16644 1 50.57667513 62.58960977 29.14203875
16645 1 49.71944335 62.58960977 26.81067565
16646 1 52.29113869 62.58960977 26.81067565
16647 1 51.43390691 62.58960977 24.47931255
16648 1 54.00560226 62.58960977 24.47931255
16649 1 53.14837047 62.58960977 22.14794945
16650 1 55.72006582 62.58960977 22.14794945
16651 1 54.86283404 62.58960977 19.81658635
16652 1 57.43452938 62.58960977 19.81658635
16653 1 56.57729760 62.58960977 17.48522325
16654 1 59.14899295 62.58960977 17.48522325
16655 1 58.29176116 62.58960977 15.15386015
16656 1 60.86345651 62.58960977 15.15386015
16657 1 60.00622473 62.58960977 12.82249705
16658 1 62.57792007 62.58960977 12.82249705
16659 1 61.72068829 62.58960977 10.49113395
16660 1 63.43515186 62.58960977 8.15977085
16661 1 37.71819840 60.57059010 46.62726200
16662 1 40.28989375 60.57059010 46.62726200
16663 1 39.43266196 60.57059010 44.29589890
16664 1 42.00435731 60.57059010 44.29589890
16665 1 41.14712553 60.57059010 41.96453580
16666 1 43.71882087 60.57059010 41.96453580
16667 1 42.86158909 60.57059010 39.63317270
16668 1 45.43328444 60.57059010 39.63317270
16669 1 44.57605266 60.57059010 37.30180960
16670 1 47.14774800 60.57059010 37.30180960
16671 1 46.29051622 60.57059010 34.97044650
16672 1 48.86221156 60.57059010 34.97044650
16673 1 48.00497978 60.57059010 32.63908340
16674 1 50.57667513 60.57059010 32.63908340
16675 1 49.71944335 60.57059010 30.30772030
16676 1 52.29113869 60.57059010 30.30772030
16677 1 51.43390691 60.57059010 27.97635720
16678 1 54.00560226 60.57059010 27.97635720
16679 1 53.14837047 60.57059010 25.64499410
16680 1 55.72006582 60.57059010 25.64499410
16681 1 54.86283404 60.57059010 23.31363100
16682 1 57.43452938 60.57059010 23.31363100
16683 1 56.57729760 60.57059010 20.98226790
16684 1 59.14899295 60.57059010 20.98226790
16685 1 58.29176116 60.57059010 18.65090480
16686 1 60.86345651 60.57059010 18.65090480
16687 1 60.00622473 60.57059010 16.31954170
16688 1 62.57792007 60.57059010 16.31954170
16689 1 61.72068829 60.57059010 13.98817860
16690 1 63.43515186 60.57059010 11.65681550
16691 1 39.43266196 58.55157043 47.79294355
16692 1 42.00435731 58.55157043 47.79294355
16693 1 41.14712553 58.55157043 45.46158045
16694 1 43.71882087 58.55157043 45.46158045
16695 1 42.86158909 58.55157043 43.13021735
16696 1 45.43328444 58.55157043 43.13021735
16697 1 44.57605266 58.55157043 40.79885425
16698 1 47.14774800 58.55157043 40.79885425
16699 1 46.29051622 58.55157043 38.46749115
16700 1 48.86221156 58.55157043 38.46749115
16701 1 48.00497978 58.55157043 36.13612805
16702 1 50.57667513 58.55157043 36.13612805
16703 1 49.71944335 58.55157043 33.80476495
16704 1 52.29113869 58.55157043 33.80476495
16705 1 51.43390691 58.55157043 31.47340185
16706 1 54.00560226 58.55157043 31.47340185
16707 1 53.14837047 58.55157043 29.14203875
16708 1 55.72006582 58.55157043 29.14203875
16709 1 54.86283404 58.55157043 26.81067565
16710 1 57.43452938 58.55157043 26.81067565
16711 1 56.57729760 58.55157043 24.47931255
16712 1 59.14899295 58.55157043 24.47931255
16713 1 58.29176116 58.55157043 22.14794945
16714 1 60.86345651 58.55157043 22.14794945
16715 1 60.00622473 58.55157043 19.81658635
16716 1 62.57792007 58.55157043 19.81658635
16717 1 61.72068829 58.55157043 17.48522325
16718 1 63.43515186 58.55157043 15.15386015
16719 1 42.86158909 56.53255076 46.62726200
16720 1 45.43328444 56.53255076 46.62726200
16721 1 44.57605266 56.53255076 44.29589890
16722 1 47.14774800 56.53255076 44.29589890
16723 1 46.29051622 56.53255076 41.96453580
16724 1 48.86221156 56.53255076 41.96453580
16725 1 48.00497978 56.53255076 39.63317270
16726 1 50.57667513 56.53255076 39.63317270
16727 1 49.71944335 56.53255076 37.30180960
16728 1 52.29113869 56.53255076 37.30180960
16729 1 51.43390691 56.53255076 34.97044650
16730 1 54.00560226 56.53255076 34.97044650
16731 1 53.14837047 56.53255076 32.63908340
16732 1 55.72006582 56.53255076 32.63908340
16733 1 54.86283404 56.53255076 30.30772030
16734 1 57.43452938 56.53255076 30.30772030
16735 1 56.57729760 56.53255076 27.97635720
16736 1 59.14899295 56.53255076 27.97635720
16737 1 58.29176116 56.53255076 25.64499410
16738 1 60.86345651 56.53255076 25.64499410
16739 1 60.00622473 56.53255076 23.31363100
16740 1 62.57792007 56.53255076 23.31363100
16741 1 61.72068829 56.53255076 20.98226790
16742 1 63.43515186 56.53255076 18.65090480
16743 1 44.57605266 54.51353109 47.79294355
16744 1 47.14774800 54.51353109 47.79294355
16745 1 46.29051622 54.51353109 45.46158045
16746 1 48.86221156 54.51353109 45.46158045
16747 1 48.00497978 54.51353109 43.13021735
16748 1 50.57667513 54.51353109 43.13021735
16749 1 49.71944335 54.51353109 40.79885425
16750 1 52.29113869 54.51353109 40.79885425
16751 1 51.43390691 54.51353109 38.46749115
16752 1 54.00560226 54.51353109 38.46749115
16753 1 53.14837047 54.51353109 36.13612805
16754 1 55.72006582 54.51353109 36.13612805
16755 1 54.86283404 54.51353109 33.80476495
16756 1 57.43452938 54.51353109 33.80476495
16757 1 56.57729760 54.51353109 31.47340185
16758 1 59.14899295 54.51353109 31.47340185
16759 1 58.29176116 54.51353109 29.14203875
16760 1 60.86345651 54.51353109 29.14203875
16761 1 60.00622473 54.51353109 26.81067565
16762 1 62.57792007 54.51353109 26.81067565
16763 1 61.72068829 54.51353109 24.47931255
16764 1 63.43515186 54.51353109 22.14794945
16765 1 48.00497978 52.49451142 46.62726200
16766 1 50.57667513 52.49451142 46.62726200
16767 1 49.71944335 52.49451142 44.29589890
16768 1 52.29113869 52.49451142 44.29589890
16769 1 51.43390691 52.49451142 41.96453580
16770 1 54.00560226 52.49451142 41.96453580
16771 1 53.14837047 52.49451142 39.63317270
16772 1 55.72006582 52.49451142 39.63317270
16773 1 54.86283404 52.49451142 37.30180960
16774 1 57.43452938 52.49451142 37.30180960
16775 1 56.57729760 52.49451142 34.97044650
16776 1 59.14899295 52.49451142 34.97044650
16777 1 58.29176116 52.49451142 32.63908340
16778 1 60.86345651 52.49451142 32.63908340
16779 1 60.00622473 52.49451142 30.30772030
16780 1 62.57792007 52.49451142 30.30772030
16781 1 61.72068829 52.49451142 27.97635720
16782 1 63.43515186 52.49451142 25.64499410
16783 1 49.71944335 50.47549175 47.79294355
16784 1 52.29113869 50.47549175 47.79294355
16785 1 51.43390691 50.47549175 45.46158045
16786 1 54.00560226 50.47549175 45.46158045
16787 1 53.14837047 50.47549175 43.13021735
16788 1 55.72006582 50.47549175 43.13021735
16789 1 54.86283404 50.47549175 40.79885425
16790 1 57.43452938 50.47549175 40.79885425
16791 1 56.57729760 50.47549175 38.46749115
16792 1 59.14899295 50.47549175 38.46749115
16793 1 58.29176116 50.47549175 36.13612805
16794 1 60.86345651 50.47549175 36.13612805
16795 1 60.00622473 50.47549175 33.80476495
16796 1 62.57792007 50.47549175 33.80476495
16797 1 61.72068829 50.47549175 31.47340185
16798 1 63.43515186 50.47549175 29.14203875
16799 1 53.14837047 48.45647208 46.62726200
16800 1 55.72006582 48.45647208 46.62726200
16801 1 54.86283404 48.45647208 44.29589890
16802 1 57.43452938 48.45647208 44.29589890
16803 1 56.57729760 48.45647208 41.96453580
16804 1 59.14899295 48.45647208 41.96453580
16805 1 58.29176116 48.45647208 39.63317270
16806 1 60.86345651 48.45647208 39.63317270
16807 1 60.00622473 48.45647208 37.30180960
16808 1 62.57792007 48.45647208 37.30180960
16809 1 61.72068829 48.45647208 34.97044650
16810 1 63.43515186 48.45647208 32.63908340
16811 1 54.86283404 46.43745241 47.79294355
16812 1 57.43452938 46.43745241 47.79294355
16813 1 56.57729760 46.43745241 45.46158045
16814 1 59.14899295 46.43745241 45.46158045
16815 1 58.29176116 46.43745241 43.13021735
16816 1 60.86345651 46.43745241 43.13021735
16817 1 60.00622473 46.43745241 40.79885425
16818 1 62.57792007 46.43745241 40.79885425
16819 1 61.72068829 46.43745241 38.46749115
16820 1 63.43515186 46.43745241 36.13612805
16821 1 58.29176116 44.41843274 46.62726200
16822 1 60.86345651 44.41843274 46.62726200
16823 1 60.00622473 44.41843274 44.29589890
16824 1 62.57792007 44.41843274 44.29589890
16825 1 61.72068829 44.41843274 41.96453580
16826 1 63.43515186 44.41843274 39.63317270
16827 1 60.00622473 42.39941307 47.79294355
16828 1 62.57792007 42.39941307 47.79294355
16829 1 61.72068829 42.39941307 45.46158045
16830 1 63.43515186 42.39941307 43.13021735
16831 1 63.43515186 40.38039340 46.62726200
16832 1 39.43266196 62.58960977 47.79294355
16833 1 42.00435731 62.58960977 47.79294355
16834 1 41.14712553 62.58960977 45.46158045
16835 1 43.71882087 62.58960977 45.46158045
16836 1 42.86158909 62.58960977 43.13021735
16837 1 45.43328444 62.58960977 43.13021735
16838 1 44.57605266 62.58960977 40.79885425
16839 1 47.14774800 62.58960977 40.79885425
16840 1 46.29051622 62.58960977 38.46749115
16841 1 48.86221156 62.58960977 38.46749115
16842 1 48.00497978 62.58960977 36.13612805
16843 1 50.57667513 62.58960977 36.13612805
16844 1 49.71944335 62.58960977 33.80476495
16845 1 52.29113869 62.58960977 33.80476495
16846 1 51.43390691 62.58960977 31.47340185
16847 1 54.00560226 62.58960977 31.47340185
16848 1 53.14837047 62.58960977 29.14203875
16849 1 55.72006582 62.58960977 29.14203875
16850 1 54.86283404 62.58960977 26.81067565
16851 1 57.43452938 62.58960977 26.81067565
16852 1 56.57729760 62.58960977 24.47931255
16853 1 59.14899295 62.58960977 24.47931255
16854 1 58.29176116 62.58960977 22.14794945
16855 1 60.86345651 62.58960977 22.14794945
16856 1 60.00622473 62.58960977 19.81658635
16857 1 62.57792007 62.58960977 19.81658635
16858 1 61.72068829 62.58960977 17.48522325
16859 1 63.43515186 62.58960977 15.15386015
16860 1 42.86158909 60.57059010 46.62726200
16861 1 45.43328444 60.57059010 46.62726200
16862 1 44.57605266 60.57059010 44.29589890
16863 1 47.14774800 60.57059010 44.29589890
16864 1 46.29051622 60.57059010 41.96453580
16865 1 48.86221156 60.57059010 41.96453580
16866 1 48.00497978 60.57059010 39.63317270
16867 1 50.57667513 60.57059010 39.63317270
16868 1 49.71944335 60.57059010 37.30180960
16869 1 52.29113869 60.57059010 37.30180960
16870 1 51.43390691 60.57059010 34.97044650
16871 1 54.00560226 60.57059010 34.97044650
16872 1 53.14837047 60.57059010 32.63908340
16873 1 55.72006582 60.57059010 32.63908340
16874 1 54.86283404 60.57059010 30.30772030
16875 1 57.43452938 60.57059010 30.30772030
16876 1 56.57729760 60.57059010 27.97635720
16877 1 59.14899295 60.57059010 27.97635720
16878 1 58.29176116 60.57059010 25.64499410
16879 1 60.86345651 60.57059010 25.64499410
16880 1 60.00622473 60.57059010 23.31363100
16881 1 62.57792007 60.57059010 23.31363100
16882 1 61.72068829 60.57059010 20.98226790
16883 1 63.43515186 60.57059010 18.65090480
16884 1 44.57605266 58.55157043 47.79294355
16885 1 47.14774800 58.55157043 47.79294355
16886 1 46.29051622 58.55157043 45.46158045
16887 1 48.86221156 58.55157043 45.46158045
16888 1 48.00497978 58.55157043 43.13021735
16889 1 50.57667513 58.55157043 43.13021735
16890 1 49.71944335 58.55157043 40.79885425
16891 1 52.29113869 58.55157043 40.79885425
16892 1 51.43390691 58.55157043 38.46749115
16893 1 54.00560226 58.55157043 38.46749115
16894 1 53.14837047 58.55157043 36.13612805
16895 1 55.72006582 58.55157043 36.13612805
16896 1 54.86283404 58.55157043 33.80476495
16897 1 57.43452938 58.55157043 33.80476495
16898 1 56.57729760 58.55157043 31.47340185
16899 1 59.14899295 58.55157043 31.47340185
16900 1 58.29176116 58.55157043 29.14203875
16901 1 60.86345651 58.55157043 29.14203875
16902 1 60.00622473 58.55157043 26.81067565
16903 1 62.57792007 58.55157043 26.81067565
16904 1 61.72068829 58.55157043 24.47931255
16905 1 63.43515186 58.55157043 22.14794945
16906 1 48.00497978 56.53255076 46.62726200
16907 1 50.57667513 56.53255076 46.62726200
16908 1 49.71944335 56.53255076 44.29589890
16909 1 52.29113869 56.53255076 44.29589890
16910 1 51.43390691 56.53255076 41.96453580
16911 1 54.00560226 56.53255076 41.96453580
16912 1 53.14837047 56.53255076 39.63317270
16913 1 55.72006582 56.53255076 39.63317270
16914 1 54.86283404 56.53255076 37.30180960
16915 1 57.43452938 56.53255076 37.30180960
16916 1 56.57729760 56.53255076 34.97044650
16917 1 59.14899295 56.53255076 34.97044650
16918 1 58.29176116 56.53255076 32.63908340
16919 1 60.86345651 56.53255076 32.63908340
16920 1 60.00622473 56.53255076 30.30772030
16921 1 62.57792007 56.53255076 30.30772030
16922 1 61.72068829 56.53255076 27.97635720
16923 1 63.43515186 56.53255076 25.64499410
16924 1 49.71944335 54.51353109 47.79294355
16925 1 52.29113869 54.51353109 47.79294355
16926 1 51.43390691 54.51353109 45.46158045
16927 1 54.00560226 54.51353109 45.46158045
16928 1 53.14837047 54.51353109 43.13021735
16929 1 55.72006582 54.51353109 43.13021735
16930 1 54.86283404 54.51353109 40.79885425
16931 1 57.43452938 54.51353109 40.79885425
16932 1 56.57729760 54.51353109 38.46749115
16933 1 59.14899295 54.51353109 38.46749115
16934 1 58.29176116 54.51353109 36.13612805
16935 1 60.86345651 54.51353109 36.13612805
16936 1 60.00622473 54.51353109 33.80476495
16937 1 62.57792007 54.51353109 33.80476495
16938 1 61.72068829 54.51353109 31.47340185
16939 1 63.43515186 54.51353109 29.14203875
16940 1 53.14837047 52.49451142 46.62726200
16941 1 55.72006582 52.49451142 46.62726200
16942 1 54.86283404 52.49451142 44.29589890
16943 1 57.43452938 52.49451142 44.29589890
16944 1 56.57729760 52.49451142 41.96453580
16945 1 59.14899295 52.49451142 41.96453580
16946 1 58.29176116 52.49451142 39.63317270
16947 1 60.86345651 52.49451142 39.63317270
16948 1 60.00622473 52.49451142 37.30180960
16949 1 62.57792007 52.49451142 37.30180960
16950 1 61.72068829 52.49451142 34.97044650
16951 1 63.43515186 52.49451142 32.63908340
16952 1 54.86283404 50.47549175 47.79294355
16953 1 57.43452938 50.47549175 47.79294355
16954 1 56.57729760 50.47549175 45.46158045
16955 1 59.14899295 50.47549175 45.46158045
16956 1 58.29176116 50.47549175 43.13021735
16957 1 60.86345651 50.47549175 43.13021735
16958 1 60.00622473 50.47549175 40.79885425
16959 1 62.57792007 50.47549175 40.79885425
16960 1 61.72068829 50.47549175 38.46749115
16961 1 63.43515186 50.47549175 36.13612805
16962 1 58.29176116 48.45647208 46.62726200
16963 1 60.86345651 48.45647208 46.62726200
16964 1 60.00622473 48.45647208 44.29589890
16965 1 62.57792007 48.45647208 44.29589890
16966 1 61.72068829 48.45647208 41.96453580
16967 1 63.43515186 48.45647208 39.63317270
16968 1 60.00622473 46.43745241 47.79294355
16969 1 62.57792007 46.43745241 47.79294355
16970 1 61.72068829 46.43745241 45.46158045
16971 1 63.43515186 46.43745241 43.13021735
16972 1 63.43515186 44.41843274 46.62726200
16973 1 44.57605266 62.58960977 47.79294355
16974 1 47.14774800 62.58960977 47.79294355
16975 1 46.29051622 62.58960977 45.46158045
16976 1 48.86221156 62.58960977 45.46158045
16977 1 48.00497978 62.58960977 43.13021735
16978 1 50.57667513 62.58960977 43.13021735
16979 1 49.71944335 62.58960977 40.79885425
16980 1 52.29113869 62.58960977 40.79885425
16981 1 51.43390691 62.58960977 38.46749115
16982 1 54.00560226 62.58960977 38.46749115
16983 1 53.14837047 62.58960977 36.13612805
16984 1 55.72006582 62.58960977 36.13612805
16985 1 54.86283404 62.58960977 33.80476495
16986 1 57.43452938 62.58960977 33.80476495
16987 1 56.57729760 62.58960977 31.47340185
16988 1 59.14899295 62.58960977 31.47340185
16989 1 58.29176116 62.58960977 29.14203875
16990 1 60.86345651 62.58960977 29.14203875
16991 1 60.00622473 62.58960977 26.81067565
16992 1 62.57792007 62.58960977 26.81067565
16993 1 61.72068829 62.58960977 24.47931255
16994 1 63.43515186 62.58960977 22.14794945
16995 1 48.00497978 60.57059010 46.62726200
16996 1 50.57667513 60.57059010 46.62726200
16997 1 49.71944335 60.57059010 44.29589890
16998 1 52.29113869 60.57059010 44.29589890
16999 1 51.43390691 60.57059010 41.96453580
17000 1 54.00560226 60.57059010 41.96453580
17001 1 53.14837047 60.57059010 39.63317270
17002 1 55.72006582 60.57059010 39.63317270
17003 1 54.86283404 60.57059010 37.30180960
17004 1 57.43452938 60.57059010 37.30180960
17005 1 56.57729760 60.57059010 34.97044650
17006 1 59.14899295 60.57059010 34.97044650
17007 1 58.29176116 60.57059010 32.63908340
17008 1 60.86345651 60.57059010 32.63908340
17009 1 60.00622473 60.57059010 30.30772030
17010 1 62.57792007 60.57059010 30.30772030
17011 1 61.72068829 60.57059010 27.97635720
17012 1 63.43515186 60.57059010 25.64499410
17013 1 49.71944335 58.55157043 47.79294355
17014 1 52.29113869 58.55157043 47.79294355
17015 1 51.43390691 58.55157043 45.46158045
17016 1 54.00560226 58.55157043 45.46158045
17017 1 53.14837047 58.55157043 43.13021735
17018 1 55.72006582 58.55157043 43.13021735
17019 1 54.86283404 58.55157043 40.79885425
17020 1 57.43452938 58.55157043 40.79885425
17021 1 56.57729760 58.55157043 38.46749115
17022 1 59.14899295 58.55157043 38.46749115
17023 1 58.29176116 58.55157043 36.13612805
17024 1 60.86345651 58.55157043 36.13612805
17025 1 60.00622473 58.55157043 33.80476495
17026 1 62.57792007 58.55157043 33.80476495
17027 1 61.72068829 58.55157043 31.47340185
17028 1 63.43515186 58.55157043 29.14203875
17029 1 53.14837047 56.53255076 46.62726200
17030 1 55.72006582 56.53255076 46.62726200
17031 1 54.86283404 56.53255076 44.29589890
17032 1 57.43452938 56.53255076 44.29589890
17033 1 56.57729760 56.53255076 41.96453580
17034 1 59.14899295 56.53255076 41.96453580
17035 1 58.29176116 56.53255076 39.63317270
17036 1 60.86345651 56.53255076 39.63317270
17037 1 60.00622473 56.53255076 37.30180960
17038 1 62.57792007 56.53255076 37.30180960
17039 1 61.72068829 56.53255076 34.97044650
17040 1 63.43515186 56.53255076 32.63908340
17041 1 54.86283404 54.51353109 47.79294355
17042 1 57.43452938 54.51353109 47.79294355
17043 1 56.57729760 54.51353109 45.46158045
17044 1 59.14899295 54.51353109 45.46158045
17045 1 58.29176116 54.51353109 43.13021735
17046 1 60.86345651 54.51353109 43.13021735
17047 1 60.00622473 54.51353109 40.79885425
17048 1 62.57792007 54.51353109 40.79885425
17049 1 61.72068829 54.51353109 38.46749115
17050 1 63.43515186 54.51353109 36.13612805
17051 1 58.29176116 52.49451142 46.62726200
17052 1 60.86345651 52.49451142 46.62726200
17053 1 60.00622473 52.49451142 44.29589890
17054 1 62.57792007 52.49451142 44.29589890
17055 1 61.72068829 52.49451142 41.96453580
17056 1 63.43515186 52.49451142 39.63317270
17057 1 60.00622473 50.47549175 47.79294355
17058 1 62.57792007 50.47549175 47.79294355
17059 1 61.72068829 50.47549175 45.46158045
17060 1 63.43515186 50.47549175 43.13021735
17061 1 63.43515186 48.45647208 46.62726200
17062 1 49.71944335 62.58960977 47.79294355
17063 1 52.29113869 62.58960977 47.79294355
17064 1 51.43390691 62.58960977 45.46158045
17065 1 54.00560226 62.58960977 45.46158045
17066 1 53.14837047 62.58960977 43.13021735
17067 1 55.72006582 62.58960977 43.13021735
17068 1 54.86283404 62.58960977 40.79885425
17069 1 57.43452938 62.58960977 40.79885425
17070 1 56.57729760 62.58960977 38.46749115
17071 1 59.14899295 62.58960977 38.46749115
17072 1 58.29176116 62.58960977 36.13612805
17073 1 60.86345651 62.58960977 36.13612805
17074 1 60.00622473 62.58960977 33.80476495
17075 1 62.57792007 62.58960977 33.80476495
17076 1 61.72068829 62.58960977 31.47340185
17077 1 63.43515186 62.58960977 29.14203875
17078 1 53.14837047 60.57059010 46.62726200
17079 1 55.72006582 60.57059010 46.62726200
17080 1 54.86283404 60.57059010 44.29589890
17081 1 57.43452938 60.57059010 44.29589890
17082 1 56.57729760 60.57059010 41.96453580
17083 1 59.14899295 60.57059010 41.96453580
17084 1 58.29176116 60.57059010 39.63317270
17085 1 60.86345651 60.57059010 39.63317270
17086 1 60.00622473 60.57059010 37.30180960
17087 1 62.57792007 60.57059010 37.30180960
17088 1 61.72068829 60.57059010 34.97044650
17089 1 63.43515186 60.57059010 32.63908340
17090 1 54.86283404 58.55157043 47.79294355
17091 1 57.43452938 58.55157043 47.79294355
17092 1 56.57729760 58.55157043 45.46158045
17093 1 59.14899295 58.55157043 45.46158045
17094 1 58.29176116 58.55157043 43.13021735
17095 1 60.86345651 58.55157043 43.13021735
17096 1 60.00622473 58.55157043 40.79885425
17097 1 62.57792007 58.55157043 40.79885425
17098 1 61.72068829 58.55157043 38.46749115
17099 1 63.43515186 58.55157043 36.13612805
17100 1 58.29176116 56.53255076 46.62726200
17101 1 60.86345651 56.53255076 46.62726200
17102 1 60.00622473 56.53255076 44.29589890
17103 1 62.57792007 56.53255076 44.29589890
17104 1 61.72068829 56.53255076 41.96453580
17105 1 63.43515186 56.53255076 39.63317270
17106 1 60.00622473 54.51353109 47.79294355
17107 1 62.57792007 54.51353109 47.79294355
17108 1 61.72068829 54.51353109 45.46158045
17109 1 63.43515186 54.51353109 43.13021735
17110 1 63.43515186 52.49451142 46.62726200
17111 1 54.86283404 62.58960977 47.79294355
17112 1 57.43452938 62.58960977 47.79294355
17113 1 56.57729760 62.58960977 45.46158045
17114 1 59.14899295 62.58960977 45.46158045
17115 1 58.29176116 62.58960977 43.13021735
17116 1 60.86345651 62.58960977 43.13021735
17117 1 60.00622473 62.58960977 40.79885425
17118 1 62.57792007 62.58960977 40.79885425
17119 1 61.72068829 62.58960977 38.46749115
17120 1 63.43515186 62.58960977 36.13612805
17121 1 58.29176116 60.57059010 46.62726200
17122 1 60.86345651 60.57059010 46.62726200
17123 1 60.00622473 60.57059010 44.29589890
17124 1 62.57792007 60.57059010 44.29589890
17125 1 61.72068829 60.57059010 41.96453580
17126 1 63.43515186 60.57059010 39.63317270
17127 1 60.00622473 58.55157043 47.79294355
17128 1 62.57792007 58.55157043 47.79294355
17129 1 61.72068829 58.55157043 45.46158045
17130 1 63.43515186 58.55157043 43.13021735
17131 1 63.43515186 56.53255076 46.62726200
17132 1 60.00622473 62.58960977 47.79294355
17133 1 62.57792007 62.58960977 47.79294355
17134 1 61.72068829 62.58960977 45.46158045
17135 1 63.43515186 62.58960977 43.13021735
17136 1 63.43515186 60.57059010 46.62726200
