LAMMPS (22 Jul 2025 - Update 4)
OMP_NUM_THREADS environment is not set. Defaulting to 1 thread.
  using 1 OpenMP thread(s) per MPI task

units metal
dimension 3
boundary p s p
atom_style atomic
atom_modify map array sort 0 0.0
read_data out/edge_precip.data
Reading data file ...
  orthogonal box = (0 0 0) to (64.292384 64.608629 48.958625)
  1 by 1 by 1 MPI processor grid
  reading atoms ...
  17136 atoms
  read_data CPU = 0.021 seconds
pair_style eam/fs
pair_coeff * * /usr/local/lib/python3.11/dist-packages/lammps/share/lammps/potentials/Fe_mm.eam.fs Fe Fe
Reading eam/fs potential file /usr/local/lib/python3.11/dist-packages/lammps/share/lammps/potentials/Fe_mm.eam.fs with DATE: 2007-06-11

region rlo block INF INF INF 8.0 INF INF units box
region rhi block INF INF 56.608629439699996 INF INF INF units box
group lo region rlo
2184 atoms in group lo
group hi region rhi
1575 atoms in group hi
group boundary union lo hi
3759 atoms in group boundary
group interior subtract all boundary
13377 atoms in group interior
group precip type 2
612 atoms in group precip
group mobile subtract interior precip
12765 atoms in group mobile

compute cna all cna/atom 3.4466821699914787
compute cs  all centro/atom bcc
compute peat all pe/atom
compute sa interior stress/atom NULL
compute svir interior reduce sum c_sa[1] c_sa[2] c_sa[3] c_sa[4] c_sa[5] c_sa[6]

timestep 0.002
velocity all set 0.0 0.0 0.0
fix frz boundary setforce 0.0 0.0 0.0

min_style cg
min_modify dmax 0.05
minimize 1e-12 1e-12 20000 40000
Neighbor list info ...
  update: every = 1 steps, delay = 0 steps, check = yes
  max neighbors/atom: 2000, page size: 100000
  master list distance cutoff = 7.3
  ghost atom cutoff = 7.3
  binsize = 3.65, bins = 18 18 14
  3 neighbor lists, perpetual/occasional/extra = 1 2 0
  (1) pair eam/fs, perpetual
      attributes: half, newton on
      pair build: half/bin/atomonly/newton
      stencil: half/bin/3d
      bin: standard
  (2) compute cna/atom, occasional
      attributes: full, newton on
      pair build: full/bin/atomonly
      stencil: full/bin/3d
      bin: standard
  (3) compute centro/atom, occasional
      attributes: full, newton on
      pair build: full/bin/atomonly
      stencil: full/bin/3d
      bin: standard
Per MPI rank memory allocation (min/avg/max) = 16.8 | 16.8 | 16.8 Mbytes
   Step          Temp          E_pair         E_mol          TotEng         Press          Volume    
         0   0             -69775.759      0             -69775.759     -31429.167      197051.9     
        87   0             -69832.217      0             -69832.217     -31636.543      197051.9     
Loop time of 2.93479 on 1 procs for 87 steps with 17136 atoms

100.0% CPU use with 1 MPI tasks x 1 OpenMP threads

Minimization stats:
  Stopping criterion = energy tolerance
  Energy initial, next-to-last, final = 
     -69775.7592979406  -69832.2167157895  -69832.2167158163
  Force two-norm initial, final = 14.421009 0.00062412776
  Force max component initial, final = 0.52149745 1.3209295e-05
  Final line search alpha, max atom move = 1 1.3209295e-05
  Iterations, force evaluations = 87 160

MPI task timing breakdown:
Section |  min time  |  avg time  |  max time  |%varavg| %total
---------------------------------------------------------------
Pair    | 2.8732     | 2.8732     | 2.8732     |   0.0 | 97.90
Neigh   | 0          | 0          | 0          |   0.0 |  0.00
Comm    | 0.009729   | 0.009729   | 0.009729   |   0.0 |  0.33
Output  | 0          | 0          | 0          |   0.0 |  0.00
Modify  | 0.0029427  | 0.0029427  | 0.0029427  |   0.0 |  0.10
Other   |            | 0.04888    |            |       |  1.67

Nlocal:          17136 ave       17136 max       17136 min
Histogram: 1 0 0 0 0 0 0 0 0 0
Nghost:          10280 ave       10280 max       10280 min
Histogram: 1 0 0 0 0 0 0 0 0 0
Neighs:    1.11985e+06 ave 1.11985e+06 max 1.11985e+06 min
Histogram: 1 0 0 0 0 0 0 0 0 0
FullNghs:            0 ave           0 max           0 min
Histogram: 1 0 0 0 0 0 0 0 0 0

Total # of neighbors = 1119846
Ave neighs/atom = 65.35049
Neighbor list builds = 0
Dangerous builds = 0

run 0
WARNING: No fixes with time integration, atoms won't move
For more information see https://docs.lammps.org/err0028 (src/src/verlet.cpp:60)
Per MPI rank memory allocation (min/avg/max) = 14.55 | 14.55 | 14.55 Mbytes
   Step          Temp          E_pair         E_mol          TotEng         Press          Volume    
        87   0             -69832.217      0             -69832.217     -31636.543      197051.9     
Loop time of 1.122e-06 on 1 procs for 0 steps with 17136 atoms

267.4% CPU use with 1 MPI tasks x 1 OpenMP threads

MPI task timing breakdown:
Section |  min time  |  avg time  |  max time  |%varavg| %total
---------------------------------------------------------------
Pair    | 0          | 0          | 0          |   0.0 |  0.00
Neigh   | 0          | 0          | 0          |   0.0 |  0.00
Comm    | 0          | 0          | 0          |   0.0 |  0.00
Output  | 0          | 0          | 0          |   0.0 |  0.00
Modify  | 0          | 0          | 0          |   0.0 |  0.00
Other   |            | 1.122e-06  |            |       |100.00

Nlocal:          17136 ave       17136 max       17136 min
Histogram: 1 0 0 0 0 0 0 0 0 0
Nghost:          10280 ave       10280 max       10280 min
Histogram: 1 0 0 0 0 0 0 0 0 0
Neighs:     1.1171e+06 ave  1.1171e+06 max  1.1171e+06 min
Histogram: 1 0 0 0 0 0 0 0 0 0
FullNghs:            0 ave           0 max           0 min
Histogram: 1 0 0 0 0 0 0 0 0 0

Total # of neighbors = 1117102
Ave neighs/atom = 65.190359
Neighbor list builds = 0
Dangerous builds = 0

dump d0 all custom 1 out/edge_precip.relaxed.dump id type x y z c_cna c_cs c_peat
dump_modify d0 sort id
run 0
WARNING: No fixes with time integration, atoms won't move
For more information see https://docs.lammps.org/err0028 (src/src/verlet.cpp:60)
Per MPI rank memory allocation (min/avg/max) = 25.32 | 25.32 | 25.32 Mbytes
   Step          Temp          E_pair         E_mol          TotEng         Press          Volume    
        87   0             -69832.217      0             -69832.217     -31636.543      197051.9     
Loop time of 1.699e-06 on 1 procs for 0 steps with 17136 atoms

353.1% CPU use with 1 MPI tasks x 1 OpenMP threads

MPI task timing breakdown:
Section |  min time  |  avg time  |  max time  |%varavg| %total
---------------------------------------------------------------
Pair    | 0          | 0          | 0          |   0.0 |  0.00
Neigh   | 0          | 0          | 0          |   0.0 |  0.00
Comm    | 0          | 0          | 0          |   0.0 |  0.00
Output  | 0          | 0          | 0          |   0.0 |  0.00
Modify  | 0          | 0          | 0          |   0.0 |  0.00
Other   |            | 1.699e-06  |            |       |100.00

Nlocal:          17136 ave       17136 max       17136 min
Histogram: 1 0 0 0 0 0 0 0 0 0
Nghost:          10280 ave       10280 max       10280 min
Histogram: 1 0 0 0 0 0 0 0 0 0
Neighs:     1.1171e+06 ave  1.1171e+06 max  1.1171e+06 min
Histogram: 1 0 0 0 0 0 0 0 0 0
FullNghs:   2.2342e+06 ave  2.2342e+06 max  2.2342e+06 min
Histogram: 1 0 0 0 0 0 0 0 0 0

Total # of neighbors = 2234204
Ave neighs/atom = 130.38072
Neighbor list builds = 0
Dangerous builds = 0
undump d0


velocity mobile create 300.0 12345 mom yes rot no dist gaussian
fix integ mobile nve
fix thermo_l mobile langevin 300.0 300.0 1.0 12352 zero yes
run 2000
Per MPI rank memory allocation (min/avg/max) = 34.21 | 34.21 | 34.21 Mbytes
   Step          Temp          E_pair         E_mol          TotEng         Press          Volume    
        87   223.47242     -69832.217      0             -69337.254     -28953.602      197051.9     
      2087   220.95233     -69322.337      0             -68832.956     -24563.205      197051.9     
Loop time of 34.4409 on 1 procs for 2000 steps with 17136 atoms

Performance: 10.035 ns/day, 2.392 hours/ns, 58.070 timesteps/s, 995.095 katom-step/s
100.0% CPU use with 1 MPI tasks x 1 OpenMP threads

MPI task timing breakdown:
Section |  min time  |  avg time  |  max time  |%varavg| %total
---------------------------------------------------------------
Pair    | 32.985     | 32.985     | 32.985     |   0.0 | 95.77
Neigh   | 0          | 0          | 0          |   0.0 |  0.00
Comm    | 0.1214     | 0.1214     | 0.1214     |   0.0 |  0.35
Output  | 8.1854e-05 | 8.1854e-05 | 8.1854e-05 |   0.0 |  0.00
Modify  | 1.1889     | 1.1889     | 1.1889     |   0.0 |  3.45
Other   |            | 0.1452     |            |       |  0.42

Nlocal:          17136 ave       17136 max       17136 min
Histogram: 1 0 0 0 0 0 0 0 0 0
Nghost:          10280 ave       10280 max       10280 min
Histogram: 1 0 0 0 0 0 0 0 0 0
Neighs:     1.1171e+06 ave  1.1171e+06 max  1.1171e+06 min
Histogram: 1 0 0 0 0 0 0 0 0 0
FullNghs:   2.2342e+06 ave  2.2342e+06 max  2.2342e+06 min
Histogram: 1 0 0 0 0 0 0 0 0 0

Total # of neighbors = 2234204
Ave neighs/atom = 130.38072
Neighbor list builds = 0
Dangerous builds = 0
